TITLE="results for TO code"
VARIABLES = "x", "y", "z", "density", "sigmaxx", "sigmayy", "sigmazz", "sigmaxy", "sigmaxz", "sigmayz"
ZONE T="load step 1", NODES= 12221, ELEMENTS= 10000, DATAPACKING=POINT, ZONETYPE=FEBRICK
               0.00000000                0.00000000                0.00000000                1.00000000                0.00000000               -0.00000000                2.50331634               -0.00000000                0.66891028                1.49059168
               1.00000000                0.00000000                0.00000000                1.00000000               -0.00000000                0.00000000                1.64668479                0.00000000               -0.01090118                0.92283683
               2.00000000                0.00000000                0.00000000                1.00000000               -0.00000000               -0.00000000                0.67272205                0.00000000               -0.22362208                0.35715153
               3.00000000                0.00000000                0.00000000                1.00000000               -0.00000000                0.00000000                0.01444449               -0.00000000               -0.08690723                0.01427143
               4.00000000                0.00000000                0.00000000                1.00000000               -0.00000000                0.00000000               -0.02956425               -0.00000000                0.02097065               -0.03549083
               5.00000000                0.00000000                0.00000000                1.00000000               -0.00000000               -0.00000000               -0.00959850                0.00000000                0.04686180               -0.00751278
               6.00000000                0.00000000                0.00000000                1.00000000               -0.00000000               -0.00000000               -0.00415752               -0.00000000                0.03121982                0.00724162
               7.00000000                0.00000000                0.00000000                1.00000000                0.00000000                0.00000000               -0.09730291               -0.00000000               -0.03193355               -0.07373715
               8.00000000                0.00000000                0.00000000                1.00000000                0.00000000               -0.00000000               -0.81242015                0.00000000               -0.06784688               -0.53679900
               9.00000000                0.00000000                0.00000000                1.00000000               -0.00000000                0.00000000               -2.05838973               -0.00000000                0.33122354               -1.20967059
              10.00000000                0.00000000                0.00000000                1.00000000               -0.00000000               -0.00000000               -3.32434394                0.00000000                1.25645378               -1.77774466
               0.00000000                1.00000000                0.00000000                1.00000000               -0.00000000               -0.00000000                2.05243632                0.00000000                1.01415945                0.77648454
               1.00000000                1.00000000                0.00000000                1.00000000                0.00000000               -0.00000000                1.16092808                0.00000000                0.36804396                0.42317349
               2.00000000                1.00000000                0.00000000                1.00000000                0.00000000                0.00000000                0.34560043               -0.00000000                0.09630289                0.07083540
               3.00000000                1.00000000                0.00000000                1.00000000                0.00000000               -0.00000000                0.00247030                0.00000000                0.04609151               -0.03088813
               4.00000000                1.00000000                0.00000000                1.00000000                0.00000000               -0.00000000               -0.00174420                0.00000000                0.02758039               -0.02408817
               5.00000000                1.00000000                0.00000000                1.00000000                0.00000000                0.00000000               -0.00292095               -0.00000000                0.02661019               -0.00382553
               6.00000000                1.00000000                0.00000000                1.00000000                0.00000000               -0.00000000               -0.00657482                0.00000000                0.04250689                0.01062528
               7.00000000                1.00000000                0.00000000                1.00000000               -0.00000000               -0.00000000               -0.04107977                0.00000000                0.09620472               -0.01329740
               8.00000000                1.00000000                0.00000000                1.00000000               -0.00000000                0.00000000               -0.27383466               -0.00000000                0.23113375               -0.12275657
               9.00000000                1.00000000                0.00000000                1.00000000                0.00000000                0.00000000               -1.35598744                0.00000000                0.63391085               -0.52816617
              10.00000000                1.00000000                0.00000000                1.00000000               -0.00000000               -0.00000000               -2.94969056               -0.00000000                1.54215498               -0.85681678
               0.00000000                2.00000000                0.00000000                1.00000000               -0.00000000                0.00000000                2.02114402               -0.00000000                1.14654992                0.37421786
               1.00000000                2.00000000                0.00000000                1.00000000               -0.00000000               -0.00000000                0.82562946                0.00000000                0.46527245                0.16592900
               2.00000000                2.00000000                0.00000000                1.00000000               -0.00000000               -0.00000000                0.05662022                0.00000000                0.18011550               -0.02093915
               3.00000000                2.00000000                0.00000000                1.00000000                0.00000000               -0.00000000                0.00010671                0.00000000                0.07016056               -0.01449273
               4.00000000                2.00000000                0.00000000                1.00000000                0.00000000                0.00000000                0.00179404                0.00000000                0.02577875               -0.01159542
               5.00000000                2.00000000                0.00000000                1.00000000                0.00000000               -0.00000000               -0.00008083               -0.00000000                0.01527594               -0.00391203
               6.00000000                2.00000000                0.00000000                1.00000000               -0.00000000                0.00000000               -0.00040654               -0.00000000                0.02823921               -0.00270319
               7.00000000                2.00000000                0.00000000                1.00000000               -0.00000000                0.00000000               -0.00973913               -0.00000000                0.07183672               -0.01943579
               8.00000000                2.00000000                0.00000000                1.00000000                0.00000000               -0.00000000                0.05068515                0.00000000                0.17117748               -0.07841461
               9.00000000                2.00000000                0.00000000                1.00000000               -0.00000000               -0.00000000               -0.68903585                0.00000000                0.45733433               -0.20072288
              10.00000000                2.00000000                0.00000000                1.00000000               -0.00000000                0.00000000               -2.35430619               -0.00000000                1.46270106               -0.18264039
               0.00000000                3.00000000                0.00000000                1.00000000                0.00000000               -0.00000000                1.92528038                0.00000000                1.11002752                0.11424631
               1.00000000                3.00000000                0.00000000                1.00000000               -0.00000000                0.00000000                0.53300976               -0.00000000                0.44012591                0.04200595
               2.00000000                3.00000000                0.00000000                1.00000000                0.00000000               -0.00000000               -0.05189768                0.00000000                0.18561706               -0.03045468
               3.00000000                3.00000000                0.00000000                1.00000000               -0.00000000               -0.00000000                0.01167951               -0.00000000                0.07440937               -0.00701401
               4.00000000                3.00000000                0.00000000                1.00000000               -0.00000000               -0.00000000                0.00084912                0.00000000                0.02921470               -0.00434850
               5.00000000                3.00000000                0.00000000                1.00000000               -0.00000000                0.00000000                0.00027831                0.00000000                0.01613764               -0.00336241
               6.00000000                3.00000000                0.00000000                1.00000000                0.00000000                0.00000000               -0.00121795                0.00000000                0.02152896               -0.00603079
               7.00000000                3.00000000                0.00000000                1.00000000                0.00000000                0.00000000               -0.00313205                0.00000000                0.04611033               -0.01903699
               8.00000000                3.00000000                0.00000000                1.00000000               -0.00000000                0.00000000                0.00301030                0.00000000                0.09757994               -0.05215485
               9.00000000                3.00000000                0.00000000                1.00000000               -0.00000000                0.00000000               -0.26323880               -0.00000000                0.22291336               -0.09367230
              10.00000000                3.00000000                0.00000000                1.00000000                0.00000000               -0.00000000               -1.20697884                0.00000000                0.94471493                0.04138323
               0.00000000                4.00000000                0.00000000                1.00000000               -0.00000000               -0.00000000                1.75962159               -0.00000000                0.99419982               -0.03855623
               1.00000000                4.00000000                0.00000000                1.00000000                0.00000000               -0.00000000                0.33425407                0.00000000                0.39522116               -0.03407786
               2.00000000                4.00000000                0.00000000                1.00000000               -0.00000000                0.00000000               -0.08065220                0.00000000                0.18538820               -0.03032269
               3.00000000                4.00000000                0.00000000                1.00000000                0.00000000               -0.00000000                0.01278314                0.00000000                0.07488793               -0.00397597
               4.00000000                4.00000000                0.00000000                1.00000000               -0.00000000                0.00000000                0.00121085                0.00000000                0.02947678               -0.00157151
               5.00000000                4.00000000                0.00000000                1.00000000               -0.00000000               -0.00000000                0.00037564               -0.00000000                0.01538483               -0.00207433
               6.00000000                4.00000000                0.00000000                1.00000000               -0.00000000               -0.00000000               -0.00040548                0.00000000                0.01624321               -0.00475532
               7.00000000                4.00000000                0.00000000                1.00000000               -0.00000000               -0.00000000               -0.00370451               -0.00000000                0.02968674               -0.01180233
               8.00000000                4.00000000                0.00000000                1.00000000                0.00000000               -0.00000000                0.01209169                0.00000000                0.05786811               -0.02274231
               9.00000000                4.00000000                0.00000000                1.00000000               -0.00000000               -0.00000000               -0.20989739               -0.00000000                0.13143666               -0.00065779
              10.00000000                4.00000000                0.00000000                1.00000000               -0.00000000                0.00000000               -1.03747924               -0.00000000                0.72017100                0.09112633
               0.00000000                5.00000000                0.00000000                1.00000000                0.00000000                0.00000000                1.57348041                0.00000000                0.86270851               -0.12270282
               1.00000000                5.00000000                0.00000000                1.00000000               -0.00000000               -0.00000000                0.14870207               -0.00000000                0.34623537               -0.07808159
               2.00000000                5.00000000                0.00000000                1.00000000               -0.00000000               -0.00000000               -0.09700769                0.00000000                0.17902490               -0.02836793
               3.00000000                5.00000000                0.00000000                1.00000000                0.00000000               -0.00000000                0.01405925                0.00000000                0.07324100               -0.00192665
               4.00000000                5.00000000                0.00000000                1.00000000               -0.00000000                0.00000000                0.00107172                0.00000000                0.02861117               -0.00011564
               5.00000000                5.00000000                0.00000000                1.00000000               -0.00000000               -0.00000000                0.00054688                0.00000000                0.01409450               -0.00088405
               6.00000000                5.00000000                0.00000000                1.00000000                0.00000000                0.00000000               -0.00024226                0.00000000                0.01284635               -0.00255119
               7.00000000                5.00000000                0.00000000                1.00000000                0.00000000               -0.00000000               -0.00220209                0.00000000                0.02161703               -0.00499861
               8.00000000                5.00000000                0.00000000                1.00000000                0.00000000                0.00000000                0.00861019               -0.00000000                0.04310177               -0.00244621
               9.00000000                5.00000000                0.00000000                1.00000000                0.00000000                0.00000000               -0.14845272               -0.00000000                0.10752373                0.05532535
              10.00000000                5.00000000                0.00000000                1.00000000               -0.00000000                0.00000000               -0.90268241                0.00000000                0.61069460                0.13374906
               0.00000000                6.00000000                0.00000000                1.00000000                0.00000000                0.00000000                1.37780125                0.00000000                0.73314781               -0.16161083
               1.00000000                6.00000000                0.00000000                1.00000000               -0.00000000               -0.00000000               -0.01929003                0.00000000                0.30392240               -0.09887123
               2.00000000                6.00000000                0.00000000                1.00000000                0.00000000                0.00000000               -0.10439457               -0.00000000                0.17265799               -0.02448563
               3.00000000                6.00000000                0.00000000                1.00000000               -0.00000000               -0.00000000                0.01425889                0.00000000                0.07064614                0.00013492
               4.00000000                6.00000000                0.00000000                1.00000000                0.00000000               -0.00000000                0.00099255                0.00000000                0.02711947                0.00130295
               5.00000000                6.00000000                0.00000000                1.00000000                0.00000000                0.00000000                0.00058235               -0.00000000                0.01276346                0.00013259
               6.00000000                6.00000000                0.00000000                1.00000000               -0.00000000               -0.00000000               -0.00004387               -0.00000000                0.01105796               -0.00095891
               7.00000000                6.00000000                0.00000000                1.00000000               -0.00000000                0.00000000               -0.00154390               -0.00000000                0.01880279               -0.00071885
               8.00000000                6.00000000                0.00000000                1.00000000                0.00000000                0.00000000                0.00521764                0.00000000                0.04039618                0.00864732
               9.00000000                6.00000000                0.00000000                1.00000000               -0.00000000               -0.00000000               -0.07890803               -0.00000000                0.09880192                0.08796612
              10.00000000                6.00000000                0.00000000                1.00000000               -0.00000000                0.00000000               -0.77940713               -0.00000000                0.50900966                0.17175828
               0.00000000                7.00000000                0.00000000                1.00000000               -0.00000000               -0.00000000                1.17747413               -0.00000000                0.61496678               -0.17179121
               1.00000000                7.00000000                0.00000000                1.00000000                0.00000000                0.00000000               -0.17406166                0.00000000                0.27289517               -0.09856571
               2.00000000                7.00000000                0.00000000                1.00000000               -0.00000000               -0.00000000               -0.10858330                0.00000000                0.16859760               -0.01481380
               3.00000000                7.00000000                0.00000000                1.00000000                0.00000000                0.00000000                0.01405591               -0.00000000                0.06708222                0.00495310
               4.00000000                7.00000000                0.00000000                1.00000000                0.00000000                0.00000000                0.00078614                0.00000000                0.02443202                0.00357194
               5.00000000                7.00000000                0.00000000                1.00000000               -0.00000000               -0.00000000                0.00058920               -0.00000000                0.01102387                0.00097153
               6.00000000                7.00000000                0.00000000                1.00000000                0.00000000                0.00000000                0.00001623                0.00000000                0.00977596               -0.00062461
               7.00000000                7.00000000                0.00000000                1.00000000                0.00000000               -0.00000000               -0.00079679                0.00000000                0.01870507                0.00045393
               8.00000000                7.00000000                0.00000000                1.00000000               -0.00000000               -0.00000000                0.00051176                0.00000000                0.04348310                0.01435378
               9.00000000                7.00000000                0.00000000                1.00000000                0.00000000                0.00000000                0.00461112               -0.00000000                0.09701945                0.11012642
              10.00000000                7.00000000                0.00000000                1.00000000                0.00000000               -0.00000000               -0.65005924               -0.00000000                0.40792331                0.19359529
               0.00000000                8.00000000                0.00000000                1.00000000               -0.00000000               -0.00000000                0.96913272                0.00000000                0.51091056               -0.17057671
               1.00000000                8.00000000                0.00000000                1.00000000                0.00000000                0.00000000               -0.31694541                0.00000000                0.25373402               -0.06790842
               2.00000000                8.00000000                0.00000000                1.00000000                0.00000000                0.00000000               -0.11844242                0.00000000                0.16433575                0.01427642
               3.00000000                8.00000000                0.00000000                1.00000000                0.00000000               -0.00000000                0.01313361                0.00000000                0.05803773                0.01786250
               4.00000000                8.00000000                0.00000000                1.00000000               -0.00000000               -0.00000000                0.00059878               -0.00000000                0.01855923                0.00638472
               5.00000000                8.00000000                0.00000000                1.00000000               -0.00000000                0.00000000                0.00048910               -0.00000000                0.00925761                0.00095860
               6.00000000                8.00000000                0.00000000                1.00000000               -0.00000000                0.00000000                0.00015689                0.00000000                0.00830138               -0.00074642
               7.00000000                8.00000000                0.00000000                1.00000000                0.00000000                0.00000000               -0.00036502                0.00000000                0.01651945               -0.00318537
               8.00000000                8.00000000                0.00000000                1.00000000                0.00000000               -0.00000000               -0.00244426               -0.00000000                0.05219873                0.01025132
               9.00000000                8.00000000                0.00000000                1.00000000               -0.00000000               -0.00000000                0.10346285                0.00000000                0.11164561                0.12376072
              10.00000000                8.00000000                0.00000000                1.00000000               -0.00000000                0.00000000               -0.53034054                0.00000000                0.32462042                0.19757717
               0.00000000                9.00000000                0.00000000                1.00000000               -0.00000000               -0.00000000                0.72025203                0.00000000                0.39545205               -0.19987497
               1.00000000                9.00000000                0.00000000                1.00000000               -0.00000000                0.00000000               -0.43935807               -0.00000000                0.21954935                0.04211895
               2.00000000                9.00000000                0.00000000                1.00000000               -0.00000000               -0.00000000               -0.16462032                0.00000000                0.13647769                0.10456977
               3.00000000                9.00000000                0.00000000                1.00000000                0.00000000                0.00000000                0.01700537                0.00000000                0.03388427                0.03791666
               4.00000000                9.00000000                0.00000000                1.00000000                0.00000000               -0.00000000               -0.00018296                0.00000000                0.01538015                0.00444198
               5.00000000                9.00000000                0.00000000                1.00000000                0.00000000                0.00000000                0.00057111                0.00000000                0.00887860                0.00079039
               6.00000000                9.00000000                0.00000000                1.00000000                0.00000000                0.00000000                0.00013076               -0.00000000                0.00769176               -0.00077062
               7.00000000                9.00000000                0.00000000                1.00000000               -0.00000000               -0.00000000                0.00072381               -0.00000000                0.01158611               -0.00569884
               8.00000000                9.00000000                0.00000000                1.00000000               -0.00000000                0.00000000               -0.00778549                0.00000000                0.04132825               -0.02397117
               9.00000000                9.00000000                0.00000000                1.00000000                0.00000000               -0.00000000                0.28183232                0.00000000                0.15208557                0.08094201
              10.00000000                9.00000000                0.00000000                1.00000000               -0.00000000                0.00000000               -0.43758385               -0.00000000                0.28790009                0.22138103
               0.00000000               10.00000000                0.00000000                1.00000000                0.00000000                0.00000000                0.54916048               -0.00000000                0.00868962               -0.36053280
               1.00000000               10.00000000                0.00000000                1.00000000                0.00000000               -0.00000000               -0.59447866                0.00000000               -0.01157381                0.32019059
               2.00000000               10.00000000                0.00000000                1.00000000                0.00000000                0.00000000               -0.34970951               -0.00000000                0.14501441                0.33898114
               3.00000000               10.00000000                0.00000000                1.00000000               -0.00000000                0.00000000               -0.00401955                0.00000000                0.08049977                0.05519185
               4.00000000               10.00000000                0.00000000                1.00000000               -0.00000000                0.00000000               -0.00407618                0.00000000                0.03014761                0.01057318
               5.00000000               10.00000000                0.00000000                1.00000000               -0.00000000                0.00000000               -0.00014948               -0.00000000                0.01255158                0.00220507
               6.00000000               10.00000000                0.00000000                1.00000000               -0.00000000               -0.00000000                0.00095591                0.00000000                0.01122409               -0.00200801
               7.00000000               10.00000000                0.00000000                1.00000000               -0.00000000               -0.00000000                0.00479269                0.00000000                0.02238099               -0.01087157
               8.00000000               10.00000000                0.00000000                1.00000000               -0.00000000               -0.00000000                0.02478473               -0.00000000                0.04680961               -0.06357081
               9.00000000               10.00000000                0.00000000                1.00000000                0.00000000                0.00000000                0.42780648               -0.00000000                0.04680718               -0.17355335
              10.00000000               10.00000000                0.00000000                1.00000000                0.00000000               -0.00000000               -0.45977115                0.00000000                0.03201498                0.39433897
               0.00668910                0.01490592                1.02503316                1.00000000               -0.67981146               -0.71410714                2.47213272               -0.22250569               -0.12852060                0.72430237
               0.99989099                0.00922837                1.01646685                1.00000000               -0.44626618               -0.49966333                1.64308872               -0.18777494               -0.47775787                0.23879222
               1.99776378                0.00357152                1.00672722                0.69626609               -0.03800302               -0.28631612                0.80934787               -0.13435773               -0.55172139               -0.06049069
               2.99913093                0.00014271                1.00014444                0.51446618                0.12229637               -0.04515956                0.09070780               -0.06332244               -0.04302245               -0.10278175
               4.00020971               -0.00035491                0.99970436                0.44701029                0.06688452                0.01140266               -0.20680707               -0.00428237                0.59227222               -0.14756581
               5.00046862               -0.00007513                0.99990402                0.44741682                0.00512458                0.00368725               -0.10131937                0.00111462                0.82526217               -0.02568877
               6.00031220                0.00007242                0.99995842                0.50344943               -0.03939767                0.00338366               -0.04991729               -0.02182511                0.67826513                0.08684827
               6.99968066               -0.00073737                0.99902697                0.62814469               -0.04953335                0.06043976               -0.44701667               -0.14388205                0.13906183                0.02067865
               7.99932153               -0.00536799                0.99187580                0.86304619                0.18157855                0.41404243               -1.32306938               -0.26898609               -0.40835065                0.10938110
               9.00331224               -0.01209671                0.97941610                1.00000000                0.66215033                0.68150442               -2.27524223               -0.31778552               -0.39196458               -0.21126258
              10.01256454               -0.01777745                0.96675656                1.00000000                0.92523023                0.92092787               -3.14269541               -0.28237286               -0.00693963               -0.95400452
               0.01014159                1.00776485                1.02052436                1.00000000               -0.64611549               -0.55818691                2.17421813               -0.11449123                0.20430767                0.59099531
               1.00368044                1.00423173                1.01160928                0.89387079               -0.45892828               -0.37845391                1.37365034               -0.11473775               -0.04727590                0.08234368
               2.00096303                1.00070835                1.00345600                0.21617035               -0.16097623               -0.18904534                0.58356959               -0.02516202                0.06065725               -0.19766763
               3.00046092                0.99969112                1.00002470                0.00010000               -0.03436125               -0.01438208                0.07631808                0.03107211                0.43229771               -0.16504829
               4.00027580                0.99975912                0.99998256                0.00010000               -0.00974066                0.01194771               -0.13828630                0.01593534                0.62577377               -0.15918819
               5.00026610                0.99996174                0.99997079                0.00010000                0.00746325                0.00180038               -0.08553893                0.00156379                0.69714248               -0.00082421
               6.00042507                1.00010625                0.99993425                0.00010000                0.03479726               -0.00497241               -0.09284054               -0.00622623                0.73370857                0.16464796
               7.00096205                0.99986703                0.99958920                0.10629076                0.09431343                0.02715068               -0.40221847               -0.01480579                0.70787672                0.18189846
               8.00231134                0.99877243                0.99726165                0.43094495                0.26885307                0.22919220               -1.21111635               -0.13792220                0.36415903                0.26472590
               9.00633911                0.99471834                0.98644013                1.00000000                0.65551062                0.50447386               -1.94358128               -0.30397471               -0.08056424                0.06664913
              10.01542155                0.99143183                0.97050309                1.00000000                0.90824413                0.79755214               -2.81613268               -0.22552697                0.03887607               -0.43882348
               0.01146550                2.00374218                1.02021144                1.00000000               -0.68127746               -0.33111911                2.01729660               -0.16035483                0.12567635                0.48343782
               1.00465272                2.00165929                1.00825629                0.65992577               -0.48321721               -0.19058377                1.15605874               -0.16153753                0.06491890               -0.01475623
               2.00180115                1.99979061                1.00056620                0.07213885               -0.19755595               -0.05064504                0.24421336               -0.04555378                0.53192569               -0.24095421
               3.00070161                1.99985507                1.00000107                0.00010000               -0.07716838                0.01193706               -0.46191622                0.01883080                1.09829875               -0.38579282
               4.00025779                1.99988405                1.00001794                0.00010000               -0.02744231                0.00986984               -0.03134673                0.00610750                1.27855248               -0.05444967
               5.00015276                1.99996088                0.99999919                0.00010000                0.00123023                0.00023156                0.01120391               -0.00079017                1.30642878                0.09811828
               6.00028239                1.99997297                0.99999593                0.00010000                0.02828039               -0.00832803                0.03509069               -0.01825084                1.35750512                0.24519718
               7.00071837                1.99980564                0.99990261                0.00010000                0.07146914               -0.00286980               -0.16235720               -0.06290290                1.55444053                0.39186167
               8.00171177                1.99921585                1.00050685                0.20349472                0.19274880                0.03530086               -1.19273374               -0.15742045                1.12053642                0.14317723
               9.00457334                1.99799277                0.99310964                0.68425501                0.64576179                0.21724694               -1.74157671               -0.25761164                0.20363366                0.17237724
              10.01462701                1.99817360                0.97645694                1.00000000                1.00536674                0.44910001               -2.94498334               -0.28063753                0.15182550                0.34175763
               0.01110028                3.00114246                1.01925280                1.00000000               -0.66990161               -0.20638704                1.89153983               -0.14841541                0.05559339                0.21425632
               1.00440126                3.00042006                1.00533010                0.59123964               -0.46220523               -0.10000343                0.87535413               -0.10737614                0.21593702               -0.08178152
               2.00185617                2.99969545                0.99948102                0.04014579               -0.18285827               -0.00469177               -0.18544262               -0.02187363                0.91918333               -0.21631792
               3.00074409                2.99992986                1.00011680                0.00010000               -0.07820118                0.00525838               -0.96407564                0.01541678                1.45170402               -0.41319047
               4.00029215                2.99995651                1.00000849                0.00010000               -0.02913587                0.00501195               -0.06956108                0.00367482                1.68634504               -0.01267527
               5.00016138                2.99996638                1.00000278                0.00010000               -0.00384287                0.00091885                0.08367098               -0.00078670                1.76622675                0.17479391
               6.00021529                2.99993969                0.99998782                0.00010000                0.01498635               -0.00102606                0.20632488               -0.01383529                1.77366613                0.33490295
               7.00046110                2.99980963                0.99996868                0.00010000                0.03802549                0.00381673                0.51520197               -0.04413703                1.63777444                0.55803356
               8.00097580                2.99947845                1.00003010                0.17775146                0.08840151                0.02783615               -0.31591276               -0.09397235                1.31995399                0.26094951
               9.00222913                2.99906328                0.99736761                0.62831643                0.42356750                0.10003255               -1.75556598               -0.11617979                0.78058966                0.02648637
              10.00944715                3.00041383                0.98793021                1.00000000                0.72180158                0.13688336               -3.46405884               -0.23620950                0.73585550                0.37737216
               0.00994200                3.99961444                1.01759622                1.00000000               -0.59897867               -0.11847456                1.75705463               -0.11918114                0.07545836                0.03103905
               1.00395221                3.99965922                1.00334254                0.55412506               -0.40440581               -0.06004377                0.54500982               -0.04282850                0.37057672               -0.11832253
               2.00185388                3.99969677                0.99919348                0.02331739               -0.16016661                0.00104338               -0.73779274                0.01175487                1.14949178               -0.23199703
               3.00074888                3.99996024                1.00012783                0.00010000               -0.07795571                0.00254368               -1.12504779                0.01379141                1.79468090               -0.28842733
               4.00029477                3.99998428                1.00001211                0.00010000               -0.02975155                0.00211643               -0.10211596                0.00064906                2.04531820                0.02857339
               5.00015385                3.99997926                1.00000376                0.00010000               -0.00661678                0.00123918                0.16702508               -0.00261348                2.14465511                0.22815212
               6.00016243                3.99995245                0.99999595                0.00010000                0.00715095                0.00173980                0.43560865               -0.00920531                2.12915699                0.42373232
               7.00029687                3.99988198                0.99996295                0.00010000                0.02081245                0.00701919                1.09007303               -0.02124014                1.86543827                0.68564458
               8.00057868                3.99977258                1.00012092                0.17422182                0.05087496                0.02485432                0.51482791               -0.02166681                1.31655107                0.46314430
               9.00131437                3.99999342                0.99790103                0.62449644                0.33115145                0.07449882               -1.35161128               -0.00076049                0.84445396                0.06576369
              10.00720171                4.00091126                0.98962521                1.00000000                0.58873434                0.04618292               -3.31297330               -0.07522605                0.77054147                0.08185755
               0.00862709                4.99877297                1.01573480                1.00000000               -0.51647314               -0.06152730                1.60492010               -0.08590478                0.08960403               -0.07128532
               1.00346235                4.99921918                1.00148702                0.52882165               -0.34184181               -0.03239668                0.23832468                0.00151806                0.50564159               -0.15438972
               2.00179025                4.99971632                0.99902992                0.01265416               -0.13649718                0.00291853               -1.28064693                0.03171237                1.33702654               -0.24110550
               3.00073241                4.99998073                1.00014059                0.00010000               -0.07520687                0.00205545               -1.14377815                0.01200525                2.09544138               -0.16415803
               4.00028611                4.99999884                1.00001072                0.00010000               -0.02957325                0.00143723               -0.09931867               -0.00065735                2.36552411                0.07611844
               5.00014094                4.99999116                1.00000547                0.00010000               -0.00788241                0.00110346                0.26554452               -0.00252846                2.48039928                0.25639990
               6.00012846                4.99997449                0.99999758                0.00010000                0.00376127                0.00189821                0.66460794               -0.00464991                2.46641520                0.46068446
               7.00021617                4.99995001                0.99997798                0.00010000                0.01512771                0.00554174                1.75152844               -0.00538948                2.07439801                0.78654687
               8.00043102                4.99997554                1.00008610                0.17905657                0.04295335                0.01569481                1.37984347                0.02142601                1.34939919                0.58650842
               9.00107524                5.00055325                0.99851547                0.63447476                0.28379641                0.04431195               -0.81113579                0.05178027                0.93116913                0.24628150
              10.00610695                5.00133749                0.99097318                1.00000000                0.50317087                0.04031598               -2.96209037               -0.02715696                0.83445060                0.20975103
               0.00733148                5.99838389                1.01377801                1.00000000               -0.42922542               -0.02454420                1.44465509               -0.06113127                0.11195371               -0.12886965
               1.00303922                5.99901129                0.99980710                0.51087588               -0.28024491               -0.01024206               -0.04987770                0.03189249                0.63499208               -0.16179502
               2.00172658                5.99975514                0.99895605                0.00602201               -0.11663813                0.00677706               -1.79288572                0.04428942                1.49585251               -0.21550639
               3.00070646                6.00000135                1.00014259                0.00010000               -0.07276926                0.00343987               -1.10057999                0.00981490                2.34237732               -0.06570018
               4.00027119                6.00001303                1.00000993                0.00010000               -0.02894134                0.00184379               -0.07694510               -0.00209074                2.63518278                0.10471626
               5.00012763                6.00000133                1.00000582                0.00010000               -0.00803076                0.00092779                0.37074230               -0.00266624                2.77620681                0.24716633
               6.00011058                5.99999041                0.99999956                0.00010000                0.00301966                0.00096329                0.89459361               -0.00196092                2.77119191                0.44312949
               7.00018803                5.99999281                0.99998456                0.00010000                0.01466911                0.00272627                2.53205431                0.00334713                2.26391328                0.83042913
               8.00040396                6.00008647                1.00005218                0.18841188                0.03999957                0.00839999                2.23899309                0.04453315                1.41969399                0.64400881
               9.00098802                6.00087966                0.99921092                0.65056517                0.23430674                0.02740054               -0.22504173                0.07630334                1.04776519                0.35656460
              10.00509010                6.00171758                0.99220593                1.00000000                0.41020774                0.02992311               -2.51726100               -0.01759347                0.90399822                0.29785822
               0.00614967                6.99828209                1.01177474                1.00000000               -0.34207161               -0.00448294                1.27582875               -0.03789312                0.14155798               -0.16293134
               1.00272895                6.99901434                0.99825938                0.50143306               -0.22318459                0.01548140               -0.31727043                0.05339452                0.75966214               -0.14495081
               2.00168598                6.99985186                0.99891417                0.00336563               -0.10290648                0.01938103               -2.25795020                0.04759828                1.63140591               -0.14591321
               3.00067082                7.00004953                1.00014056                0.00010000               -0.07208279                0.00886379               -1.05972789                0.00288867                2.53236672                0.01088501
               4.00024432                7.00003572                1.00000786                0.00010000               -0.02802917                0.00254089               -0.04818047               -0.00627090                2.84928877                0.10241740
               5.00011024                7.00000972                1.00000589                0.00010000               -0.00732803                0.00041300                0.47279600               -0.00385120                3.02037533                0.18880852
               6.00009776                6.99999375                1.00000016                0.00010000                0.00384060                0.00010625                1.11480194               -0.00163709                3.02932706                0.35251722
               7.00018705                7.00000454                0.99999203                0.00497421                0.01685357               -0.00123326                3.44674391                0.00634752                2.40351124                0.77819741
               8.00043483                7.00014354                1.00000512                0.20304197                0.03915719                0.00080200                3.04861144                0.06073753                1.52119112                0.60685409
               9.00097019                7.00110126                1.00004611                0.67403743                0.18222011                0.01789730                0.34970561                0.09604260                1.18590541                0.40237846
              10.00407923                7.00193595                0.99349941                1.00000000                0.31090386                0.01290944               -2.04618424               -0.00872575                0.97571378                0.33252499
               0.00510911                7.99829423                1.00969133                1.00000000               -0.25717654               -0.01404188                1.09383564               -0.00708908                0.17425751               -0.20876958
               1.00253734                7.99932092                0.99683055                0.51029266               -0.17328741                0.07034233               -0.56055034                0.06575365                0.86984605               -0.09188971
               2.00164336                8.00014276                0.99881558                0.00693621               -0.09784815                0.05969179               -2.64343270                0.02682551                1.73632409               -0.02151752
               3.00058038                8.00017863                1.00013134                0.00010000               -0.07288826                0.01648178               -1.07075116               -0.02054482                2.66435164                0.08828310
               4.00018559                8.00006385                1.00000599                0.00010000               -0.02439006                0.00043502               -0.02727708               -0.01297789                2.99423909                0.06518154
               5.00009258                8.00000959                1.00000489                0.00010000               -0.00512893               -0.00009057                0.56308385               -0.00463821                3.20354941                0.06435164
               6.00008301                7.99999254                1.00000157                0.00010000                0.00363092               -0.00007301                1.30470692               -0.00311409                3.21828013                0.17086784
               7.00016519                7.99996815                0.99999635                0.01772991                0.02194868               -0.00307638                4.51644081                0.00193939                2.43989447                0.57794308
               8.00052199                8.00010251                0.99997556                0.22966507                0.04756308               -0.01916247                3.74689350                0.06239562                1.64594310                0.46006741
               9.00111646                8.00123761                1.00103463                0.71787130                0.13621084               -0.01459221                0.86728847                0.12119599                1.32522117                0.41515766
              10.00324620                8.00197577                0.99469659                1.00000000                0.21297481                0.01389287               -1.58168609                0.01380484                1.02272042                0.30655243
               0.00395452                8.99800125                1.00720252                1.00000000               -0.17590271               -0.09497804                0.89282294               -0.00911656                0.21210180               -0.23734997
               1.00219549                9.00042119                0.99560642                0.56340856               -0.12948718                0.19404951               -0.77428076                0.01956845                0.92509329               -0.01044483
               2.00136478                9.00104570                0.99835380                0.02518916               -0.09283254                0.16235236               -2.85033164               -0.01176181                1.79462931                0.12037360
               3.00033884                9.00037917                1.00017005                0.00010000               -0.06054877                0.01866468               -1.21357630               -0.03883287                2.74174118                0.19328680
               4.00015380                9.00004442                0.99999817                0.00010000               -0.01250284                0.00209423               -0.01038888               -0.01276895                3.08596278               -0.00457060
               5.00008879                9.00000790                1.00000571                0.00010000               -0.00384420                0.00062323                0.62861240               -0.00095931                3.30136840               -0.15671541
               6.00007692                8.99999229                1.00000131                0.00010000                0.00135376               -0.00063079                1.41318006               -0.00178326                3.34014017               -0.15939158
               7.00011586                8.99994301                1.00000724                0.04646951                0.01681825               -0.00384310                5.66205749               -0.00866951                2.36723073                0.23616559
               8.00041328                8.99976029                0.99992215                0.28875111                0.07024973               -0.03691107                4.24676337                0.04062586                1.79097281                0.24675804
               9.00152086                9.00080942                1.00281832                0.82191380                0.12328592               -0.14865704                1.24997320                0.09025689                1.43380853                0.32382100
              10.00287900                9.00221381                0.99562416                1.00000000                0.13581452                0.09838090               -1.13755090               -0.00586370                0.93030794                0.22796290
               0.00008690                9.99639467                1.00549160                1.00000000               -0.02026343               -0.16065783                0.69211685                0.29396096               -0.03901862               -0.29110424
               0.99988426               10.00320191                0.99405521                0.83003483                0.06816240                0.27807165               -0.95804161                0.11863381                0.69561676                0.13126529
               2.00145014               10.00338981                0.99650290                0.53059291                0.04603679                0.23441138               -2.97277571               -0.12396265                1.71040235                0.41533829
               3.00080500               10.00055192                0.99995980                0.44253663               -0.05743340                0.01727519               -1.31629632               -0.11758848                2.97818758                0.27300135
               4.00030148               10.00010573                0.99995924                0.42803827               -0.03397410                0.00613120                0.04142282               -0.01172593                3.30139047               -0.07230099
               5.00012552               10.00002205                0.99999851                0.44205919               -0.00946176                0.00141468                0.73680832               -0.00261761                3.47297839               -0.46847626
               6.00011224                9.99997992                1.00000956                0.47713766                0.00491470               -0.00123739                1.54974859               -0.00300599                3.34793416               -0.84794047
               7.00022381                9.99989128                1.00004793                0.54672162                0.01779276               -0.00517273                6.23713192               -0.01998652                2.26835997               -0.17763398
               8.00046810                9.99936429                1.00024785                0.68934081                0.01221310               -0.03959964                4.54544827               -0.07585954                1.91212326                0.01849533
               9.00046807                9.99826447                1.00427806                0.98903989               -0.00739732               -0.25449536                1.48404297                0.12367650                1.29498738                0.06199273
              10.00032015               10.00394339                0.99540229                1.00000000               -0.01479221                0.17295794               -0.82635944                0.31200721                0.56306362                0.24754441
               0.01456222                0.02350365                2.04944265                1.00000000               -0.58114335               -0.68620184                2.44533725               -0.16585698               -0.43082105                0.34988431
               1.00875079                0.01449098                2.03286177                1.00000000               -0.46371218               -0.46335518                1.66202691               -0.17134593               -0.39922860                0.05098319
               2.00528798                0.00533262                2.01618696                0.75470679               -0.12941857               -0.31249529                0.92204672               -0.06438173               -0.33542991               -0.22611397
               3.00616241               -0.00181615                2.00181416                0.54110227                0.33989496               -0.13414368                0.15472114                0.15368185                0.19712682               -0.14239891
               4.01208587               -0.00350772                1.99586386                0.45168014                0.50443809                0.00103706               -0.32903874                0.10679258                1.30023386               -0.10191462
               5.01625118               -0.00064733                1.99797361                0.45116515                0.11782361                0.05356658               -0.22282901                0.03864942                1.95410181                0.00038229
               6.01444235                0.00178531                1.99900165                0.52946231               -0.26936565                0.14701379               -0.18344868                0.05816313                1.42229545                0.08220044
               7.01086386               -0.00071089                1.99105967                0.70031778               -0.14992457                0.34732212               -0.76388119                0.07815701                0.38306898                0.12724836
               8.01144386               -0.00858409                1.97353861                1.00000000                0.32080417                0.52475528               -1.55949992                0.02071980               -0.13368601               -0.00073131
               9.01727995               -0.01827330                1.95449516                1.00000000                0.68682181                0.59127414               -2.26026032               -0.11272072               -0.10374075                0.11860211
              10.02518029               -0.02657316                1.93714609                1.00000000                0.79003451                0.80963109               -2.96345131               -0.08285679               -0.10947419               -0.24224532
               0.02191632                1.01664163                2.04348436                1.00000000               -0.57934775               -0.62816660                2.29652838               -0.08534031               -0.01211012                0.49488275
               1.01612284                1.00985743                2.02747301                1.00000000               -0.45592977               -0.42534601                1.52129695               -0.11205667                0.03984518                0.11371484
               2.01279772                1.00220767                2.01167139                0.38075654               -0.20017201               -0.30883608                0.73360850                0.02953757                0.32051702               -0.33199500
               3.01211940                0.99684241                2.00152636                0.01810152               -0.01141675               -0.29958987                0.07748731                0.53234053                0.85147625               -0.68729062
               4.01256939                0.99650265                1.99723427                0.00010000                0.09358776                0.11963954               -0.31648964                0.82664888                1.40170384               -0.10038290
               5.01399116                0.99988834                1.99828922                0.00010000                0.12431859                0.12888498               -0.20989209                0.83261008                1.69480908                0.07559051
               6.01505576                1.00325545                1.99814319                0.01347403                0.14194885                0.15325317               -0.17761527                0.78391655                1.51002826                0.30171699
               7.01683013                1.00276233                1.99195563                0.27701868                0.26882488                0.40843229               -0.71573271                0.65610232                0.89953917                0.40852904
               8.02043226                0.99666346                1.97577767                0.77282681                0.41585708                0.43395914               -1.55415732                0.13184763                0.56987424               -0.12514748
               9.02514727                0.98763944                1.96112837                1.00000000                0.61096633                0.53966781               -2.25137962               -0.21488358                0.51546362               -0.04383421
              10.03265158                0.98152315                1.94367735                1.00000000                0.75043096                0.79905966               -2.80139387               -0.05354782                0.26989930               -0.69386809
               0.02642382                2.01094032                2.04034593                1.00000000               -0.54802021               -0.48706394                2.07786043               -0.14357763                0.19744252                0.57487096
               1.02094362                2.00598406                2.02312117                1.00000000               -0.37650383               -0.32896517                1.29593931               -0.19083694                0.23378705                0.04458738
               2.01889374                1.99915590                2.00488427                0.19822332                0.07853105               -0.25806499                0.31369060               -0.14963803                0.43926067               -0.57715557
               3.02251424                1.99219205                1.99076168                0.00010000                0.33395918               -0.26164929               -0.54713939                0.80581942                1.81236704               -1.17122453
               4.02557292                1.99888507                1.99937307                0.00010000                0.18181722                0.16248366               -0.20279197                1.55049232                2.92234930                0.03097885
               5.02615058                2.00193037                2.00022408                0.00010000                0.08368803                0.18014870               -0.05418089                1.36596756                2.69473976                0.27936172
               6.02724669                2.00485037                2.00070181                0.00010000                0.22136562                0.17212995               -0.03204864                1.29895249                2.56909794                0.55968485
               7.03057789                2.00745776                1.99675286                0.12375633                0.09785051                0.41689968               -0.18601945                0.55638970                1.52820601                1.22970984
               8.02920370                2.00009510                1.97614533                0.46467897               -0.12276535                0.44707300               -1.22456752               -0.31849038                1.04247254                0.74994553
               9.02812259                1.99252006                1.96516847                1.00000000                0.35691105                0.40494495               -2.20090467               -0.40613248                0.90154619               -0.28576177
              10.03634192                1.98940804                1.94110033                1.00000000                0.82193300                0.64280104               -2.97301101               -0.26418598                0.01703581               -1.46303832
               0.02895728                3.00690035                2.03783080                1.00000000               -0.48667595               -0.34007676                1.89373820               -0.18258774                0.21780523                0.49923988
               1.02409052                3.00327812                2.01750708                0.92342466               -0.26801556               -0.22537162                1.01674876               -0.24916642                0.28626234               -0.14543848
               2.02359697                2.99704637                1.99629115                0.15649965                0.22080458               -0.16723687               -0.22261616               -0.21789469                0.60396013               -0.82701477
               3.02850661                2.99160943                1.98071849                0.00010000                0.51219718                0.10078023               -1.21560831                0.76333556                2.70449250               -0.80965049
               4.03384091                2.99975233                1.99860878                0.00010000                0.34192965                0.08420841               -0.32992594                1.36697006                4.12763747               -0.02344120
               5.03534521                3.00349131                2.00167342                0.00010000                0.08332568                0.13149918                0.09485828                1.18522030                3.63401266                0.38029412
               6.03550743                3.00669805                2.00412650                0.00010000               -0.13159996                0.18072574                0.39393233                1.14931338                3.83332072                0.77117109
               7.03271321                3.01110033                2.01030404                0.11666272               -0.32536395                0.31229179                0.81975519                0.27563882                2.74020775                1.73928491
               8.02900015                3.00560492                1.99368174                0.43689420               -0.25007610                0.45558959               -0.35486095               -0.80863640                0.83406896                1.64074589
               9.02771168                2.99573834                1.96488868                1.00000000                0.22958817                0.38236772               -2.03563551               -0.59817747                0.00075914                0.03565205
              10.03359191                2.99437917                1.93071882                1.00000000                0.58802262                0.45930757               -3.50007081               -0.35488941               -0.48171527               -1.03691254
               0.03001652                4.00413878                2.03514109                1.00000000               -0.42022453               -0.22539268                1.72992051               -0.19969710                0.13457965                0.37988336
               1.02581427                4.00147663                2.01090020                0.87562022               -0.19059865               -0.14152384                0.67403640               -0.28002147                0.17200244               -0.23464722
               2.02620454                3.99581116                1.98524415                0.13363652                0.46303575               -0.08155261               -0.85099598               -0.13894902                1.09384649               -0.97489657
               3.03507499                3.99420766                1.97749904                0.00010000                0.74129471                0.25463279               -1.61653214                0.85897515                3.63552622               -0.31176690
               4.04103044                4.00056924                1.99795768                0.00010000                0.39171391                0.08861126               -0.39972613                1.19786969                4.92418883                0.07986429
               5.04290927                4.00456036                2.00334050                0.00010000                0.07967511                0.08173088                0.27097328                1.10857838                4.48841497                0.47315169
               6.04262394                4.00846489                2.00871217                0.00010000               -0.28627360                0.12560123                0.87434901                1.14958014                4.85985368                0.91075750
               7.03718379                4.01370359                2.02180146                0.11857216               -0.71154956                0.23045032                1.85401625                0.47141134                3.72655013                1.83645645
               8.02839295                4.00920689                2.01029656                0.43747601               -0.48995026                0.30969919                0.53554655               -0.70429181                0.99797235                1.71689741
               9.02738479                4.00016741                1.97296777                1.00000000                0.17847582                0.39386968               -1.55183173               -0.52940381               -0.38247821                0.63047064
              10.03196247                3.99859419                1.93374053                1.00000000                0.45776780                0.36175629               -3.34561577               -0.24823787               -0.65935836               -0.07865683
               0.03028765                5.00239250                2.03209840                1.00000000               -0.34699348               -0.13780554                1.56854121               -0.18626593                0.08748239                0.27426629
               1.02681771                5.00044765                2.00476649                0.84128140               -0.11003442               -0.07424446                0.32486354               -0.26348280                0.03865174               -0.24224760
               2.02808696                4.99541531                1.97438706                0.11736362                0.70551604               -0.00027657               -1.47937676               -0.01842742                1.66019532               -0.95890171
               3.04092803                4.99670208                1.97712444                0.00010000                0.96793234                0.22391869               -1.83815528                0.84139629                4.56055368               -0.04096532
               4.04744561                5.00152455                1.99801363                0.00010000                0.43465459                0.07639696               -0.38895798                1.01169154                5.53355636                0.17986473
               5.04962113                5.00512593                2.00531089                0.00010000                0.09550940                0.01912734                0.47658550                1.01553781                5.23056969                0.52007969
               6.04935579                5.00921007                2.01329216                0.00010000               -0.41108448                0.01975577                1.37539941                1.17022800                5.87553634                0.93578179
               7.04139944                5.01570933                2.03503057                0.12470220               -1.04526518                0.14454688                2.92594948                0.53153463                4.67458124                2.08266063
               8.02845049                5.01179891                2.02759687                0.44721630               -0.68315636                0.18771368                1.44990633               -0.56595120                1.14863539                1.81005656
               9.02773631                5.00361574                1.98377728                1.00000000                0.16615579                0.27166204               -0.94167999               -0.43839232               -0.65853641                0.86929572
              10.03177361                5.00161430                1.94075819                1.00000000                0.40372973                0.24183730               -2.99413742               -0.19376970               -0.78621138                0.28764387
               0.03018090                6.00138267                2.02889310                1.00000000               -0.26591000               -0.07822193                1.40546667               -0.16038190                0.05061033                0.19051195
               1.02752180                5.99999174                1.99900245                0.81689193               -0.02996694               -0.01850545               -0.01776490               -0.21704687               -0.09812572               -0.23176705
               2.02958156                5.99580563                1.96414229                0.10579206                0.91359377                0.09034503               -2.07886507                0.06771382                2.23154166               -0.87443319
               3.04579368                5.99868603                1.97798840                0.00010000                1.16294300                0.17634355               -1.93978276                0.74585797                5.44160210                0.10613782
               4.05284042                6.00209718                1.99846110                0.00010000                0.48704126                0.02638670               -0.33335350                0.79658551                6.02862510                0.22744585
               5.05553450                6.00494290                2.00741485                0.00010000                0.13023399               -0.06744140                0.69689457                0.87784521                5.88484627                0.49753768
               6.05544510                6.00886000                2.01789187                0.00010000               -0.51544249               -0.10808682                1.89255934                1.14481167                6.92948192                0.88105954
               7.04522565                6.01659453                2.05064109                0.13379127               -1.31387898               -0.00785860                4.04327288                0.53834946                5.56667116                2.29652687
               8.02916752                6.01296116                2.04477986                0.46355308               -0.82120495                0.02073960                2.37014314               -0.45373113                1.20067940                1.78357470
               9.02880155                6.00560065                1.99549917                1.00000000                0.14612126                0.13040621               -0.28514275               -0.35213591               -0.85739306                0.95314199
              10.03208995                6.00343093                1.94965478                1.00000000                0.32883947                0.12727672               -2.54716312               -0.17526826               -0.82540269                0.46737107
               0.02986188                7.00082806                2.02551657                1.00000000               -0.18080583               -0.04929203                1.23712306               -0.12376143                0.02417501                0.11003353
               1.02805382                7.00007754                1.99365459                0.80315096                0.04425335                0.04117165               -0.34569192               -0.14274858               -0.22513370               -0.19307953
               2.03074694                6.99722221                1.95484100                0.09857571                1.07499115                0.21621958               -2.63085385                0.09977729                2.73606513               -0.69788623
               3.04955364                7.00022895                1.97880544                0.00010000                1.31867500                0.15250688               -1.98911100                0.55665085                6.22165205                0.14162511
               4.05712044                7.00205229                1.99903639                0.00010000                0.54307828               -0.03919296               -0.26740608                0.53594780                6.44653735                0.21392974
               5.06041521                7.00377710                2.00945592                0.00010000                0.17399793               -0.18278449                0.91233168                0.67684789                6.44673826                0.39437251
               6.06060040                7.00704834                2.02229604                0.00010000               -0.61749681               -0.27218967                2.41412047                1.03520498                8.03960233                0.71284844
               7.04806527                7.01555216                2.06893488                0.14643428               -1.51153288               -0.25254369                5.16929494                0.43818072                6.37499113                2.44212147
               8.03036974                7.01221370                2.06097223                0.48733706               -0.89207256               -0.18384199                3.24919449               -0.33076183                1.08610132                1.59840832
               9.03022382                7.00622386                2.00699411                1.00000000                0.11189697               -0.00348563                0.36439137               -0.25360162               -1.00205171                0.90556415
              10.03260768                7.00415983                1.95907632                1.00000000                0.23838644                0.02876810               -2.06991018               -0.15437617               -0.80975292                0.53574102
               0.02920671                8.00039683                2.02187671                1.00000000               -0.09340404               -0.06876677                1.06204665               -0.07954781                0.00347857                0.01965447
               1.02827267                8.00081517                1.98878899                0.80670188                0.11094893                0.12444492               -0.65062600               -0.04850186               -0.32487443               -0.12517919
               2.03142569                8.00013002                1.94713135                0.09778101                1.19119741                0.37489644               -3.09524710                0.07515035                3.10073888               -0.34020828
               3.05209662                8.00173617                1.97858498                0.00010000                1.42927677                0.19041573               -2.05341245                0.24100560                6.81148078                0.04607578
               4.06001123                8.00131332                1.99945446                0.00010000                0.59893932               -0.10484740               -0.22326529                0.21571010                6.80514098                0.14600331
               5.06407541                8.00128721                2.01126168                0.00010000                0.21814584               -0.34525126                1.10287308                0.38559574                6.90267211                0.19183840
               6.06437414                8.00341621                2.02609414                0.00010000               -0.76257531               -0.51220793                2.90819305                0.82286587                9.22650711                0.38400968
               7.04882390                8.01154366                2.09032882                0.16649808               -1.62467802               -0.54402123                6.22021796                0.26133084                7.05540070                2.42377675
               8.03188058                8.00928432                2.07493787                0.52580091               -0.85202573               -0.37754150                4.02364974               -0.16870435                0.72510621                1.20355642
               9.03178339                8.00553094                2.01734577                1.00000000                0.06249464               -0.14954383                0.96050855               -0.12638451               -1.08755854                0.69887356
              10.03313048                8.00400629                1.96836628                1.00000000                0.13470899               -0.01531349               -1.59557784               -0.13312466               -0.74451436                0.55396449
               0.02743424                8.99945272                2.01785646                1.00000000               -0.00836488               -0.13985415                0.89643990               -0.04434383               -0.02153193               -0.05015249
               1.02735059                9.00256644                1.98451438                0.81493323                0.19473570                0.24562739               -0.93654727               -0.00521088               -0.33012726               -0.04937252
               2.03132895                9.00472014                1.94299337                0.10491192                1.29199304                0.59392649               -3.39547811               -0.08257020                3.19520067                0.06824996
               3.05319045                9.00403727                1.97572847                0.00010000                1.52773231                0.20721790               -2.17802239               -0.03770038                7.03338447                0.00757297
               4.06188360                8.99995534                1.99979222                0.00010000                0.64168903               -0.13407386               -0.21499892               -0.05936541                7.19310764                0.03987943
               5.06602423                8.99687208                2.01257225                0.00010000                0.24588391               -0.53211636                1.25473465                0.10913401                7.21852450               -0.04122291
               6.06680128                8.99680418                2.02826360                0.00010000               -0.93002268               -1.01957619                3.36089955                0.51673874               10.42698404                0.02034872
               7.04742378                9.00467173                2.11324115                0.19585038               -1.68964527               -0.75888565                6.95464940                0.20818516                7.56212461                1.65831861
               8.03300837                9.00466287                2.08493527                0.58098266               -0.72248115               -0.47829093                4.58528741                0.03464965                0.09639161                0.67928404
               9.03297415                9.00323298                2.02499946                1.00000000               -0.00069444               -0.36052848                1.44275395               -0.09236933               -1.08967453                0.38075993
              10.03299448                9.00385356                1.97724898                1.00000000                0.00203281                0.06941697               -1.16247807               -0.14382453               -0.56291696                0.43996642
               0.02209241                9.99759975                2.01384234                1.00000000                0.08086248               -0.18529767                0.65505352                0.27861437               -0.02584611               -0.04043545
               1.02290104               10.00572772                1.98083917                0.89062854                0.31055228                0.31612818               -1.18492465                0.27548474               -0.31106106               -0.03869850
               2.02830346               10.01200855                1.94054449                0.55454079                1.66031917                0.72884066               -3.51757613               -0.29490922                3.14841606                0.23119971
               3.05610742               10.00588053                1.97367407                0.45094670                1.88428265                0.18432579               -2.23800256               -0.37713842                7.29688210               -0.06569284
               4.06598911                9.99863184                2.00082846                0.43008473                0.66509142               -0.13234931               -0.19552405               -0.35123088                7.63293795               -0.15707090
               5.06940925                9.99064489                2.01473617                0.44994338                0.04600764               -0.62271910                1.32793189               -0.44185624                7.48310668               -0.25099872
               6.06690926                9.98302469                2.03099497                0.50373399               -1.21401678               -1.37794905                3.54694034                0.29685132               10.92746704               -0.26101824
               7.04512891                9.99636594                2.12474264                0.60767858               -1.64484671               -0.83057920                7.31896563                0.60520413                7.74036649                0.81990031
               8.03401233                9.99971850                2.09090897                0.80508827               -0.71918024               -0.49443687                4.94915294                0.19811706               -0.17343804                0.39156769
               9.03074531                9.99832037                2.02968086                1.00000000               -0.24997511               -0.49126123                1.84691594                0.06092183               -1.06197661                0.25453707
              10.02901283               10.00539463                1.98347281                1.00000000               -0.17324814                0.15410701               -0.70998486                0.30926055               -0.38104871                0.25643887
               0.03123444                0.03382019                3.07393991                1.00000000               -0.60723287               -0.70609639                2.46084162               -0.21069575               -0.35626419                0.39833338
               1.02516211                0.02102557                3.04970739                1.00000000               -0.45658213               -0.47789360                1.67832807               -0.17417091               -0.37828151                0.00141188
               2.02210280                0.00808037                3.02516815                0.73553672               -0.08827751               -0.27092228                0.89471044               -0.03604061               -0.24351757               -0.31143989
               3.02339656               -0.00212968                3.00323887                0.53511041                0.39760640               -0.08725382                0.16845669                0.19237958                0.51704621               -0.09405707
               4.03005493               -0.00513403                2.99312358                0.44935633                0.65081478               -0.06237150               -0.23957001                0.22075815                1.81928742               -0.04084746
               5.03641286               -0.00069870                2.99544743                0.44986900                0.28085629               -0.00782112               -0.27395370                0.11242030                2.54823387                0.02326635
               6.03567205                0.00343336                2.99628945                0.52939797               -0.18038863                0.10070781               -0.34475522                0.16443552                1.89776303                0.08406585
               7.03280509                0.00001567                2.98374935                0.69868401               -0.12298656                0.23287499               -0.76728788                0.18662145                0.73332119                0.09746107
               8.03321232               -0.00986074                2.96068580                0.98276849                0.24124275                0.35235094               -1.34464951               -0.01796280                0.03133343                0.23024148
               9.03762994               -0.02299110                2.93421090                1.00000000                0.59304296                0.61594452               -2.10578457               -0.17932956               -0.20154012                0.08570476
              10.04507318               -0.03568486                2.90748753                1.00000000                0.74432403                0.92850912               -2.97229004               -0.20453498               -0.23546642               -0.30488458
               0.04192210                1.02675922                3.06645493                1.00000000               -0.56317899               -0.64635114                2.27684699               -0.11978806               -0.00770283                0.53205045
               1.03629031                1.01624663                3.04203522                1.00000000               -0.43010447               -0.42543027                1.44051463               -0.08800306                0.03141995               -0.00815020
               2.03332001                1.00537114                3.01812817                0.35128706               -0.21813779               -0.22263128                0.63216348                0.07971120                0.43594900               -0.50023017
               3.03192756                0.99699779                3.00157445                0.01248025               -0.08864967               -0.03159342                0.02335806                0.39673471                1.18399050               -0.62997872
               4.03154702                0.99424225                2.99365277                0.00010000                0.06629051                0.21315750               -0.33941259                1.07063729                2.04022682                0.00105688
               5.03325337                0.99922309                2.99577295                0.00010000                0.27061019                0.14313077               -0.26461658                1.32520638                2.49002887                0.11263483
               6.03695922                1.00444043                2.99638195                0.02398769                0.40324892                0.08750008               -0.22385647                1.12924240                2.05575237                0.20433174
               7.04131835                1.00234442                2.98527455                0.29123184                0.37884269                0.30178813               -0.62298060                0.61281143                1.26086424                0.51798646
               8.04453608                0.99366277                2.96617851                0.76294361                0.37151804                0.30857152               -1.01310000                0.08786100                0.61429143                0.39344074
               9.04874871                0.98316834                2.94141253                1.00000000                0.55927567                0.57541657               -1.91544240               -0.00216123                0.21719493                0.12554394
              10.05572159                0.97360023                2.91447522                1.00000000                0.69728844                0.87781075               -2.80868794               -0.05527091                0.06494510               -0.51463903
               0.04986386                2.02089316                3.06176865                1.00000000               -0.50737334               -0.52135612                2.09483357               -0.12853499                0.06072071                0.66549997
               1.04479013                2.01251696                3.03417508                0.95538924               -0.34589980               -0.32571814                1.13371260               -0.09447905                0.09855600               -0.04391834
               2.04294587                2.00362774                3.00684001                0.17484120               -0.11649912               -0.12879322                0.24361228                0.10627244                0.58037021               -0.67831044
               3.04246015                1.99723846                2.98905828                0.00010000                0.31482515                0.00008474               -0.22793202                0.80450659                2.06123281               -0.96032687
               4.04924237                1.99912912                2.99596210                0.00010000                0.51293292                0.33304112               -0.34823025                1.76342011                3.26493502                0.04983820
               5.05271881                2.00216392                2.99891557                0.00010000                0.29466012                0.26163729               -0.18679396                2.00623903                3.09531333                0.29165920
               6.05513557                2.00518336                2.99935496                0.00010000                0.15600847                0.14561607               -0.12572952                1.75896868                2.89549070                0.51595655
               7.05583898                2.00605143                2.99618222                0.13670578               -0.04949786                0.36011532               -0.01631995                0.77595003                1.76065577                1.32666168
               8.05414562                1.99631069                2.97601550                0.45680241                0.09051416                0.22396823               -0.29894554                0.05011295                0.73400053                0.93927311
               9.05764926                1.98851723                2.94909155                1.00000000                0.44791882                0.44043329               -1.51815331                0.10095952                0.35696666                0.15106904
              10.06310399                1.98187135                2.91699672                1.00000000                0.54547331                0.67175758               -2.30825505               -0.04303938               -0.03513004               -0.87206329
               0.05610381                3.01633210                3.05712757                1.00000000               -0.44376527               -0.39743320                1.88056596               -0.09740721                0.06461805                0.61881879
               1.05166616                3.00973227                3.02566507                0.88838907               -0.26899196               -0.24050479                0.86005289               -0.05188716                0.12965540               -0.10670300
               2.05072397                3.00279528                2.99502870                0.13901380                0.04250789               -0.07624068               -0.07870199                0.07266547                0.70296911               -0.71485289
               3.05251631                2.99699948                2.97580463                0.00010000                0.55829977                0.00402481               -0.45965400                0.81967580                2.96006127               -0.64546127
               4.06188996                3.00090308                2.99340997                0.00010000                0.74037988                0.15238021               -0.47042928                1.55755349                4.49541360               -0.05907174
               5.06732391                3.00445583                3.00189995                0.00010000                0.31805601                0.18204520               -0.04085171                1.64492639                4.11989326                0.35458611
               6.06825108                3.00735275                3.00786647                0.00010000               -0.08069496                0.19092895                0.29976392                1.44269313                4.23243504                0.82716878
               7.06571001                3.00954672                3.01636378                0.13696135               -0.25892731                0.29165731                0.52152925                0.40969453                2.88278359                1.75306024
               8.06307254                2.99814214                2.99293288                0.43817421               -0.02513867                0.19423538               -0.13462761               -0.11717579                0.79356873                1.18657933
               9.06520724                2.99197701                2.95665490                0.98773581                0.25400101                0.25985006               -0.85535372                0.07324059                0.17614237                0.28772455
              10.06815256                2.98703538                2.91792880                1.00000000                0.29453201                0.37137022               -1.39448424               -0.02591131               -0.02798635               -0.76971163
               0.06111538                4.01294450                3.05219463                1.00000000               -0.38261758               -0.29129058                1.65949431               -0.07692627                0.06785343                0.54818262
               1.05728921                4.00770687                3.01682327                0.84742576               -0.19917099               -0.17301429                0.62937448               -0.02804989                0.12669788               -0.14702675
               2.05713196                4.00210293                2.98217356                0.12074689                0.17283302               -0.05775669               -0.29359294                0.07621651                1.13785425               -0.74050789
               3.06074587                3.99731895                2.96779719                0.00010000                0.79025616                0.08362948               -0.78568994                0.79372002                3.85676987               -0.27100654
               4.07293709                4.00217672                2.99201759                0.00010000                0.92108936                0.10948226               -0.53814172                1.46833443                5.44373975                0.10363622
               5.07916766                4.00580482                3.00542322                0.00010000                0.29807298                0.09312870                0.14793489                1.44875546                5.06368321                0.42076634
               6.07889855                4.00900194                3.01748293                0.00010000               -0.29620853                0.10788350                0.77081363                1.28740922                5.46197574                0.86889052
               7.07324348                4.01188458                3.03704328                0.14330300               -0.47633662                0.16084386                1.19207189                0.24432689                3.70379493                1.74563227
               8.06937181                4.00019540                3.01083185                0.44634410               -0.15113291                0.17756146                0.03150352               -0.32929365                0.87056439                1.11685629
               9.07022083                3.99371423                2.96686439                0.99727907                0.15486046                0.17153837               -0.57660260               -0.06803477                0.06042190                0.41815050
              10.07246902                3.98929876                2.92271289                1.00000000                0.22481969                0.20703707               -1.11140771               -0.02813021               -0.01792196               -0.46321553
               0.06504055                5.01050629                3.04710563                1.00000000               -0.30938206               -0.20842709                1.44801923               -0.07294997                0.06682069                0.47474632
               1.06194673                5.00627198                3.00798429                0.81526180               -0.12021688               -0.11095085                0.37322398               -0.01639123                0.11673198               -0.16284984
               2.06263621                5.00164015                2.96944239                0.10551617                0.31850946               -0.01451913               -0.51030465                0.13197919                1.72883820               -0.69860052
               3.06831692                4.99867207                2.96337749                0.00010000                1.00672867                0.15620739               -1.07197706                0.79631989                4.79784183               -0.02618281
               4.08277079                5.00309272                2.99223156                0.00010000                1.05784441                0.06812300               -0.54151652                1.30632508                6.19996511                0.21673524
               5.08947381                5.00631841                3.00953718                0.00010000                0.25743632                0.00011151                0.36991325                1.28219172                5.89159577                0.45049353
               6.08791951                5.00951042                3.02750557                0.00010000               -0.50353612               -0.01971070                1.27027725                1.15103117                6.61160303                0.86952407
               7.07940308                5.01276360                3.05849697                0.15119405               -0.66312509                0.00672315                1.78687471                0.17864587                4.44879983                1.72631376
               8.07465701                5.00169337                3.02908423                0.45841755               -0.23299492                0.10936037                0.16811431               -0.35840841                0.93803663                1.02779900
               9.07474319                4.99540778                2.97968187                1.00000000                0.08819457                0.15057210               -0.37908901               -0.08864150                0.01186716                0.47742255
              10.07642090                4.99117612                2.93109043                1.00000000                0.16777156                0.17240622               -0.95764911               -0.03307595               -0.02931303               -0.25062474
               0.06812500                6.00877596                3.04188735                1.00000000               -0.22974706               -0.15035705                1.23894819               -0.06298161                0.06871898                0.39476698
               1.06582753                6.00548785                2.99945180                0.79013337               -0.03767688               -0.04528887                0.10813037               -0.00041425                0.10447319               -0.15442290
               2.06737146                6.00181255                2.95737875                0.09257508                0.46960827                0.06324655               -0.73304379                0.17877335                2.38566841               -0.61935608
               3.07521969                6.00044310                2.96134693                0.00010000                1.20228960                0.18066927               -1.26567635                0.71590937                5.75159416                0.12650203
               4.09141725                6.00353918                2.99334286                0.00010000                1.15870474                0.01141165               -0.50098399                1.05588768                6.83541766                0.25030144
               5.09839379                6.00580705                3.01394371                0.00010000                0.20283635               -0.11340371                0.60990418                1.06900441                6.65020516                0.43136896
               6.09547398                6.00860772                3.03785075                0.00010000               -0.68801622               -0.17309841                1.77681500                0.98516627                7.74456989                0.84424264
               7.08463346                6.01201904                3.08085002                0.16094381               -0.79572538               -0.18021813                2.26629132                0.16912426                5.13933042                1.66907698
               8.07955947                6.00238261                3.04745504                0.47503555               -0.28341108                0.01301653                0.31791126               -0.29263765                0.92606731                0.92496528
               9.07896524                5.99672567                2.99350806                1.00000000                0.03556717                0.09790832               -0.18153336               -0.07769192               -0.03467802                0.46472558
              10.08027081                5.99274688                2.94126267                1.00000000                0.13055739                0.13815764               -0.82458889               -0.03293580               -0.02856586               -0.13804418
               0.07035714                7.00749915                3.03651720                1.00000000               -0.14552785               -0.12142597                1.03366439               -0.05183826                0.06959420                0.30817154
               1.06890186                7.00536621                2.99134555                0.77082647                0.04496463                0.02348448               -0.15997481                0.01818111                0.09027169               -0.12489394
               2.07125643                7.00290508                2.94629709                0.08124422                0.60033059                0.16868410               -0.95882676                0.17049721                3.02257159               -0.49293083
               3.08090847                7.00228546                2.96035834                0.00010000                1.36340808                0.18670043               -1.37759690                0.48415332                6.65533661                0.16021557
               4.09852459                7.00332095                2.99465974                0.00010000                1.24384436               -0.06555506               -0.44782760                0.69796694                7.39694424                0.21297588
               5.10578536                7.00405033                3.01825253                0.00010000                0.14431293               -0.25385120                0.84732414                0.79200274                7.37671895                0.36405399
               6.10141085                7.00604846                3.04828257                0.00010000               -0.83873362               -0.34512774                2.27071517                0.75904715                8.86636374                0.78081838
               7.08901068                7.00915924                3.10337793                0.17271853               -0.86566122               -0.39408147                2.56907374                0.18506275                5.77637103                1.52185687
               8.08409762                7.00195370                3.06498901                0.49615165               -0.30928048               -0.10860024                0.48469320               -0.16728037                0.82958746                0.77338316
               9.08282507                6.99736594                3.00733394                1.00000000               -0.01889275                0.02420268                0.03577880               -0.05213920               -0.07488201                0.40386689
              10.08371977                6.99393927                2.95210120                1.00000000                0.08946948                0.10677566               -0.68264962               -0.04046254               -0.02046192               -0.07537973
               0.07135412                8.00634744                3.03093226                1.00000000               -0.05688978               -0.12332857                0.83575205               -0.04644524                0.07318421                0.22413419
               1.07078522                8.00595754                2.98381803                0.75398744                0.12540176                0.10086797               -0.42989607                0.01964861                0.09521117               -0.08183594
               2.07386215                8.00518623                2.93691063                0.07132387                0.68508310                0.30462401               -1.19549648                0.05089218                3.54944275               -0.28379561
               3.08448688                8.00417711                2.95906309                0.00010000                1.48747801                0.15780362               -1.43145983                0.01705313                7.42319240                0.06306178
               4.10361171                8.00222808                2.99554068                0.00010000                1.35097288               -0.19264718               -0.41284995                0.26002540                7.93491752                0.10970488
               5.11150634                8.00073003                3.02206235                0.00010000                0.09671526               -0.41706891                1.05914587                0.48398135                8.08451251                0.26596830
               6.10554602                8.00170517                3.05816543                0.00409757               -0.95384306               -0.52750108                2.72500905                0.49721163                9.93856745                0.70133270
               7.09242948                8.00413741                3.12440071                0.18644399               -0.87694293               -0.52318384                2.55857749                0.20907200                6.37582720                1.14646784
               8.08800716                8.00021060                3.08044855                0.52138102               -0.32463000               -0.22894111                0.67445227               -0.02212532                0.68262199                0.51648258
               9.08593688                7.99720973                3.02024480                1.00000000               -0.08461294               -0.06382072                0.28125468               -0.03698158               -0.09399492                0.30602984
              10.08631490                7.99488239                2.96278504                1.00000000                0.03780225                0.09836654               -0.54111487               -0.06264032               -0.00691992               -0.06214848
               0.07020803                9.00503258                3.02513132                1.00000000                0.02480097               -0.13666158                0.64857656               -0.05379136                0.08453883                0.14797281
               1.07045604                9.00738356                2.97687547                0.70691918                0.19233355                0.19104157               -0.71945556                0.00703273                0.18656392               -0.04976213
               2.07405470                9.00899756                2.93044423                0.05597656                0.68758185                0.38626708               -1.50949471               -0.21103137                3.90501656               -0.05559398
               3.08420768                9.00544153                2.95660961                0.00010000                1.65587396               -0.04151233               -1.37339903               -0.37788791                8.00598459               -0.07053611
               4.10717218                8.99946801                2.99569819                0.00010000                1.58901101               -0.36681177               -0.42592719               -0.07230711                8.48858656               -0.01360901
               5.11598790                8.99570896                3.02510040                0.00010000                0.03877581               -0.50278933                1.21736818                0.20726102                8.79735496                0.15861903
               6.10794770                8.99549843                3.06721930                0.00320261               -1.06506050               -0.62041764                3.11995556                0.30478491               10.74002139                0.50419192
               7.09468669                8.99869556                3.13910023                0.18943313               -0.86824481               -0.54255483                2.15432091                0.22820539                6.83373353                0.58051000
               8.09058280                8.99737487                3.09162789                0.52606311               -0.36365184               -0.24811766                0.89915912                0.07239615                0.70519814                0.21276695
               9.08741365                8.99608953                3.03167340                1.00000000               -0.17305873               -0.16086547                0.61813916               -0.03702256               -0.02808616                0.19970429
              10.08712163                8.99590661                2.97237460                1.00000000               -0.02920246                0.08710570               -0.41520805               -0.07827369               -0.01798594               -0.09235044
               0.06557631               10.00361421                3.01859268                1.00000000                0.13845794               -0.14183694                0.38976652                0.15324457                0.22145261                0.14279030
               1.06696089               10.00977837                2.97035672                0.81541903                0.30036234                0.23948055               -1.04081301                0.11535332                0.43777974               -0.05581247
               2.07158356               10.01291157                2.92615138                0.51718816                0.97488885                0.39140117               -1.82213465               -0.56868954                4.28442603                0.00031906
               3.08645867               10.00334686                2.95519975                0.43926512                2.01572914               -0.20946668               -1.36771792               -0.67588693                8.49739302               -0.31125781
               4.11189814                9.99489185                2.99604876                0.42860824                1.65812325               -0.45761644               -0.51981376               -0.16103496                8.76779027               -0.10780663
               5.11962113                9.99067424                3.02655714                0.44866258               -0.16215162               -0.50347168                1.19616159                0.08357209                9.05554346                0.15836787
               6.10865511                9.98929681                3.07094837                0.49606619               -1.22519940               -0.62016208                3.22666900                0.20134502               11.22483217                0.68412776
               7.09511715                9.99328631                3.14642724                0.58365939               -0.82969978               -0.54092483                2.01937026                0.34061768                7.33807697                0.36191438
               8.09206111                9.99524825                3.09923091                0.74212118               -0.42262262               -0.21266238                1.16924567                0.18313658                0.91314510                0.06267730
               9.08666469                9.99399242                3.04121638                1.00000000               -0.34729212               -0.20971115                1.04433569               -0.00608272                0.23401749                0.24030615
              10.08511527                9.99662451                2.98120259                1.00000000               -0.15494219                0.07179031               -0.13910452                0.06257377                0.15141213               -0.17739778
               0.05590198                0.04644027                4.09865949                1.00000000               -0.59450710               -0.69863729                2.44908663               -0.18770183               -0.36920105                0.42937955
               1.04995691                0.02986355                4.06642834                1.00000000               -0.45079189               -0.46368209                1.66423142               -0.15071574               -0.36487640               -0.01702862
               2.04688614                0.01318378                4.03408117                0.72485144               -0.07044992               -0.26525789                0.89707469               -0.00246712               -0.19991941               -0.37156504
               3.04854791               -0.00036846                4.00518329                0.53048628                0.46884568               -0.12081182                0.21408013                0.24433027                0.73880787               -0.07082589
               4.05626306               -0.00538303                3.99107246                0.44874605                0.77510372               -0.09316960               -0.18820978                0.26800832                2.34218280               -0.03768576
               5.06404998               -0.00083303                3.99249454                0.45137031                0.39163196               -0.04940759               -0.30676257                0.13449020                3.14254297                0.02099429
               6.06409569                0.00328164                3.99210655                0.53220675               -0.14580234                0.09949355               -0.45372926                0.20839913                2.31634255                0.06016086
               7.06113394               -0.00181207                3.97571391                0.69962418               -0.12433601                0.25012582               -0.84781508                0.19937639                0.89803678                0.07278818
               8.06160897               -0.01496467                3.94664562                0.97619472                0.26567360                0.41672508               -1.45609846                0.03959227                0.02840829                0.24354894
               9.06644741               -0.03096248                3.91237946                1.00000000                0.61543561                0.62321471               -2.19634161               -0.10937186               -0.22423733                0.06920461
              10.07391769               -0.04664622                3.87770029                1.00000000                0.74702773                0.83674038               -2.93325391               -0.17763076               -0.24754670               -0.33535771
               0.07060168                1.03945390                4.08902130                1.00000000               -0.55236874               -0.64312964                2.22872901               -0.07654757               -0.00431792                0.58275943
               1.06507800                1.02522673                4.05628330                1.00000000               -0.43121052               -0.41938552                1.42548628               -0.05181168                0.04352541               -0.02750827
               2.06197747                1.01053120                4.02431466                0.32151161               -0.24016882               -0.22473097                0.64165126                0.09642515                0.55220660               -0.61428386
               3.06027462                0.99842343                4.00199352                0.00039187               -0.14010242               -0.04381050                0.07039527                0.46114829                1.53202227               -0.72439138
               4.05917542                0.99368527                3.99044602                0.00010000                0.03939661                0.27538309               -0.28484986                1.25003727                2.70502424                0.06127429
               5.06106255                0.99867290                3.99299689                0.00010000                0.37468914                0.12347922               -0.27873716                1.56026518                3.32881939                0.13537416
               6.06666921                1.00427657                3.99366606                0.02357598                0.55941524                0.02016734               -0.30016688                1.29052250                2.64989763                0.20099260
               7.07225086                1.00068919                3.97949602                0.28093935                0.49554465                0.23569123               -0.61399867                0.64612684                1.55153804                0.73921295
               8.07658010                0.98920258                3.95551567                0.73059460                0.44718029                0.35454262               -1.13930700                0.19729428                0.73299723                0.57318444
               9.08119446                0.97526967                3.92281953                1.00000000                0.56225088                0.56307736               -1.85377887                0.01759516                0.20422747                0.14469686
              10.08782512                0.96172119                3.88750359                1.00000000                0.66306555                0.75797031               -2.60619445               -0.05928374                0.05349884               -0.52417787
               0.08282537                2.03357768                4.08224260                1.00000000               -0.49819978               -0.53015744                2.01807185               -0.08153657                0.06264514                0.72396288
               1.07784337                2.02147584                4.04579543                0.93276460               -0.36037106               -0.33654263                1.17529156               -0.05920077                0.09295747               -0.07989723
               2.07561795                2.00868916                4.00975651                0.15910490               -0.16132820               -0.15577195                0.34150269                0.14094090                0.71267780               -0.89191061
               3.07461681                1.99875533                3.98620304                0.00010000                0.26981918                0.07689326               -0.26753654                1.02437069                2.78112148               -1.30960538
               4.08101433                2.00012463                3.99240846                0.00010000                0.50235904                0.44150671               -0.30533188                2.06798312                4.10427202                0.04358277
               5.08466399                2.00163656                3.99648820                0.00010000                0.34377615                0.27012454               -0.24034733                2.28921894                3.87137512                0.32072547
               6.08788985                2.00368499                3.99818722                0.00010000                0.22332412                0.04184433               -0.14586519                2.01441412                3.66324466                0.60423356
               7.08913047                2.00290175                3.99642646                0.13520807                0.15422621                0.23056408               -0.08276855                1.07464000                2.39960692                1.69424785
               8.09097438                1.99212618                3.97016641                0.44346094                0.25751168                0.26587929               -0.68380814                0.26988094                0.94941604                1.21040521
               9.09428070                1.98029907                3.93480540                1.00000000                0.44272992                0.42251598               -1.42099039                0.07155842                0.27247197                0.24718820
              10.09982898                1.96851319                3.89493523                1.00000000                0.55482732                0.57737891               -2.15061041               -0.04562405                0.04603496               -0.72018007
               0.09317463                3.02885075                4.07544212                1.00000000               -0.43921347               -0.42266529                1.80504055               -0.07094073                0.06092113                0.69011011
               1.08878250                3.01849588                4.03470814                0.87630441               -0.28289179               -0.26294831                0.91790528               -0.04545291                0.10828646               -0.13414518
               2.08751680                3.00741576                3.99471711                0.12914147                0.02720346               -0.10509242                0.02156209                0.19175892                0.96163985               -0.96241720
               3.08932657                2.99996129                3.97152541                0.00010000                0.50685346                0.12296663               -0.36100356                1.14245969                3.81283863               -0.89432313
               4.09765386                3.00251541                3.98920019                0.00010000                0.69800051                0.18478752               -0.34516405                1.76894830                5.45593919               -0.10893587
               5.10328658                3.00407539                4.00085639                0.00010000                0.40192140                0.18509481               -0.11253953                1.83258281                5.03782365                0.42109821
               6.10569229                3.00511346                4.01012178                0.00010000                0.10079427                0.12593081                0.14806690                1.67893135                5.10680427                1.01876667
               7.10530246                3.00530047                4.02073462                0.14099804               -0.05559447                0.17906486                0.30457713                0.90935023                3.36764837                1.98159386
               8.10458040                2.99452016                3.99098919                0.43206008                0.04680795                0.16332439               -0.22454570                0.17141345                0.83180858                1.50272247
               9.10623862                2.98371999                3.94778161                0.97029345                0.29519966                0.26021905               -0.93416936                0.05900407                0.06712514                0.32926924
              10.11048440                2.97326877                3.90282914                1.00000000                0.42457760                0.38275263               -1.58037077               -0.04121985                0.04714973               -0.68473085
               0.10211630                4.02512437                4.06833098                1.00000000               -0.37470033               -0.33280229                1.59057698               -0.05614482                0.06107281                0.63540227
               1.09836930                4.01621687                4.02348769                0.83995365               -0.20642956               -0.19668794                0.67530054               -0.02519811                0.11061283               -0.16360532
               2.09798771                4.00658731                3.97937229                0.11345191                0.19985298               -0.05888275               -0.24426715                0.23757634                1.45519180               -0.98026557
               3.10236636                4.00121467                3.96178525                0.00010000                0.71457454                0.13336947               -0.47068536                1.10011006                4.93318353               -0.39340704
               4.11227920                4.00382038                3.98719485                0.00010000                0.81756164                0.10092901               -0.36522436                1.58775687                6.60019103                0.06030062
               5.11871759                4.00533845                4.00629920                0.00010000                0.39820988                0.07699606                0.06477742                1.56378386                6.21993665                0.51165494
               6.12024340                4.00620360                4.02412845                0.00010000               -0.04034102                0.05596358                0.51785518                1.40401852                6.50448260                1.10268376
               7.11791077                4.00648305                4.04564290                0.15060490               -0.21301360                0.05641990                0.69160380                0.63416875                4.16267373                1.93953393
               8.11598313                3.99539267                4.01092663                0.44466977               -0.05992937                0.06057664                0.02498957                0.02331574                0.76075149                1.40415301
               9.11671218                3.98550345                3.96143572                0.98376294                0.19619499                0.14002619               -0.58852330                0.02522040                0.00898301                0.43151323
              10.11990703                3.97616824                3.91151238                1.00000000                0.31948437                0.23916318               -1.20536121               -0.03922879                0.04326591               -0.53288542
               0.10986673                5.02219470                4.06105879                1.00000000               -0.30511420               -0.26289686                1.37597217               -0.04775533                0.05836071                0.57936993
               1.10681559                5.01456212                4.01223097                0.80818004               -0.12981037               -0.13374236                0.43270792               -0.01030179                0.10890748               -0.17372236
               2.10727053                5.00623811                3.96418097                0.09870727                0.36400537               -0.00117548               -0.50341905                0.27393258                2.10737882               -0.93845223
               3.11409570                5.00262868                3.95568490                0.00010000                0.90073442                0.15102756               -0.58893798                1.03954884                6.10317837               -0.04528125
               4.12528522                5.00453399                3.98718330                0.00010000                0.90416662                0.04273234               -0.36222836                1.38297101                7.58479481                0.21098997
               5.13217903                5.00561531                4.01270916                0.00010000                0.36714242               -0.02417587                0.27310786                1.35059329                7.30583186                0.56454083
               6.13262806                5.00623273                4.03869770                0.00010000               -0.16911316               -0.06178748                0.90048903                1.20001778                7.83158746                1.10207436
               7.12879677                5.00642887                4.07076806                0.15975478               -0.33008731               -0.06939725                1.01548906                0.49980818                4.91002687                1.88695706
               8.12602632                4.99573170                4.03095916                0.45817387               -0.14146584                0.00815094                0.22040631               -0.04303293                0.71493429                1.33982962
               9.12596745                4.98652051                3.97619550                1.00000000                0.11719590                0.08698240               -0.36288821               -0.00457425               -0.01838860                0.50207713
              10.12837024                4.97805203                3.92160521                1.00000000                0.24027837                0.17455144               -0.98760194               -0.04172838                0.03071516               -0.36965521
               0.11642637                6.01986644                4.05367207                1.00000000               -0.23065113               -0.21240644                1.16248624               -0.04592406                0.05478772                0.51898199
               1.11411986                6.01354203                4.00116505                0.78074327               -0.05132853               -0.06743411                0.18044815               -0.00194303                0.10461937               -0.16329137
               2.11539980                6.00656380                3.94948141                0.08465636                0.53707996                0.07968039               -0.77832806                0.28041229                2.87091582               -0.85379766
               3.12486146                6.00423522                3.95267487                0.00010000                1.07760978                0.15442151               -0.66553432                0.91566225                7.29431731                0.17669254
               4.13695199                6.00467503                3.98844142                0.00010000                0.95846276               -0.02100051               -0.33601834                1.12498210                8.42982965                0.26980522
               5.14403071                6.00485494                4.01961293                0.00010000                0.32391009               -0.13378818                0.49344349                1.12202721                8.32398475                0.56591353
               6.14343019                6.00496785                4.05342817                0.00156019               -0.28113716               -0.19413546                1.26310474                1.02071886                9.12800701                1.06681823
               7.13840797                6.00509511                4.09596691                0.16927934               -0.41996867               -0.19951306                1.27286539                0.43386602                5.62795593                1.80884978
               8.13503082                5.99555569                4.05113809                0.47378072               -0.20538017               -0.05219232                0.41260491               -0.04364203                0.66273742                1.24695991
               9.13430036                5.98724310                3.99186850                1.00000000                0.04893023                0.05219747               -0.16514034               -0.01249428               -0.03002515                0.51730506
              10.13600943                5.97965927                3.93316300                1.00000000                0.17090616                0.15389186               -0.82147179               -0.04369885                0.01910727               -0.24749301
               0.12159707                7.01794657                4.04618986                1.00000000               -0.15177108               -0.18005191                0.95293864               -0.04968913                0.05243278                0.45764740
               1.12007936                7.01321343                3.99045510                0.75510602                0.02942531                0.00532484               -0.08251748               -0.00180963                0.10482569               -0.13683664
               2.12218558                7.00783172                3.93566446                0.07056291                0.71091795                0.18715792               -1.07133596                0.21366821                3.65525416               -0.72216069
               3.13429772                7.00571711                3.95125350                0.00010000                1.24897802                0.12554589               -0.72002801                0.66756125                8.45481005                0.23211748
               4.14716514                7.00411398                3.99007984                0.00010000                1.00145152               -0.11030301               -0.29971575                0.79903765                9.19915553                0.23668120
               5.15432675                7.00293955                4.02640240                0.00010000                0.28185650               -0.25481173                0.70578548                0.86731221                9.30438944                0.51774798
               6.15280227                7.00235002                4.06771034                0.00565895               -0.37202492               -0.32308565                1.58010640                0.84380017               10.39468836                0.98301300
               7.14688625                7.00243861                4.12031635                0.17870920               -0.48983929               -0.31721947                1.45566385                0.39935916                6.30399655                1.62729323
               8.14300548                6.99468785                4.07066609                0.49042382               -0.26361364               -0.12903004                0.62362982               -0.01080159                0.60799348                1.08291091
               9.14161398                6.98756446                4.00770969                1.00000000               -0.01707857                0.00344874                0.04242803               -0.01456727               -0.02751793                0.46966571
              10.14266391                6.98112987                3.94542332                1.00000000                0.10499319                0.14153283               -0.66756330               -0.04835082                0.01148859               -0.19895075
               0.12489887                8.01626540                4.03859175                1.00000000               -0.07003435               -0.15974054                0.74880215               -0.05970608                0.06044236                0.40563125
               1.12419852                8.01364852                3.98019107                0.72387707                0.11353098                0.09095321               -0.36497037               -0.01344232                0.13331085               -0.11220436
               2.12716949                8.01030696                3.92322142                0.05486781                0.88659491                0.32678992               -1.40700600                0.03035926                4.38443278               -0.53007920
               3.14193042                8.00674614                3.94995578                0.00010000                1.42704133                0.03863841               -0.77364538                0.29602334                9.54121073                0.15871704
               4.15571031                8.00246897                3.99119746                0.00010000                1.06052444               -0.24694474               -0.27103546                0.45059777                9.94884552                0.12889460
               5.16314091                7.99975870                4.03244459                0.00010000                0.25484124               -0.36949385                0.88547561                0.60803209               10.25518700                0.42419233
               6.16080714                7.99850614                4.08059432                0.00734423               -0.45417934               -0.41224711                1.82642002                0.68958140               11.55934185                0.82579709
               7.15405732                7.99875072                4.14150037                0.18484540               -0.55591021               -0.40916012                1.55715695                0.36362732                6.92717428                1.23291253
               8.14968893                7.99297509                4.08842692                0.50231189               -0.32451600               -0.22759975                0.87698035                0.00475150                0.63166212                0.81302442
               9.14756700                7.98731207                4.02297086                1.00000000               -0.08886657               -0.06544890                0.28149460               -0.02167072                0.01049101                0.38231443
              10.14791160                7.98248993                3.95754398                1.00000000                0.03445989                0.12295670               -0.50591398               -0.05379181                0.00638539               -0.22084237
               0.12563670                9.01475176                4.03082799                1.00000000                0.01322484               -0.13662795                0.54361540               -0.06720121                0.07918047                0.31520245
               1.12576895                9.01503250                3.97012527                0.66362108                0.20292241                0.20002267               -0.68857253               -0.02424242                0.25055353               -0.10227120
               2.12969515                9.01436751                3.91280347                0.03187347                1.11436166                0.51468362               -1.84436198               -0.32815808                5.07563470               -0.31217473
               3.14805618                9.00648988                3.94826049                0.00010000                1.67346898               -0.21355310               -0.83045984               -0.04824749               10.54733231                0.04799842
               4.16316453                8.99917508                3.99127368                0.00010000                1.11970194               -0.33471931               -0.26650815                0.16685009               10.65298623                0.01357718
               5.17045022                8.99554967                4.03691961                0.00010000                0.22186758               -0.44299672                0.99470535                0.37047982               11.09727344                0.27511808
               6.16760188                8.99410508                4.09066271                0.00259746               -0.53801851               -0.46285152                1.94154907                0.47172040               12.49101860                0.54052093
               7.15968985                8.99425540                4.15632757                0.17759689               -0.65313625               -0.49002569                1.72726623                0.27906819                7.50084505                0.65697563
               8.15453916                8.99013586                4.10291845                0.48935725               -0.40120644               -0.36045318                1.25541230               -0.01013830                0.89953587                0.46545353
               9.15166572                8.98625549                4.03736225                1.00000000               -0.16533950               -0.16357715                0.57665902               -0.03299429                0.15766078                0.27242486
              10.15123237                8.98358900                3.96894482                1.00000000               -0.04333565                0.08503834               -0.30799360               -0.05879583                0.00380484               -0.24148868
               0.12299337               10.01353284                4.02163767                1.00000000                0.11045508               -0.12189258                0.27866303                0.14728064                0.24589284                0.25925800
               1.12409792               10.01764898                3.96002291                0.80103311                0.30777857                0.26164767               -1.03368988                0.18628701                0.52279718               -0.09294581
               2.12914894               10.02060064                3.90410179                0.50641238                1.60299904                0.62331204               -2.26310095               -0.81331584                5.72817684               -0.11922427
               3.15615790               10.00247507                3.94631972                0.43605040                2.04192906               -0.40148049               -0.98534357               -0.43113079               11.35659184               -0.03962149
               4.16998752                9.99577458                3.99043218                0.42916284                0.97313018               -0.34005008               -0.34980626                0.10348401               11.08492716                0.02818062
               5.17562051                9.99089877                4.03865940                0.45050215                0.07741418               -0.46509013                1.02479078                0.19075475               11.59987462                0.18999897
               6.17153581                9.98924911                4.09552835                0.49743901               -0.60062984               -0.48559723                2.05802080                0.29596443               13.17164995                0.37146949
               7.16360791                9.98895020                4.16513004                0.58126222               -0.70248616               -0.53052006                1.96214501                0.21765148                8.17336530                0.34260126
               8.15748609                9.98576602                4.11429388                0.73066921               -0.50769698               -0.43698334                1.62193100                0.04920916                1.34846450                0.17973973
               9.15345397                9.98404053                4.05056757                1.00000000               -0.27087166               -0.22149539                0.91106140                0.10005833                0.46995515                0.20565961
              10.15206865                9.98419070                3.98069072                1.00000000               -0.13853189                0.06016943               -0.03096197                0.09864488                0.17181042               -0.23789450
               0.08831272                0.06168415                5.12292164                1.00000000               -0.58698173               -0.68528518                2.39928816               -0.17100508               -0.39748261                0.46330440
               1.08244291                0.04097507                5.08299201                1.00000000               -0.44816329               -0.46456928                1.65378739               -0.13264781               -0.38731376               -0.02581814
               2.07934946                0.02018208                5.04310965                0.71785133               -0.06307387               -0.27719552                0.91991460                0.02336028               -0.17420530               -0.42768004
               3.08118143                0.00283334                5.00752047                0.52569316                0.51189386               -0.13431274                0.25925833                0.28467395                0.92330383               -0.06848220
               4.08958733               -0.00463487                4.98935939                0.44767356                0.85240990               -0.12333886               -0.15184305                0.29983759                2.75724054               -0.03839755
               5.09822963               -0.00128352                4.98931218                0.45230125                0.45960997               -0.07795721               -0.32447633                0.14563056                3.62623709                0.01570223
               6.09877953                0.00151755                4.98721487                0.53299968               -0.10014384                0.08620591               -0.52347156                0.22738786                2.65381396                0.05612448
               7.09622675               -0.00609279                4.96679305                0.69794349               -0.08323006                0.25089166               -0.93864966                0.21490384                1.03786687                0.07150230
               8.09711493               -0.02272986                4.93156383                0.97308395                0.29318879                0.43355287               -1.53880340                0.05604100                0.02639615                0.26395287
               9.10209053               -0.04248713                4.89028406                1.00000000                0.61828303                0.61234792               -2.20063268               -0.08795572               -0.27556696                0.08627112
              10.10948059               -0.06199861                4.84882246                1.00000000                0.73900679                0.78803397               -2.84233868               -0.15686218               -0.29548518               -0.37487540
               0.10731175                1.05483129                5.11102951                1.00000000               -0.54442883               -0.63662693                2.17595410               -0.06527217               -0.00576687                0.62560808
               1.10186746                1.03632937                5.07054495                1.00000000               -0.43289141               -0.42404457                1.42746752               -0.03643546                0.04728520               -0.04722354
               2.09865392                1.01741012                5.03096120                0.30054865               -0.27154100               -0.23974963                0.68972451                0.13015988                0.66193000               -0.69697519
               3.09643664                1.00149021                5.00298235                0.00010000               -0.20048921               -0.06594385                0.12936339                0.54854090                1.84116178               -0.82008205
               4.09464414                0.99413174                4.98795577                0.00010000                0.00865378                0.29407387               -0.21866149                1.39510056                3.28364022                0.10204629
               5.09660972                0.99793691                4.99019821                0.00010000                0.44069548                0.10012227               -0.27908845                1.71928973                4.04473547                0.14478862
               6.10345805                1.00237961                4.99037861                0.01937174                0.69448880               -0.03526205               -0.36492973                1.40809453                3.17182793                0.19168207
               7.11049949                0.99641613                4.97299457                0.26720538                0.62072335                0.23952848               -0.70234042                0.74256152                1.81462089                0.84393894
               8.11587252                0.98160567                4.94339237                0.70666399                0.51729240                0.38875688               -1.25076401                0.24301391                0.82010156                0.63424500
               9.12084534                0.96363635                4.90433696                1.00000000                0.57754654                0.54930241               -1.84924756                0.02577089                0.22847641                0.19305995
              10.12742345                0.94588173                4.86235133                1.00000000                0.65781040                0.70704048               -2.47668312               -0.06123979                0.07699186               -0.50337372
               0.12401112                2.04895161                5.10213009                1.00000000               -0.48757490               -0.53926838                1.96752077               -0.07182168                0.06088177                0.77525267
               1.11913537                2.03249418                5.05768091                0.91402451               -0.36096519               -0.34861345                1.19344203               -0.04375476                0.09329911               -0.11447414
               2.11679182                2.01538708                5.01367007                0.14218875               -0.18523704               -0.17394791                0.42524405                0.17529319                0.80715587               -1.01541464
               3.11543063                2.00151446                4.98370755                0.00010000                0.21254158                0.10202974               -0.19710529                1.18564387                3.29176388               -1.38695152
               4.12104265                2.00124660                4.98985546                0.00010000                0.44684581                0.49031177               -0.21454086                2.31190480                4.91383055                0.05790658
               5.12436755                2.00071893                4.99410863                0.00010000                0.37097804                0.25649434               -0.23426724                2.50573953                4.69179778                0.35927014
               6.12846221                2.00081231                4.99643766                0.00010000                0.37421886               -0.02963730               -0.22762387                2.25148670                4.46484472                0.67575545
               7.13185192                1.99869778                4.99452685                0.12437891                0.31463929                0.17730157               -0.28559073                1.29645167                2.92715453                1.95371879
               8.13475499                1.98504528                4.96233934                0.42446620                0.32389787                0.29153517               -0.84979063                0.32951726                1.01794660                1.38659317
               9.13832988                1.96849891                4.92067174                1.00000000                0.45050163                0.41478631               -1.42091983                0.04806878                0.31186421                0.34832466
              10.14376503                1.95214220                4.87398451                1.00000000                0.54351458                0.54409426               -2.06967038               -0.05681930                0.05297244               -0.59342047
               0.13879018                3.04404593                5.09322838                1.00000000               -0.42332887               -0.44578667                1.75859987               -0.06826683                0.04646536                0.74400356
               1.13455689                3.02935711                5.04402318                0.86510816               -0.28253412               -0.27911245                0.93698295               -0.03949891                0.09264826               -0.16873680
               2.13313950                3.01393116                4.99545994                0.11656755               -0.01334461               -0.11766637                0.10977749                0.26600637                1.19598011               -1.07325824
               3.13429000                3.00353081                4.96858456                0.00010000                0.42691355                0.18884297               -0.19079584                1.30815795                4.48723300               -0.85445391
               4.14167777                3.00393797                4.98650669                0.00010000                0.64344001                0.20765144               -0.22222485                1.94601484                6.37075523               -0.10610738
               5.14715880                3.00306680                4.99964916                0.00010000                0.44155804                0.17331096               -0.12385601                2.00570683                6.01421212                0.50951769
               6.15050893                3.00178687                5.01082781                0.00010000                0.25183809                0.08336859                0.00347703                1.90388263                6.01497416                1.19269378
               7.15219556                2.99996216                5.02245533                0.13365949                0.10763987                0.09720175                0.04969391                1.17481796                3.93058470                2.21956933
               8.15266173                2.98743637                4.98844197                0.41982713                0.12571163                0.16316101               -0.31232009                0.30044690                0.92807989                1.59902118
               9.15470979                2.97193207                4.93797151                0.96640217                0.31693799                0.27158417               -0.99811183                0.04060495                0.07287934                0.39333782
              10.15900049                2.95676362                4.88632138                1.00000000                0.42906929                0.38613881               -1.65074935               -0.04604553                0.01640121               -0.56491750
               0.15202343                4.04003587                5.08400617                1.00000000               -0.35632686               -0.36466633                1.54787267               -0.05873425                0.04773899                0.69551355
               1.14846016                4.02691193                5.03032928                0.83305470               -0.20425927               -0.21184688                0.68721488               -0.02781571                0.09551732               -0.18363212
               2.14793824                4.01303376                4.97728822                0.10298875                0.15634108               -0.05845922               -0.17889518                0.32848818                1.82175466               -1.06147857
               3.15158698                4.00529132                4.95838348                0.00010000                0.62443568                0.16730050               -0.21636276                1.27270170                5.75520596               -0.38724863
               4.16042695                4.00539963                4.98471310                0.00010000                0.75229053                0.10639880               -0.19152511                1.73292387                7.67290640                0.08810377
               5.16663279                4.00418515                5.00671877                0.00010000                0.46087729                0.06143482                0.02526827                1.69986438                7.38757249                0.63790706
               6.16964450                4.00247968                5.02784003                0.00010000                0.15329937                0.02326598                0.27406451                1.62200455                7.55147640                1.33364009
               7.16969878                4.00064182                5.05087536                0.14540916               -0.04252398                0.01082842                0.41573456                0.94877108                4.71146375                2.19799686
               8.16879402                3.98830850                5.01133164                0.43576898                0.00579794                0.04210639                0.01041736                0.20776541                0.83101509                1.41125200
               9.16981474                3.97393060                4.95509393                0.98511415                0.21935034                0.15422360               -0.65505820                0.02880217                0.00488807                0.41558219
              10.17318103                3.95986498                4.89860567                1.00000000                0.33662914                0.26843899               -1.30658832               -0.04579689                0.00291467               -0.52478745
               0.16386339                5.03675260                5.07462507                1.00000000               -0.28606938               -0.30056764                1.33830383               -0.05267573                0.04634522                0.65281428
               1.16100270                5.02512017                5.01663845                0.80144025               -0.12667624               -0.14570137                0.44107707               -0.01701052                0.09897494               -0.18807391
               2.16132987                5.01276198                4.95937401                0.08875205                0.31877306                0.01096720               -0.45817898                0.35491828                2.59849015               -1.02257829
               3.16737816                5.00687682                4.95159873                0.00010000                0.80562781                0.15585097               -0.27972305                1.19315103                7.10092114               -0.03886026
               4.17744242                5.00606595                4.98498699                0.00010000                0.83489392                0.03195564               -0.15986814                1.50337551                8.85927259                0.26036035
               5.18407604                5.00429550                5.01499934                0.00010000                0.45249658               -0.03765376                0.19333375                1.47200875                8.69206448                0.71708316
               6.18649235                5.00225219                5.04551535                0.00010000                0.06330666               -0.07741178                0.55433813                1.39594341                9.00014839                1.34975697
               7.18534217                5.00017873                5.07880675                0.15527426               -0.14820493               -0.09970358                0.71302462                0.79051014                5.41507433                2.13618338
               8.18352825                4.98827850                5.03349235                0.45014054               -0.08064053               -0.03468142                0.25220957                0.14782143                0.76785254                1.36021698
               9.18372936                4.97501654                4.97242411                1.00000000                0.13437683                0.08134963               -0.39198372                0.01894913               -0.00342557                0.46148490
              10.18621579                4.96213240                4.91133839                1.00000000                0.24864325                0.20569660               -1.04732514               -0.04426855                0.00263190               -0.43104602
               0.17423478                6.03402452                5.06513707                1.00000000               -0.21242065               -0.25100965                1.12951957               -0.05206542                0.04312875                0.61291901
               1.17211057                6.02399790                5.00306076                0.77191247               -0.04774100               -0.07583571                0.18734794               -0.01251732                0.10036541               -0.17857103
               2.17327996                6.01325310                4.94181219                0.07428796                0.50177299                0.09799394               -0.75147434                0.33218396                3.50611386               -0.95842200
               3.18214603                6.00840834                4.94803625                0.00010000                0.98979160                0.13850404               -0.34909594                1.04983894                8.48661310                0.19300361
               4.19307579                6.00603874                4.98662249                0.00010000                0.88703492               -0.03837057               -0.12939763                1.24700548                9.90683319                0.34226798
               5.19988673                6.00343207                5.02381258                0.00010000                0.43021739               -0.13609329                0.36129369                1.25296538                9.92262344                0.72959088
               6.20168014                6.00093145                5.06311284                0.00010000               -0.02020309               -0.18548081                0.81451533                1.20569914               10.39365189                1.30653313
               7.19948267                5.99864774                5.10630733                0.16411878               -0.23837510               -0.20035391                0.96118191                0.67380578                6.10707686                2.04069944
               8.19691263                5.98761487                5.05570714                0.46440991               -0.15714217               -0.09777069                0.47728389                0.11228741                0.72666152                1.30778692
               9.19633982                5.97555759                4.99020526                1.00000000                0.05756591                0.03201745               -0.16812779                0.00760827               -0.00223125                0.48775999
              10.19806395                5.96397891                4.92483323                1.00000000                0.17241296                0.17234427               -0.84527056               -0.04254417                0.00689909               -0.34797462
               0.18287533                7.03173241                5.05557598                1.00000000               -0.13515536               -0.21012928                0.92072942               -0.05641775                0.04248199                0.57776447
               1.18152377                7.02360345                4.98969520                0.74210311                0.03438880                0.00226866               -0.08146203               -0.01496734                0.10974743               -0.16152568
               2.18356310                7.01472186                4.92487037                0.05905126                0.70327597                0.20962657               -1.07197609                0.22747944                4.45178579               -0.86645634
               3.19558929                7.00964690                4.94595778                0.00010000                1.18978496                0.09680587               -0.45597699                0.78828517                9.84946348                0.23819591
               4.20735880                7.00529854                4.98866542                0.00010000                0.93266745               -0.12133057               -0.10551023                0.94753752               10.86779516                0.32926594
               5.21424264                7.00157363                5.03236824                0.00010000                0.40159318               -0.23677048                0.51399273                1.02852617               11.09370079                0.67156233
               6.21539066                6.99854257                5.07988470                0.00247331               -0.10538885               -0.28313548                1.04656342                1.02974838               11.72741663                1.18847268
               7.21213486                6.99617165                5.13249121                0.17119785               -0.32632534               -0.29316496                1.18124663                0.57191091                6.79062535                1.82604178
               8.20886416                6.98632309                5.07746160                0.47722334               -0.23086895               -0.16980675                0.71937513                0.08712567                0.73158163                1.18857942
               9.20751748                6.97565689                5.00818250                1.00000000               -0.01709437               -0.01770670                0.05530718               -0.00269974                0.01332621                0.46835735
              10.20852227                6.96557928                4.93874994                1.00000000                0.10047859                0.14825703               -0.66530252               -0.04614014                0.00338117               -0.31450772
               0.18936433                8.02982194                5.04590830                1.00000000               -0.05425548               -0.17208481                0.70907762               -0.06177896                0.05282890                0.54711499
               1.18882177                8.02404327                4.97651862                0.70539934                0.12108856                0.09514253               -0.37481436               -0.02042248                0.14804731               -0.16184967
               2.19178610                8.01744563                4.90877051                0.04155899                0.92566396                0.35759147               -1.44373730                0.00851303                5.35457287               -0.75840823
               3.20733505                8.01034446                4.94359018                0.00010000                1.41568545                0.01953316               -0.62665000                0.36306640               11.12577685                0.14874582
               4.22009981                8.00361213                4.99011997                0.00010000                0.99390830               -0.23968523               -0.09751616                0.62830944               11.78048507                0.24836163
               5.22721322                7.99869666                5.03977186                0.00010000                0.37886374               -0.32885577                0.63293915                0.79791481               12.19342539                0.53488489
               6.22767708                7.99526874                5.09469383                0.00313656               -0.20364257               -0.35838739                1.24323527                0.85286148               12.95118582                0.95676024
               7.22314037                7.99278445                5.15554385                0.17378112               -0.42535894               -0.39831265                1.43343799                0.46314915                7.48842141                1.42613717
               8.21916990                7.98421873                5.09798816                0.48336739               -0.30553674               -0.27530524                1.01808025                0.05468455                0.85340161                0.99988179
               9.21702963                7.97520346                5.02587469                1.00000000               -0.09367660               -0.08577883                0.30404579               -0.01258374                0.06741688                0.41852843
              10.21729637                7.96694405                4.95266676                1.00000000                0.02667398                0.11754056               -0.47394182               -0.05042545                0.00696408               -0.33345050
               0.19319707                9.02829071                5.03600363                1.00000000                0.02945549               -0.13209619                0.48947467               -0.06047259                0.05996219                0.44101196
               1.19349163                9.02550630                4.96310402                0.64801945                0.21175511                0.20404564               -0.70121740               -0.01430438                0.23934596               -0.16941157
               2.19743218                9.02187369                4.89355699                0.01904532                1.15962449                0.52424064               -1.89308495               -0.37022760                6.19972034               -0.56905870
               3.21668412                9.01003756                4.94000041                0.00010000                1.70703058               -0.19542356               -0.86711517               -0.07218941               12.22917213                0.04929304
               4.23157279                9.00050483                4.99036803                0.00010000                1.09301072               -0.32368399               -0.11263895                0.30580732               12.61162779                0.13424004
               5.23854433                8.99499651                5.04499451                0.00010000                0.33936628               -0.38510090                0.70357764                0.50896133               13.15551969                0.30963704
               6.23836011                8.99137482                5.10605028                0.00010000               -0.30482406               -0.41369063                1.39430862                0.55746319               13.99810195                0.55140060
               7.23244785                8.98820540                5.17364555                0.16818948               -0.54106369               -0.51255291                1.80197237                0.30603590                8.25028647                0.85076824
               8.22753884                8.98081698                5.11673614                0.47323792               -0.39536781               -0.40632738                1.42300055                0.00794450                1.19247442                0.67857672
               9.22454049                8.97394132                5.04320658                1.00000000               -0.17531316               -0.17542492                0.59300901               -0.01247830                0.18010372                0.32862262
              10.22403258                8.96793009                4.96621473                1.00000000               -0.05079196                0.07153849               -0.25437586               -0.05068169                0.00073585               -0.32083618
               0.19372369               10.02718001                5.02416594                1.00000000                0.12290210               -0.11106992                0.22729258                0.14707899                0.26915225                0.35630130
               1.19495271               10.02812419                4.94968292                0.79935550                0.30632997                0.26178812               -1.01836156                0.18362984                0.56065425               -0.17318685
               2.19985029               10.02793044                4.88088936                0.50142461                1.61537036                0.60567578               -2.25177195               -0.84259848                6.99729431               -0.46364144
               3.22726012               10.00643599                4.93549288                0.43401424                2.07033569               -0.36015735               -1.11085704               -0.48199951               13.07891737                0.03851405
               4.24125700                9.99713845                4.98905263                0.42937554                0.96311690               -0.33663788               -0.17613793                0.19635440               13.24362574                0.07574840
               5.24652246                9.99099465                5.04705296                0.45171614                0.21802306               -0.40018685                0.73407495                0.29063598               13.83991611                0.19663202
               6.24561746                9.98699493                5.11210878                0.49825019               -0.33517653               -0.43798956                1.51548743                0.30267222               14.84714796                0.31153182
               7.23981893                9.98253339                5.18567014                0.58023715               -0.60122945               -0.56720092                2.09891918                0.19197046                9.05505516                0.51114241
               8.23359287                9.97609219                5.13166953                0.72854898               -0.50759852               -0.47247943                1.74267621                0.06348211                1.75553426                0.46648112
               9.22966695                9.97169496                5.05943761                1.00000000               -0.26438448               -0.22463582                0.88562079                0.12677761                0.51927785                0.26881280
              10.22830518                9.96837482                4.98058335                1.00000000               -0.13617696                0.04447270                0.00273694                0.09524713                0.18716143               -0.29200045
               0.12781158                0.07949062                6.14664525                1.00000000               -0.57889548               -0.67330044                2.34885315               -0.16053980               -0.43638760                0.49914243
               1.12202263                0.05424132                6.09950408                1.00000000               -0.44690002               -0.46479649                1.65022497               -0.12123847               -0.42333331               -0.03192531
               2.11887358                0.02892708                6.05247946                0.71393688               -0.06291886               -0.28957996                0.95576801                0.04534870               -0.17736589               -0.47508261
               3.12076425                0.00733813                6.01036846                0.52217545                0.53712866               -0.15034247                0.31353545                0.32036264                1.05881734               -0.06727480
               4.12961615               -0.00334374                5.98803560                0.44674715                0.89774994               -0.14261333               -0.11193936                0.32016453                3.09651602               -0.04657106
               5.13871925               -0.00229103                5.98600501                0.45270922                0.50374793               -0.09367478               -0.33589174                0.15253667                4.02915088                0.00911514
               6.13969111               -0.00192336                5.98163712                0.53278369               -0.05884686                0.08107806               -0.58746996                0.23712574                2.92934744                0.05123004
               7.13754231               -0.01278508                5.95694092                0.69620286               -0.05226164                0.26192463               -1.01819764                0.22775413                1.12494779                0.07138454
               8.13864588               -0.03334269                5.91586955                0.97216244                0.30675676                0.44546582               -1.58398129                0.07149941               -0.00067124                0.26816316
               9.14367745               -0.05734284                5.86836681                1.00000000                0.61426601                0.60860309               -2.18236293               -0.08018058               -0.32017750                0.10726321
              10.15093120               -0.08120147                5.82085352                1.00000000                0.72537539                0.76931277               -2.76737291               -0.14536180               -0.33191874               -0.38180870
               0.15145548                1.07275761                6.13254038                1.00000000               -0.53634660               -0.63033778                2.12876053               -0.05993697               -0.00938579                0.66854380
               1.14609201                1.04959336                6.08483265                1.00000000               -0.43384068               -0.42666011                1.42878349               -0.02897954                0.04737066               -0.05678990
               2.14277866                1.02603128                6.03810915                0.28789796               -0.29943622               -0.25224759                0.73628554                0.15510975                0.74729625               -0.76028062
               3.14010329                1.00583471                6.00458079                0.00010000               -0.25731428               -0.09620153                0.18858523                0.63506414                2.11631336               -0.90879203
               4.13763238                0.99523012                5.98607279                0.00010000               -0.02844332                0.30377915               -0.16473433                1.51056135                3.79499689                0.13843941
               5.13953442                0.99677223                5.98741512                0.00010000                0.48385094                0.08310172               -0.28311506                1.84279010                4.65542809                0.14762943
               6.14730940                0.99888742                5.98636747                0.01560466                0.79975478               -0.06628725               -0.43519911                1.50696767                3.61667772                0.17592325
               7.15552952                0.98983416                5.96544921                0.25755458                0.71651768                0.26502308               -0.79446364                0.82270588                2.01882007                0.91892249
               8.16163975                0.97111197                5.93050039                0.69208174                0.56377568                0.40755640               -1.30961399                0.27257844                0.88977594                0.67883646
               9.16680503                0.94874319                5.88583458                1.00000000                0.58482302                0.54869213               -1.85242551                0.02875298                0.25894196                0.25859410
              10.17333621                0.92649166                5.83796993                1.00000000                0.65311812                0.69380984               -2.42385966               -0.05856895                0.09573848               -0.47241260
               0.17294135                2.06688386                6.12159302                1.00000000               -0.47719809               -0.54514370                1.92672701               -0.06463104                0.06530908                0.82683255
               1.16816937                2.04570812                6.06966427                0.89714545               -0.36034617               -0.35602938                1.20073030               -0.03449246                0.10105702               -0.13762531
               2.16573443                2.02388213                6.01826139                0.12953911               -0.19513408               -0.18494140                0.48454801                0.19011667                0.88930167               -1.11994984
               3.16426669                2.00541410                5.98226093                0.00010000                0.15777173                0.11807865               -0.09925045                1.33854502                3.74507343               -1.38929000
               4.16888986                2.00273184                5.98811764                0.00010000                0.38255297                0.51527508               -0.14401391                2.51644482                5.63426862                0.10093130
               5.17191775                1.99937101                5.99180285                0.00010000                0.39393321                0.24416865               -0.23375667                2.68671716                5.40078874                0.39204195
               6.17676853                1.99675090                5.99363475                0.00010000                0.49270657               -0.06612293               -0.32154610                2.45102914                5.12772493                0.72258924
               7.18177188                1.99251538                5.99071464                0.11493067                0.42099456                0.17545927               -0.44708564                1.44140089                3.28751689                2.08185870
               8.18518842                1.97480844                5.95317060                0.40912591                0.35504682                0.31981579               -0.95345212                0.35508438                1.12674205                1.54700945
               9.18887282                1.95363101                5.90638700                0.99550449                0.45372340                0.42106840               -1.44090339                0.04390278                0.37244077                0.46188998
              10.19426289                1.93267473                5.85354182                1.00000000                0.53900701                0.54287991               -2.03508640               -0.05680360                0.06947881               -0.51431721
               0.19251434                3.06185474                6.11061411                1.00000000               -0.41104403               -0.46229566                1.72043005               -0.06402176                0.03976109                0.79854553
               1.18840390                3.04247277                6.05344780                0.85141642               -0.28196600               -0.28895820                0.94613326               -0.03470327                0.08248766               -0.19750824
               2.18687502                3.02233245                5.99691266                0.10575188               -0.01897111               -0.12192250                0.17208392                0.31788405                1.47031783               -1.19050767
               3.18802448                3.00819628                5.96770949                0.00010000                0.35646750                0.25207119               -0.01504661                1.44910383                5.15307666               -0.71194963
               4.19400437                3.00553562                5.98475570                0.00010000                0.56126142                0.21851593               -0.14008247                2.09857474                7.16614627               -0.06128605
               5.19924970                3.00165560                5.99837927                0.00010000                0.45906198                0.16877046               -0.13380834                2.17268510                6.87202129                0.59070912
               6.20318561                2.99756496                6.01019132                0.00010000                0.35251430                0.07189822               -0.11310488                2.10177825                6.80435902                1.32276029
               7.20629999                2.99334335                6.02172850                0.12531900                0.22201020                0.07880930               -0.17570328                1.34099387                4.46971784                2.39521300
               8.20762581                2.97750829                5.98474279                0.40823596                0.17584031                0.18794410               -0.41632367                0.35088263                1.11258631                1.76483682
               9.20981680                2.95716456                5.92781937                0.95396183                0.32434388                0.28657481               -1.03417072                0.02520352                0.07481933                0.47648948
              10.21411269                2.93734926                5.86981415                1.00000000                0.42958928                0.39903782               -1.65729169               -0.04758286                0.02538211               -0.50142651
               0.21042485                4.05763795                6.09928843                1.00000000               -0.34272589               -0.38673284                1.51031694               -0.05827198                0.03908621                0.75762618
               1.20699759                4.03992896                6.03723198                0.82341212               -0.20281261               -0.22018095                0.69218821               -0.02760076                0.08217714               -0.20290146
               2.20636860                4.02144368                5.97579438                0.09392861                0.15239996               -0.05349425               -0.12737389                0.39658004                2.25801543               -1.16002668
               3.21004559                4.01045552                5.95745799                0.00010000                0.55167193                0.20012148               -0.02312928                1.40675713                6.63475886               -0.30539239
               4.21740204                4.00710216                5.98336434                0.00010000                0.66482581                0.11480900               -0.09883803                1.86782910                8.59136695                0.15058537
               5.22334211                4.00274642                6.00680456                0.00010000                0.48571507                0.06037799               -0.00587125                1.86644834                8.39562718                0.75303838
               6.22711634                3.99818886                6.02960974                0.00010000                0.26531624                0.01950463                0.11762009                1.84915793                8.48588219                1.50627021
               7.22864843                3.99409157                6.05395759                0.13828557                0.06342588                0.01886079                0.21609051                1.15998590                5.30980343                2.41586796
               8.22838486                3.97856732                6.01113498                0.42705421                0.04437404                0.05261258               -0.04781457                0.27055670                1.00105663                1.45420710
               9.22953592                3.95936250                5.94833456                0.97904214                0.22784880                0.17371591               -0.69945602                0.01621367                0.00589266                0.43121810
              10.23294183                3.94065549                5.88538061                1.00000000                0.34059194                0.29271444               -1.34458847               -0.04662029                0.00453114               -0.52681923
               0.22676688                5.05412008                6.08782486                1.00000000               -0.27207265               -0.32320193                1.30163796               -0.05425797                0.04074001                0.72739700
               1.22404616                5.03806915                6.02105251                0.79276185               -0.12434148               -0.15075498                0.44071906               -0.02015339                0.09009405               -0.20351820
               2.22428005                5.02126257                5.95501739                0.08040289                0.32274915                0.02276616               -0.41838029                0.41537738                3.17332848               -1.12322345
               3.23050114                5.01219871                5.95009043                0.00010000                0.73950028                0.16403569               -0.09930712                1.31535322                8.18898930                0.00256392
               4.23907006                5.00783180                5.98398593                0.00010000                0.74954136                0.03698979               -0.06981840                1.62873639                9.93806713                0.32523692
               5.24549197                5.00286316                6.01657583                0.00010000                0.48767798               -0.03342811                0.13249199                1.63869847                9.86482612                0.85244908
               6.24882362                4.99795506                6.04978447                0.00010000                0.18146404               -0.07298508                0.36133259                1.62747785               10.04927182                1.54011379
               7.24912125                4.99372056                6.08502856                0.14859434               -0.05288042               -0.09334638                0.55630053                0.99561288                6.03370996                2.33314606
               8.24776601                4.97856054                6.03600335                0.44232978               -0.05341700               -0.04125734                0.23926207                0.20997883                0.92366837                1.37722803
               9.24805291                4.96063888                5.96835583                1.00000000                0.14141522                0.09387039               -0.42066961                0.01183699               -0.00199152                0.43310932
              10.25059431                4.94320355                5.90065871                1.00000000                0.25414070                0.23163724               -1.08376361               -0.04605182                0.00075629               -0.49762901
               0.24144156                6.05117391                6.07626246                1.00000000               -0.19895114               -0.26947261                1.09317688               -0.05393577                0.04020320                0.70194802
               1.23945204                6.03691386                6.00491201                0.76214892               -0.04474816               -0.07720432                0.18235365               -0.01705757                0.09677014               -0.19998577
               2.24054659                6.02189900                5.93445192                0.06606749                0.51656884                0.11408504               -0.72240428                0.37505195                4.21855557               -1.08233227
               3.24978342                6.01373624                5.94569295                0.00010000                0.93828636                0.13641936               -0.21254783                1.14668753                9.77880684                0.19646544
               4.25931232                6.00784195                5.98585347                0.00010000                0.81047024               -0.03149961               -0.05900834                1.36910722               11.15246139                0.41109163
               5.26599283                6.00207785                6.02683880                0.00010000                0.47480858               -0.12258232                0.26518529                1.41883673               11.25602958                0.87010596
               6.26880849                5.99672916                6.06971848                0.00010000                0.09811925               -0.17082842                0.59244617                1.42753976               11.53728136                1.49192941
               7.26795521                5.99222464                6.11519055                0.15706260               -0.15711853               -0.19988222                0.85263305                0.85068130                6.75080182                2.22731836
               8.26566612                5.97774218                6.06068376                0.45594134               -0.14127821               -0.11910605                0.50299124                0.15975439                0.88817940                1.34448519
               9.26512965                5.96123991                5.98850594                1.00000000                0.06126711                0.03116485               -0.17463842                0.00426595                0.00459944                0.45554673
              10.26689146                5.94528823                5.91625759                1.00000000                0.17618162                0.19013190               -0.86712369               -0.04505056                0.00423607               -0.44739732
               0.25420827                7.04873063                6.06460445                1.00000000               -0.12283570               -0.21969330                0.88135596               -0.05589362                0.04183750                0.67934182
               1.25297992                7.03652507                5.98882585                0.73027032                0.03752196                0.00444209               -0.09054085               -0.01705752                0.11166040               -0.19761964
               2.25495871                7.02354427                5.91422494                0.05076429                0.72560107                0.22765867               -1.05233901                0.25224099                5.28870114               -1.03310538
               3.26749194                7.01492710                5.94213396                0.00010000                1.15759375                0.09710919               -0.39211672                0.84853110               11.33804322                0.18285250
               4.27811059                7.00720181                5.98796963                0.00010000                0.87447778               -0.10541784               -0.07008414                1.06552115               12.28842313                0.39831351
               5.28498149                7.00041151                6.03668226                0.00010000                0.45585214               -0.21238658                0.38214750                1.18897056               12.57453174                0.80033723
               6.28722763                6.99453849                6.08864161                0.00010000                0.00701819               -0.26266986                0.81015607                1.22808942               12.96590364                1.35501006
               7.28512186                6.98972292                6.14394129                0.16325342               -0.26409021               -0.30527596                1.14612816                0.71080701                7.48945404                2.02845362
               8.28194583                6.97617842                6.08505360                0.46713574               -0.22648428               -0.20219949                0.77809589                0.11496285                0.91679876                1.27680953
               9.28059217                6.96126218                6.00881583                1.00000000               -0.01745835               -0.02906746                0.06653875               -0.00325689                0.02634891                0.45631439
              10.28159666                6.94700619                5.93211727                1.00000000                0.10044876                0.15339492               -0.66483038               -0.04683476                0.00343943               -0.41929531
               0.26473481                8.04678005                6.05277331                1.00000000               -0.04375551               -0.17081307                0.66241084               -0.05639058                0.05142647                0.65426235
               1.26429726                8.03700270                5.97269478                0.69199709                0.12272846                0.09774481               -0.38281718               -0.01526433                0.14700593               -0.21952842
               2.26718938                8.02645217                5.89434667                0.03337162                0.93996205                0.36616121               -1.42167795                0.02550908                6.29524868               -0.98003875
               3.28309650                8.01567842                5.93742278                0.00010000                1.39744729                0.03229701               -0.64450076                0.38090386               12.80487238                0.04499942
               4.29513833                8.00573360                5.98924714                0.00010000                0.96695304               -0.21372940               -0.10837815                0.72220486               13.38555727                0.30604282
               5.30243556                7.99783012                6.04510338                0.00010000                0.44602711               -0.29750980                0.47533141                0.93195198               13.81103803                0.63168331
               6.30405887                7.99147576                6.10545902                0.00010000               -0.09520689               -0.34101740                1.01835087                0.99871237               14.32196875                1.08133568
               7.30053142                7.98611912                6.17016913                0.16573589               -0.38163744               -0.42892216                1.49472321                0.55551445                8.29021057                1.68203653
               8.29642612                7.97369819                6.10878852                0.47238570               -0.31473404               -0.30761970                1.09895089                0.07106146                1.05527372                1.16010913
               9.29423674                7.96065856                6.02905178                1.00000000               -0.09796857               -0.09985794                0.32476041               -0.00725094                0.07259908                0.43892132
              10.29446675                7.94835613                5.94806514                1.00000000                0.02300088                0.11247495               -0.45294070               -0.04853631                0.00736079               -0.42266519
               0.27263515                9.04531437                6.04061748                1.00000000                0.03673495               -0.12229005                0.43609580               -0.05305921                0.05169526                0.53182755
               1.27300250                9.03847996                5.95610093                0.63928146                0.20790101                0.20123696               -0.69151292               -0.00782779                0.22557700               -0.23483843
               2.27679317                9.03086749                5.87494177                0.01245718                1.14130457                0.51054480               -1.81862704               -0.34057189                7.23441969               -0.78514668
               3.29582859                9.01557304                5.93091819                0.00010000                1.68049060               -0.17090067               -0.92409812               -0.07318924               14.14557259               -0.04312521
               4.31040298                9.00292722                5.98902090                0.00010000                1.10248864               -0.29066265               -0.17179455                0.35249568               14.40535975                0.16827471
               5.31787837                8.99446132                6.05099116                0.00010000                0.42549490               -0.35578050                0.53765884                0.58590187               14.90219099                0.35850124
               6.31891288                8.98771814                6.11854888                0.00010000               -0.19343215               -0.40565113                1.20051245                0.62429392               15.57110438                0.61707503
               7.31400972                8.98114448                6.19236702                0.16337025               -0.50426342               -0.54976222                1.90466035                0.34623656                9.20148691                1.08130637
               8.30882761                8.97002602                6.13137846                0.46655914               -0.41102564               -0.42346572                1.46201503                0.02618591                1.38144002                0.84418909
               9.30578921                8.95926502                6.04922243                1.00000000               -0.17984099               -0.18519150                0.60621581               -0.00406892                0.16089257                0.37022599
              10.30523079                8.94925568                5.96385730                1.00000000               -0.05584161                0.06286548               -0.22456604               -0.04825085               -0.00356310               -0.38163336
               0.27734244               10.04433425                6.02618352                1.00000000                0.12451374               -0.09801255                0.18087410                0.14004860                0.30686036                0.43027476
               1.27858758               10.04102744                5.93965568                0.79952557                0.29712135                0.25474767               -0.98433307                0.17494915                0.60500232               -0.23473687
               2.28328487               10.03666307                5.85906635                0.49928627                1.54927008                0.57955784               -2.12155717               -0.78918175                8.16268209               -0.63526806
               3.30957298               10.01226041                5.92410257                0.43311441                2.00075465               -0.33126280               -1.13294070               -0.46269746               15.18906199               -0.02659326
               4.32329996                9.99992034                5.98690942                0.42963092                0.98948487               -0.30068805               -0.25031618                0.21240306               15.21962237                0.10610203
               5.32936268                9.99071451                6.05334090                0.45240692                0.32808116               -0.37468025                0.56352012                0.32055125               15.75093898                0.20686274
               6.32986159                9.98336274                6.12583810                0.49860738               -0.21072050               -0.43554003                1.32285907                0.31533845               16.58583554                0.33091276
               7.32514827                9.97512387                6.20710843                0.58015200               -0.55161439               -0.60206035                2.16559300                0.20716127               10.13472022                0.68791481
               8.31882930                9.96522887                6.14914740                0.72897218               -0.51112839               -0.47971517                1.73566438                0.09171127                2.02066326                0.60198009
               9.31492570                9.95695473                6.06827999                1.00000000               -0.26544494               -0.23102881                0.88686399                0.13287751                0.54288011                0.30989027
              10.31352040                9.94961344                5.98074546                1.00000000               -0.14053021                0.03577546                0.02913493                0.09483149                0.20525100               -0.33419292
               0.17386730                0.09987673                7.16989870                1.00000000               -0.57252724               -0.66223243                2.30538653               -0.15250965               -0.47962606                0.54026314
               1.16814203                0.06967943                7.11599651                1.00000000               -0.44647685               -0.46460360                1.64839481               -0.11237674               -0.46722959               -0.03423263
               2.16493777                0.03942104                7.06222501                0.71214104               -0.06701976               -0.29984637                0.99099377                0.06058150               -0.19921061               -0.51673813
               3.16680164                0.01306318                7.01379118                0.52017264                0.54716664               -0.16412767                0.36932318                0.34667725                1.15007430               -0.06975497
               4.17588110               -0.00164069                6.98712060                0.44623086                0.92047433               -0.15408350               -0.07214872                0.33363436                3.35768673               -0.05465919
               5.18521112               -0.00392143                6.98259435                0.45293867                0.52747397               -0.09869110               -0.34397135                0.15735582                4.34673582                0.00295668
               6.18643058               -0.00691854                6.97546547                0.53252391               -0.03589263                0.08189890               -0.63653959                0.24468067                3.13665234                0.04977118
               7.18449327               -0.02168169                6.94642909                0.69518438               -0.03774828                0.27025379               -1.06967577                0.23948307                1.17957473                0.07464104
               8.18567561               -0.04662827                6.89988421                0.97206987                0.31048709                0.45096245               -1.60414771                0.08092000               -0.02654149                0.27670066
               9.19070301               -0.07527740                6.84663681                1.00000000                0.60965955                0.60654337               -2.16723752               -0.07680243               -0.35803705                0.12662128
              10.19786880               -0.10386760                6.79347500                1.00000000                0.71657925                0.76127702               -2.72289604               -0.13914878               -0.36015137               -0.38932243
               0.20253950                1.09325440                7.15360472                1.00000000               -0.52933958               -0.62310981                2.08669146               -0.05672591               -0.01420942                0.71851298
               1.19724611                1.06503339                7.09912062                1.00000000               -0.43438986               -0.42764542                1.42813623               -0.02428621                0.04484925               -0.06121374
               2.19385171                1.03642257                7.04568691                0.28096760               -0.32234195               -0.26182278                0.77553633                0.17159643                0.81510322               -0.81521402
               3.19079927                1.01142190                7.00675406                0.00010000               -0.30709803               -0.12316064                0.24312735                0.70350597                2.34799664               -0.98173453
               4.18770975                0.99681848                6.98466108                0.00010000               -0.06878311                0.31115057               -0.12291239                1.59873768                4.22960126                0.17632894
               5.18942361                0.99509166                6.98453590                0.00010000                0.50238833                0.07585273               -0.29405383                1.93685331                5.16518194                0.14991825
               6.19775751                0.99390045                6.98167463                0.01320917                0.86596804               -0.08206079               -0.49427630                1.58017665                3.98074801                0.15875484
               7.20674297                0.98102085                6.95710530                0.25168293                0.77625781                0.28686748               -0.85959070                0.87770178                2.18651767                0.97232786
               8.21328267                0.95788135                6.91720009                0.68281518                0.59058405                0.41856715               -1.34235529                0.28545221                0.95222359                0.71908769
               9.21855465                0.93078803                6.86728845                1.00000000                0.58924231                0.55146593               -1.85771889                0.02841418                0.28553663                0.32124038
              10.22506752                0.90374517                6.81387413                1.00000000                0.65128666                0.69396143               -2.40438675               -0.05547850                0.10992337               -0.44437446
               0.22917480                2.08741453                7.14066463                1.00000000               -0.46866676               -0.54664887                1.88924189               -0.05987466                0.07194856                0.88597897
               1.22448814                2.06112652                7.08169552                0.88280719               -0.35968081               -0.35970838                1.20349358               -0.02839781                0.11158229               -0.15616545
               2.22198119                2.03418458                7.02336103                0.12114838               -0.20061436               -0.19172763                0.52927406                0.19529504                0.97166205               -1.21882560
               3.22047585                2.01059996                6.98172254                0.00010000                0.11024537                0.13364274               -0.01954483                1.45534851                4.14704842               -1.33723920
               4.22418609                2.00458233                6.98697519                0.00010000                0.31951848                0.53235357               -0.09558502                2.68084169                6.26427131                0.15669986
               5.22686622                1.99759562                6.98943349                0.00010000                0.39594119                0.23938061               -0.24005742                2.82989586                5.99184790                0.42364176
               6.23210492                1.99144024                6.99000674                0.00010000                0.56000935               -0.08166839               -0.38968393                2.59746998                5.66882454                0.75134457
               7.23806641                1.98405566                6.98558514                0.10801772                0.47562779                0.18013105               -0.54892449                1.52991501                3.58864700                2.13552748
               8.24161747                1.96174307                6.94327030                0.39672162                0.36705341                0.34436922               -1.00919120                0.36180871                1.24682890                1.70892898
               9.24540747                1.93575192                6.89185367                0.97500709                0.46137428                0.43631356               -1.48064007                0.04243668                0.44399899                0.57030876
              10.25084496                1.91001163                6.83328278                1.00000000                0.54374865                0.55755624               -2.04906086               -0.05147643                0.09467973               -0.45892971
               0.25391803                3.08232142                7.12763698                1.00000000               -0.40099287               -0.47184408                1.68547304               -0.06105774                0.03685645                0.85763129
               1.24990810                3.05783922                7.06294584                0.83741607               -0.28169331               -0.29386687                0.95109637               -0.03118954                0.07839667               -0.22699774
               2.24828416                3.03258802                6.99890162                0.09766622               -0.01998034               -0.12280450                0.21957021                0.35734424                1.77351045               -1.31363436
               3.24950849                3.01409475                6.96828363                0.00010000                0.30233782                0.31012836                0.08677427                1.55569381                5.75095679               -0.54083559
               4.25433092                3.00746555                6.98370504                0.00010000                0.48275553                0.22993881               -0.08509447                2.22530697                7.83974218                0.00073642
               5.25916361                2.99987927                6.99697299                0.00010000                0.44579765                0.17268636               -0.14533281                2.31176271                7.60044963                0.66198713
               6.26324687                2.99226708                7.00856571                0.00010000                0.39374197                0.07858468               -0.19510783                2.24242010                7.45357460                1.41987702
               7.26703844                2.98462347                7.01894126                0.11821015                0.27878569                0.08017298               -0.33778426                1.44024264                4.97200280                2.50286715
               8.26882259                2.96476873                6.98011550                0.39696454                0.20481880                0.21945075               -0.49719145                0.38557715                1.34330561                1.95376642
               9.27113482                2.93951431                6.91728810                0.93716068                0.33479893                0.31332899               -1.08678980                0.02035199                0.08993282                0.55949139
              10.27551857                2.91489630                6.85317555                1.00000000                0.43837451                0.42362028               -1.69879306               -0.04507192                0.03768971               -0.47768692
               0.27691805                4.07797765                7.11421250                1.00000000               -0.33202978               -0.39974542                1.47551938               -0.05760367                0.03264866                0.82180100
               1.27359775                4.05524918                7.04417304                0.81230643               -0.20227526               -0.22347246                0.69456398               -0.02726035                0.07267913               -0.22828985
               2.27287254                4.03172849                6.97474074                0.08697500                0.15572224               -0.04740257               -0.08722266                0.45138499                2.72471323               -1.27383116
               3.27671219                4.01680253                6.95792090                0.00010000                0.50175882                0.22991890                0.06566843                1.50667579                7.44828431               -0.24171041
               4.28290772                4.00918110                6.98273634                0.00010000                0.57938735                0.13080074               -0.04645092                1.98171341                9.37648002                0.22355834
               5.28829994                4.00104935                7.00660135                0.00010000                0.46507000                0.07154838               -0.02867465                2.01206285                9.25311922                0.84820435
               6.29220912                3.99301194                7.03019243                0.00010000                0.30348320                0.03393182                0.02218324                2.01939816                9.30147581                1.63373719
               7.29436961                3.98565912                7.05519717                0.13163071                0.11145327                0.04926078                0.05910393                1.29395940                5.91266446                2.59920438
               8.29443818                3.96613208                7.01037535                0.41769869                0.06586727                0.07527684               -0.10287640                0.31055686                1.22190242                1.53887313
               9.29568695                3.94201850                6.94110481                0.96742191                0.23706778                0.19965202               -0.74723274                0.01256501                0.00328200                0.46439043
              10.29917954                3.91848404                6.87171390                1.00000000                0.34925887                0.32032707               -1.39058095               -0.04811660                0.00599025               -0.54388380
               0.29822289                5.07432652                7.10065783                1.00000000               -0.26108357               -0.33468770                1.26534517               -0.05458990                0.03618121                0.80046473
               1.29561205                5.05336978                7.02545283                0.78323154               -0.12321862               -0.15121691                0.43863289               -0.02138954                0.08396477               -0.22736358
               2.29575852                5.03163997                6.95100640                0.07429572                0.32886736                0.03352068               -0.38602213                0.46604699                3.76615290               -1.23915701
               3.30218940                5.01869313                6.94961258                0.00010000                0.69799269                0.17457955               -0.04534542                1.40250126                9.19848120                0.00050030
               4.30971837                5.01008157                6.98359062                0.00010000                0.66923133                0.05478876               -0.03128116                1.73442764               10.87516588                0.38483093
               5.31557403                5.00131024                7.01764918                0.00010000                0.46533479               -0.01607927                0.09393772                1.78532586               10.86554222                0.95809125
               6.31902506                4.99294572                7.05274200                0.00010000                0.21117309               -0.05495233                0.26066761                1.80816733               11.00787272                1.68343353
               7.31979749                4.98560869                7.08993276                0.14229057               -0.01753584               -0.06888706                0.44161715                1.12461816                6.68768315                2.49182559
               8.31867435                4.96627427                7.03827760                0.43406187               -0.03816598               -0.03388791                0.21392140                0.24106519                1.13001457                1.41731253
               9.31903417                4.94350735                6.96401072                0.99273407                0.14754065                0.10950116               -0.45073132                0.00998006                0.00217689                0.43067207
              10.32162516                4.92130284                6.88966312                1.00000000                0.25909928                0.25441808               -1.11825237               -0.04715897                0.00441776               -0.55244329
               0.31773973                6.07128389                7.08700061                1.00000000               -0.18832235               -0.27590604                1.05419397               -0.05358589                0.03801153                0.78222507
               1.31585651                6.05222484                7.00670784                0.75250425               -0.04348024               -0.07507435                0.17716461               -0.01802747                0.09495773               -0.23050332
               2.31687012                6.03239890                6.92736411                0.06040626                0.52320585                0.12625166               -0.69434739                0.41698887                4.92257650               -1.21851202
               3.32632062                6.02029412                6.94378529                0.00010000                0.90545208                0.14404954               -0.20837917                1.21470173               10.97617512                0.14027520
               4.33497917                6.01027688                6.98544232                0.00010000                0.74108414               -0.01052144               -0.04374726                1.46471224               12.25675231                0.45491114
               5.34114231                6.00072777                7.02911629                0.00010000                0.45474244               -0.09972191                0.20885201                1.55616438               12.40447322                0.97376261
               6.34407402                5.99191289                7.07496177                0.00010000                0.11955550               -0.15217468                0.49380695                1.59891302               12.62348664                1.63429766
               7.34353342                5.98428138                7.12335999                0.15081605               -0.13565927               -0.19232704                0.79176282                0.96279528                7.45425477                2.37751459
               8.34136083                5.96545432                7.06576696                0.44772478               -0.13377155               -0.12598750                0.50617487                0.17891902                1.08810392                1.38774951
               9.34085798                5.94420852                6.98671249                1.00000000                0.06422731                0.03649989               -0.18593190                0.00323449                0.01035029                0.43692557
              10.34264538                5.92357240                6.90749076                1.00000000                0.17873912                0.20414916               -0.88790323               -0.04546170                0.00492894               -0.53408719
               0.33526927                7.06880839                7.07320309                1.00000000               -0.11327768               -0.21948718                0.83856540               -0.05350210                0.04058704                0.76222609
               1.33413649                7.05186829                6.98788438                0.71973499                0.03798728                0.00763945               -0.09560413               -0.01556859                0.11194793               -0.24086248
               2.33602902                7.03416500                6.90382359                0.04544094                0.72344843                0.23645584               -1.02258552                0.28993936                6.08353575               -1.20117199
               3.34860546                7.02157412                6.93811544                0.00010000                1.12749779                0.10830503               -0.42895991                0.89587729               12.72581031                0.07102093
               4.35857897                7.00987114                6.98726374                0.00010000                0.82279188               -0.07975764               -0.08423592                1.14464329               13.58167805                0.42196051
               5.36506130                6.99931580                7.04001119                0.00010000                0.44353692               -0.18531713                0.30889928                1.30554362               13.87618669                0.89091174
               6.36744971                6.98990222                7.09608782                0.00010000                0.02253306               -0.24623570                0.72001456                1.37115208               14.18862155                1.49190046
               7.36551196                6.98176215                7.15541377                0.15711907               -0.25620609               -0.31409675                1.14437047                0.79669818                8.25612443                2.20989955
               8.36232559                6.96375452                7.09302352                0.45853617               -0.22655872               -0.21791368                0.80189438                0.12535459                1.11112889                1.35168795
               9.36098079                6.94423734                7.00951327                1.00000000               -0.01687050               -0.03166180                0.06872712               -0.00108474                0.02939892                0.44684214
              10.36198818                6.92538582                6.92545333                1.00000000                0.10073918                0.15891584               -0.66908772               -0.04657821                0.00246248               -0.50831555
               0.35054990                8.06689415                7.05915652                1.00000000               -0.03613728               -0.16456728                0.61621418               -0.05191047                0.04878072                0.73544508
               1.35018853                8.05237763                6.96886227                0.68148649                0.12065885                0.09901777               -0.38069656               -0.01118724                0.14387432               -0.27627436
               2.35296308                8.03712802                6.88033695                0.02868150                0.91717533                0.36430336               -1.37453638                0.06784395                7.16495938               -1.17895215
               3.36853203                8.02246022                6.93070016                0.00010000                1.35836395                0.04605701               -0.69133396                0.42323429               14.39915383               -0.09171402
               4.38013036                8.00868172                6.98795241                0.00010000                0.93450282               -0.18315481               -0.15007491                0.77946183               14.89042543                0.30820923
               5.38722209                7.99702142                7.04927849                0.00010000                0.44601768               -0.26933904                0.38994257                1.01526605               15.27683026                0.69938563
               6.38905071                7.98698818                7.11506085                0.00010000               -0.08035037               -0.32824890                0.94057670                1.09673317               15.71684365                1.20278866
               7.38561508                7.97799945                7.18543831                0.16057274               -0.38289922               -0.44349622                1.53392045                0.61219635                9.13985016                1.91389904
               8.38139272                7.96109605                7.11996718                0.46426122               -0.32050466               -0.32063204                1.12061449                0.07812398                1.23000152                1.27719037
               9.37920499                7.94357529                7.03236990                1.00000000               -0.09879341               -0.10598592                0.33341583               -0.00233097                0.06627003                0.45138362
              10.37941686                7.92675071                6.94360794                1.00000000                0.02118671                0.11156443               -0.44343322               -0.04728808                0.00713157               -0.49785913
               0.36326409                9.06551705                7.04472554                1.00000000                0.04147833               -0.11203570                0.38934357               -0.04850642                0.04516135                0.59947975
               1.36367888                9.05384864                6.94927377                0.63383832                0.20196052                0.19711567               -0.67315691               -0.00422926                0.21737868               -0.28997524
               2.36730330                9.04145107                6.85718445                0.00969409                1.09187832                0.49239511               -1.73413948               -0.28297123                8.19067899               -0.95133191
               3.38551644                9.02249526                6.92151845                0.00010000                1.61518514               -0.14624339               -0.94008722               -0.02883868               15.96886682               -0.14141236
               4.39960701                9.00620804                6.98693214                0.00010000                1.07718613               -0.25991379               -0.22891463                0.38572632               16.12370210                0.16294890
               5.40706017                8.99392902                7.05574769                0.00010000                0.43996708               -0.32944943                0.44677847                0.62598368               16.53950145                0.39461322
               6.40840635                8.98333725                7.13006053                0.00010000               -0.17060766               -0.39767137                1.13368070                0.67395696               17.17787936                0.69525055
               7.40364801                8.97289222                7.21173876                0.16124032               -0.50470611               -0.55952931                1.93834011                0.37967888               10.16377463                1.26980114
               8.39831223                8.95734188                7.14597644                0.46282422               -0.41842551               -0.42510736                1.45230734                0.03336277                1.53467658                0.94546994
               9.39527950                8.94211763                7.05533090                1.00000000               -0.18103332               -0.18988234                0.61221659               -0.00016297                0.14342640                0.39671662
              10.39469156                8.92761711                6.96172341                1.00000000               -0.05879428                0.05819675               -0.20711585               -0.04693116               -0.00680027               -0.43488213
               0.37291658               10.06465344                7.02778342                1.00000000                0.12533402               -0.08636128                0.14209718                0.13189980                0.33667689                0.48491393
               1.37416992               10.05631995                6.92999626                0.80020145                0.28702253                0.24713027               -0.94951124                0.16522879                0.64977937               -0.28158216
               2.37865703               10.04697592                6.83845822                0.49884977                1.45141833                0.55248539               -2.00803925               -0.70385679                9.23814772               -0.75521757
               3.40319829               10.01953536                6.91283407                0.43302168                1.88770472               -0.29599088               -1.11414825               -0.40643923               17.18785455               -0.07812816
               4.41641113               10.00348345                6.98404631                0.42996255                0.97071344               -0.27245920               -0.30103253                0.22526593               17.11028836                0.10004701
               5.42261256                9.99043243                7.05832336                0.45287402                0.35777589               -0.34965846                0.47155196                0.33280420               17.54669748                0.22695189
               6.42356664                9.97903475                7.13856596                0.49900054               -0.17042654               -0.43024964                1.25749064                0.33485087               18.36175661                0.38330702
               7.41920403                9.96680886                7.22898200                0.58065094               -0.53660335               -0.60833625                2.19143032                0.23355905               11.22490951                0.81742063
               8.41283458                9.95259390                7.16638281                0.72987599               -0.51387633               -0.47479760                1.71441655                0.10067406                2.23722165                0.66978723
               9.40892650                9.93977764                7.07717489                1.00000000               -0.26776568               -0.23399855                0.89174335                0.13073696                0.56615560                0.33885107
              10.40747926                9.92791465                6.98116605                1.00000000               -0.14472361                0.02975395                0.05139253                0.09247132                0.22264332               -0.37296920
               0.22602344                0.12288385                8.19275298                1.00000000               -0.56717105               -0.65218950                2.26822701               -0.14593157               -0.52595624                0.58524324
               1.22035173                0.08730847                8.13247198                1.00000000               -0.44643685               -0.46383889                1.64619013               -0.10525888               -0.51555056               -0.03462011
               2.21709470                0.05166851                8.07229933                0.71146157               -0.07407927               -0.30775339                1.02077391                0.07069826               -0.23377107               -0.55554237
               3.21887014                0.02001727                8.01775492                0.51931526                0.54360079               -0.17486163                0.41977437                0.36257025                1.20578293               -0.07376795
               4.22796672                0.00048211                7.98659262                0.44606851                0.92194765               -0.15799929               -0.03521849                0.34097007                3.55186240               -0.06168373
               5.23730910               -0.00611500                7.97912558                0.45310223                0.53113480               -0.09535505               -0.34677861                0.16012367                4.59016288               -0.00172187
               6.23858941               -0.01334625                7.96890633                0.53233963               -0.02970151                0.08675039               -0.66687013                0.25007075                3.29458611                0.04930843
               7.23671507               -0.03264468                7.93554740                0.69454113               -0.03410391                0.27693579               -1.09824431                0.24722502                1.22028368                0.07822853
               8.23790734               -0.06244044                7.88378660                0.97182983                0.31054226                0.45480719               -1.61359743                0.08592363               -0.04944965                0.28666650
               9.24292591               -0.09611369                7.82502206                1.00000000                0.60722253                0.60648262               -2.16023576               -0.07570730               -0.39289149                0.14482387
              10.25005179               -0.12978619                7.76639560                1.00000000                0.71258753                0.75825770               -2.70239680               -0.13609843               -0.38825564               -0.39828645
               0.26013950                1.11636195                8.17427421                1.00000000               -0.52326942               -0.61563313                2.04983572               -0.05443219               -0.01962291                0.77385310
               1.25490681                1.08267008                8.11339537                1.00000000               -0.43461087               -0.42744424                1.42621988               -0.02090440                0.04121024               -0.06282390
               2.25144728                1.04859098                8.05361988                0.27737274               -0.34088793               -0.26888040                0.80742292                0.18222601                0.87055062               -0.86696005
               3.24808905                1.01826866                8.00944334                0.00010000               -0.35023629               -0.14387607                0.29156132                0.75172464                2.54018465               -1.04589833
               4.24444256                0.99890212                7.98361454                0.00010000               -0.11322673                0.31698833               -0.08916296                1.65802018                4.59234636                0.21600480
               5.24582451                0.99293144                7.98153404                0.00010000                0.49562008                0.07608801               -0.30430833                2.00165970                5.59160676                0.15787616
               6.25435496                0.98752125                7.97648194                0.01177247                0.89549474               -0.08835195               -0.53581808                1.62985971                4.28860174                0.14500916
               7.26373441                0.97012468                7.94825740                0.24806020                0.80730595                0.30173253               -0.90114638                0.90762881                2.33654948                1.02317982
               8.27050108                0.94210763                7.90365329                0.67647356                0.60536529                0.42560245               -1.36363984                0.28877897                1.01563518                0.76383365
               9.27584171                0.90995113                7.84868020                1.00000000                0.59311107                0.55756089               -1.86733951                0.02515756                0.31205253                0.36835562
              10.28236330                0.87779639                7.78988219                1.00000000                0.65215853                0.69904567               -2.40337381               -0.05315091                0.12286260               -0.43856134
               0.29231854                2.11057118                8.15937786                1.00000000               -0.46139247               -0.54512320                1.85516360               -0.05644808                0.07910259                0.95025336
               1.28770461                2.07875959                8.09373414                0.87028159               -0.35889456               -0.36073946                1.20299791               -0.02399478                0.12366037               -0.17204247
               2.28514065                2.04629091                8.02884687                0.11591272               -0.20555567               -0.19554623                0.56363880                0.19701639                1.05188912               -1.31535657
               3.28359350                2.01713975                7.98187003                0.00010000                0.06618433                0.14562778                0.04064900                1.53410555                4.50740725               -1.27735010
               4.28646433                2.00682188                7.98620594                0.00010000                0.25648274                0.54435418               -0.06493593                2.79671459                6.81395556                0.21771105
               5.28872316                1.99540676                7.98700171                0.00010000                0.37645209                0.23980223               -0.24460207                2.93191752                6.49342359                0.45969786
               6.29399338                1.98488671                7.98584107                0.00010000                0.57790520               -0.08722205               -0.43123725                2.69585432                6.13790850                0.77645106
               7.30028126                1.97338997                7.97973615                0.10313163                0.49315418                0.18319923               -0.60408037                1.58203761                3.87000687                2.16837240
               8.30385646                1.94607161                7.93298678                0.38717367                0.37295253                0.36854647               -1.04276184                0.36457805                1.36685827                1.87039572
               9.30774031                1.91503753                7.87677420                0.95642654                0.47209012                0.45760612               -1.52894811                0.04184005                0.50252930                0.66299504
              10.31329826                1.88419472                7.81256061                1.00000000                0.55579520                0.57840080               -2.09213587               -0.04786558                0.11191871               -0.43561342
               0.32263374                3.10545949                8.14432357                1.00000000               -0.39265485               -0.47590328                1.65309089               -0.05850919                0.03612493                0.91839517
               1.31870719                3.07545529                8.07246973                0.82383885               -0.28131469               -0.29517054                0.95194771               -0.02805518                0.07819434               -0.25694425
               2.31700745                3.04468006                8.00130406                0.09205438               -0.02335005               -0.12143160                0.25600004                0.38501430                2.07111971               -1.43991851
               3.31824019                3.02118121                7.96944498                0.00010000                0.25512001                0.35763030                0.12018175                1.62656614                6.30338224               -0.38719896
               4.32210985                3.00978920                7.98305381                0.00010000                0.40789207                0.24329341               -0.05518714                2.31665667                8.42853157                0.06509018
               5.32639803                2.99772749                7.99547261                0.00010000                0.40894926                0.18137820               -0.15281375                2.41064282                8.23023218                0.72799831
               6.33028883                2.98577681                8.00628916                0.00010000                0.38961131                0.09003036               -0.24611680                2.33089169                8.01334154                1.50310315
               7.33419026                2.97378866                8.01497282                0.11250899                0.29281266                0.08470911               -0.42419384                1.50696503                5.45840773                2.58887220
               8.33614508                2.94947856                7.97479896                0.38690863                0.21825728                0.25555372               -0.56056236                0.41867012                1.59679083                2.15364133
               9.33855540                2.91910326                7.90608357                0.91893431                0.34732538                0.34450838               -1.14949881                0.02042670                0.10191797                0.65148401
              10.34309159                2.88936440                7.83583829                1.00000000                0.45361886                0.45477579               -1.76271009               -0.04662576                0.03744165               -0.45698029
               0.35115675                4.10105312                8.12879882                1.00000000               -0.32338044               -0.40591069                1.44275881               -0.05635614                0.02823235                0.88366550
               1.34792294                4.07285617                8.05112326                0.80028600               -0.20208673               -0.22341021                0.69439321               -0.02605777                0.06623448               -0.25838704
               2.34711501                4.04386227                7.97404993                0.08192331                0.15463678               -0.04119986               -0.05392809                0.49360473                3.17844666               -1.39597715
               3.35101568                4.02429236                7.95877136                0.00010000                0.45680884                0.25815546                0.07872302                1.57359108                8.21059816               -0.20925155
               4.35625119                4.01168774                7.98243533                0.00010000                0.49663610                0.15166196               -0.02580297                2.05844507               10.07325479                0.28683081
               5.36094840                3.99903432                8.00623107                0.00010000                0.41494232                0.08912744               -0.04231892                2.11264880               10.00774381                0.92940534
               6.36455004                3.98668732                8.03005340                0.00010000                0.28852026                0.05387911               -0.03445720                2.12292451               10.02931108                1.74297579
               7.36671881                3.97508415                8.05513967                0.12589284                0.11826155                0.08027965               -0.04513014                1.38222125                6.51772928                2.78496315
               8.36691527                3.95118269                8.00907745                0.40851110                0.07720990                0.10183056               -0.15411089                0.34934008                1.48322456                1.65597638
               9.36826300                3.92192769                7.93338990                0.95212866                0.24640924                0.22706901               -0.79644762                0.01315374                0.00430619                0.51498047
              10.37184345                3.89329024                7.85756899                1.00000000                0.35804484                0.35067100               -1.44120054               -0.04943149                0.00640471               -0.55161999
               0.37790051                5.09734127                8.11313177                1.00000000               -0.25236253               -0.33899848                1.23045721               -0.05388972                0.03251239                0.86678545
               1.37537688                5.07098709                8.02982517                0.77275614               -0.12285747               -0.14919645                0.43562957               -0.02102298                0.07932901               -0.25772065
               2.37544336                5.04385606                7.94729695                0.06999482                0.32548302                0.04246486               -0.35731737                0.50814446                4.33140347               -1.36224924
               3.38188654                5.02634432                7.94918353                0.00010000                0.65467139                0.18732630               -0.05678735                1.45897044               10.15368962               -0.04233983
               4.38853679                5.01282244                7.98336031                0.00010000                0.58824468                0.07896563               -0.02503771                1.80154461               11.72722848                0.42227290
               5.39365144                4.99951004                8.01845458                0.00010000                0.40803514                0.00783891                0.07251585                1.88231991               11.76582638                1.04132668
               6.39669749                4.98685439                8.05499782                0.00010000                0.18439383               -0.03090125                0.20591035                1.91843535               11.90001799                1.80739859
               7.39733931                4.97539426                8.09386090                0.13679665               -0.02045715               -0.03951169                0.35851150                1.20885432                7.36298413                2.66818883
               8.39628835                4.95151518                8.04028178                0.42583117               -0.03141938               -0.02157225                0.18598049                0.27054052                1.37326091                1.48761900
               9.39671092                4.92364464                7.95934120                0.97983669                0.15447621                0.12740847               -0.48499915                0.01062510                0.00631472                0.44564038
              10.39937787                4.89637782                7.87829366                1.00000000                0.26669448                0.27630169               -1.15871384               -0.04717860                0.00855525               -0.59986079
               0.40278733                6.09427315                8.09734634                1.00000000               -0.17996267               -0.27610162                1.01627737               -0.05224349                0.03600221                0.85084192
               1.40098770                6.06987225                8.00845530                0.74251319               -0.04333291               -0.07168538                0.17287961               -0.01700409                0.09356870               -0.26653628
               2.40192067                6.04471157                7.92056498                0.05666088                0.51205034                0.13459605               -0.66574010                0.45608210                5.57838099               -1.35570820
               3.41122871                6.02803888                7.94152537                0.00010000                0.85978482                0.15441603               -0.24597056                1.26184679               12.11390972                0.04798613
               4.41911637                6.01326706                7.98497852                0.00010000                0.66670691                0.01542477               -0.05427492                1.52319184               13.28673787                0.46650348
               5.42456285                5.99919110                8.03101584                0.00010000                0.39590804               -0.07212472                0.17976757                1.64159734               13.46294393                1.04917474
               6.42703453                5.98606929                8.07959462                0.00010000                0.08361322               -0.12884878                0.44772128                1.70014043               13.67142556                1.75775627
               7.42623511                5.97429392                8.13102581                0.14559827               -0.14794149               -0.17758342                0.74596364                1.03256420                8.18887513                2.54549225
               8.42407570                5.95075124                8.07080726                0.43990095               -0.13111261               -0.12516064                0.49754866                0.19812499                1.31265660                1.44894977
               9.42361286                5.92447586                7.98478730                1.00000000                0.06789052                0.04484864               -0.20210380                0.00522247                0.01384322                0.43201937
              10.42543351                5.89881627                7.89849953                1.00000000                0.18206493                0.21724318               -0.90830321               -0.04656255                0.00442615               -0.60548200
               0.42565745                7.09181924                8.08137576                1.00000000               -0.10590671               -0.21533250                0.79805412               -0.05100673                0.03900239                0.82937639
               1.42459838                7.06955338                7.98691377                0.70969188                0.03704579                0.01077908               -0.09745671               -0.01323274                0.11168974               -0.28596113
               2.42639836                7.04654798                7.89377323                0.04218448                0.69848068                0.24003485               -0.98718043                0.33046363                6.81499348               -1.35927922
               3.43856799                7.02943264                7.93355477                0.00010000                1.07250232                0.12011284               -0.47342196                0.94091840               14.05023210               -0.05603004
               4.44784841                7.01313093                7.98628492                0.00010000                0.75565778               -0.05188357               -0.10886002                1.19435219               14.81074439                0.41046052
               5.45368115                6.99806754                8.04286024                0.00010000                0.38745337               -0.15548824                0.27358724                1.37236820               15.10546256                0.95262420
               6.45559748                6.98427742                8.10304190                0.00010000               -0.01862514               -0.22552308                0.68450848                1.44882204               15.40154693                1.61253000
               7.45330865                6.97184259                8.16682870                0.15238476               -0.27642873               -0.31109030                1.13293756                0.84607656                9.05456248                2.39795291
               8.45006890                6.94901196                8.10109148                0.45089408               -0.22791520               -0.22310826                0.80473596                0.13589450                1.31198042                1.42674618
               9.44875034                6.92454161                8.01019037                1.00000000               -0.01515521               -0.03036275                0.06390679                0.00096208                0.02899385                0.44147094
              10.44976580                6.90072269                7.91873552                1.00000000                0.10154553                0.16562982               -0.67513208               -0.04690297                0.00289452               -0.58270760
               0.44629892                8.08996650                8.06509759                1.00000000               -0.03046079               -0.15710873                0.57499144               -0.04864291                0.04609743                0.79956777
               1.44599431                8.07008783                7.96508085                0.67248061                0.11758816                0.09965460               -0.37498929               -0.00807238                0.14079553               -0.32873753
               2.44865068                8.04951227                7.86685594                0.02628091                0.87349056                0.35858049               -1.32291283                0.11585110                7.96751914               -1.35036996
               3.46346412                8.03044114                7.92359610                0.00010000                1.28589136                0.05891223               -0.71529848                0.48036851               15.92123575               -0.21909519
               4.47436851                8.01222938                7.98624564                0.00010000                0.86998031               -0.15193154               -0.18008829                0.82197849               16.33252779                0.28418177
               5.48086373                7.99608133                8.05290223                0.00010000                0.39337082               -0.23794157                0.35128332                1.05941499               16.69012679                0.74387522
               6.48223592                7.98155883                8.12427056                0.00010000               -0.12208155               -0.30796902                0.91277073                1.14363525               17.12011370                1.30969742
               7.47842210                7.96807211                8.20084753                0.15704463               -0.40706799               -0.44228870                1.53671677                0.63954531               10.01488549                2.12517604
               8.47409456                7.94628908                8.13120081                0.45776185               -0.32503607               -0.32460881                1.12082772                0.08282991                1.40010959                1.36963502
               9.47192137                7.92386861                8.03572010                1.00000000               -0.09806359               -0.10736254                0.33321766                0.00001118                0.05823160                0.45938009
              10.47213329                7.90212887                7.93919648                1.00000000                0.02119179                0.11386242               -0.44276588               -0.04677504                0.00681378               -0.56414526
               0.46444193                9.08867707                8.04840435                1.00000000                0.04492301               -0.10248637                0.34980008               -0.04549070                0.04028868                0.65288295
               1.46489116                9.07154647                7.94263779                0.62951394                0.19600687                0.19314888               -0.65524241               -0.00217110                0.21283178               -0.33689628
               2.46836207                9.05371959                7.84025898                0.00910093                1.02835412                0.47494598               -1.65654293               -0.21881240                9.07991542               -1.08329205
               3.48545825                9.03061089                7.91211645                0.00010000                1.51428572               -0.11872683               -0.93039409                0.03252892               17.69332389               -0.22064335
               4.49864779                9.01009230                7.98444261                0.00010000                1.00408790               -0.22682212               -0.25322906                0.41728780               17.76718297                0.14417461
               5.50554000                8.99330871                8.05992673                0.00010000                0.39158076               -0.29895637                0.40866755                0.64694904               18.13657997                0.41930893
               6.50647940                8.97811804                8.14122250                0.00010000               -0.20853496               -0.37704083                1.10927565                0.69451284               18.79203656                0.76172581
               7.50136930                8.96299681                8.23113382                0.16019189               -0.52751981               -0.55431553                1.93274045                0.39046319               11.13581950                1.42027207
               8.49592900                8.94251979                8.16042461                0.46029003               -0.42292668               -0.42386031                1.43769490                0.03419109                1.68160155                1.01417834
               9.49291077                8.92239436                8.06146676                1.00000000               -0.18096162               -0.19124208                0.61269878                0.00121761                0.13118458                0.41467205
              10.49230977                8.90299994                7.95971499                1.00000000               -0.06009992                0.05699492               -0.19881155               -0.04655956               -0.00897604               -0.48258249
               0.47965029               10.08791677                8.02902546                1.00000000                0.12580718               -0.07602953                0.10891035                0.12423932                0.36197360                0.52821789
               1.48090837               10.07395080                7.92066545                0.80051344                0.27798618                0.24043325               -0.92005183                0.15644102                0.69256878               -0.31930192
               2.48521002               10.05901119                7.81890557                0.49927478                1.34168093                0.52915987               -1.91270141               -0.60941534               10.23932343               -0.84222153
               3.50774198               10.02806660                7.90181961                0.43341722                1.74032099               -0.25442830               -1.08378203               -0.33753837               19.07459812               -0.11667917
               4.52001644               10.00769294                7.98088877                0.43031690                0.90174949               -0.23993607               -0.31480427                0.23864536               18.91315851                0.09230867
               5.52577697                9.99010221                8.06277194                0.45320120                0.32108210               -0.32065068                0.43984458                0.33995054               19.30297343                0.24374343
               6.52643808                9.97401801                8.15098791                0.49936290               -0.19736824               -0.41000241                1.23973383                0.34004781               20.15048486                0.43088658
               7.52182961                9.95698580                8.25093703                0.58120691               -0.55286200               -0.60110107                2.19301181                0.23572338               12.30974920                0.90690230
               8.51538084                9.93781187                8.18343573                0.73064237               -0.51820163               -0.47079164                1.69923040                0.09808179                2.43332870                0.70712710
               9.51146558                9.92004377                8.08611486                1.00000000               -0.26949462               -0.23505924                0.89460146                0.12832553                0.59085889                0.35937610
              10.50999095                9.90326877                7.98177331                1.00000000               -0.14746295                0.02688328                0.06556964                0.09061777                0.23803204               -0.40707640
               0.28391018                0.14853912                9.21526324                1.00000000               -0.56255133               -0.64325370                2.23614627               -0.14043426               -0.57377915                0.63216878
               1.27828467                0.10714024                9.14892032                1.00000000               -0.44653875               -0.46254819                1.64282253               -0.09950305               -0.56630426               -0.03413025
               2.27497940                0.06566910                9.08264049                0.71120729               -0.08303306               -0.31332692                1.04433905                0.07707242               -0.27645311               -0.59299180
               3.27662401                0.02821098                9.02218667                0.51917995                0.52841387               -0.18221617                0.46255489                0.36906390                1.23451803               -0.07854991
               4.28554768                0.00308180                8.98641623                0.44614994                0.90383352               -0.15565410               -0.00188823                0.34264003                3.69428261               -0.06739906
               5.29470068               -0.00877279                8.97565878                0.45321814                0.51764015               -0.08541527               -0.34443577                0.16049766                4.77893709               -0.00504929
               6.29590049               -0.02108360                8.96212806                0.53215746               -0.03410027                0.09494876               -0.68416075                0.25235501                3.42145549                0.04944686
               7.29401867               -0.04553711                8.92446421                0.69396129               -0.03442624                0.28328032               -1.11540160                0.25115774                1.25430094                0.08183775
               8.29521196               -0.08062832                8.86761226                0.97102854                0.31087572                0.45861638               -1.62255688                0.08805674               -0.07039735                0.29926845
               9.30023618               -0.11969720                8.80343209                1.00000000                0.60723288                0.61002013               -2.16285994               -0.07584856               -0.42645950                0.16000784
              10.30735662               -0.15880651                8.73942706                1.00000000                0.71204333                0.76154485               -2.69913313               -0.13451543               -0.41663250               -0.41498125
               0.32390472                1.14210659                9.19460144                1.00000000               -0.51800758               -0.60844440                2.01804685               -0.05247769               -0.02510359                0.83195221
               1.31872465                1.10251476                9.12764501                1.00000000               -0.43449841               -0.42644595                1.42321881               -0.01815495                0.03716617               -0.06335121
               2.31521476                1.06253583                9.06183537                0.27540316               -0.35581763               -0.27379166                0.83237809                0.18888685                0.91809830               -0.91734062
               3.31160830                1.02638882                9.01258529                0.00010000               -0.38743946               -0.15798295                0.33339572                0.78151725                2.70088984               -1.10676537
               4.30746597                1.00152525                8.98287782                0.00010000               -0.16099741                0.32077443               -0.05972185                1.68850451                4.89579244                0.25423230
               5.30838835                0.99037306                8.97844974                0.00010000                0.46701142                0.08119015               -0.30999651                2.03697636                5.95651276                0.17246023
               6.31680620                0.97986589                8.97095826                0.01084845                0.89571309               -0.08771799               -0.56349030                1.65753957                4.56126175                0.13878280
               7.32630261                0.95729570                8.93908237                0.24565038                0.81831882                0.31223988               -0.92934327                0.91970568                2.47985547                1.07862392
               8.33317257                0.92395784                8.88992729                0.67152308                0.61320934                0.43168134               -1.38099784                0.29059699                1.08095403                0.81212843
               9.33856680                0.88640301                8.82994166                1.00000000                0.59741049                0.56528200               -1.88184344                0.02495675                0.33716963                0.40553851
              10.34512078                0.84880893                8.76580666                1.00000000                0.65539854                0.70748878               -2.41546503               -0.05171188                0.13346619               -0.44790085
               0.36204429                2.13637024                9.17776790                1.00000000               -0.45519654               -0.54191116                1.82470921               -0.05371685                0.08673105                1.01694631
               1.35749233                2.09861132                9.10575548                0.85882200               -0.35806071               -0.36017698                1.20060596               -0.02050589                0.13702517               -0.18713781
               2.35488308                2.06019327                9.03463380                0.11260642               -0.21136997               -0.19746175                0.59056841                0.19782792                1.12868202               -1.41116034
               3.35326493                2.02505132                8.98253552                0.00010000                0.02252283                0.15303143                0.08698813                1.57610584                4.83356879               -1.23576658
               4.35533353                2.00949728                8.98567647                0.00010000                0.19173200                0.55063582               -0.04416447                2.86038223                7.30211552                0.27770036
               5.35709957                1.99285102                8.98454145                0.00010000                0.33975544                0.24184051               -0.24562326                2.99046541                6.93519825                0.50224002
               6.36212864                1.97716205                8.98138199                0.00010000                0.56106332               -0.08745405               -0.45335428                2.75319871                6.56500532                0.80717196
               7.36832083                1.96070769                8.97350353                0.09973729                0.48939745                0.18508525               -0.63571360                1.61187253                4.14595213                2.20728563
               8.37191659                1.92800531                8.92241506                0.37986843                0.37816990                0.38965232               -1.06836610                0.36879148                1.48472712                2.02840082
               9.37588423                1.89160844                8.86127471                0.93975466                0.47969659                0.47626392               -1.56537542                0.04525046                0.55501070                0.74216876
              10.38151052                1.85534326                8.79144006                1.00000000                0.56262926                0.59696846               -2.12789629               -0.04465907                0.12661811               -0.43016601
               0.39834822                3.13126836                9.16069880                1.00000000               -0.38567223               -0.47637353                1.62337948               -0.05623897                0.03659279                0.97875458
               1.39449150                3.09531122                9.08198480                0.81093395               -0.28084571               -0.29426609                0.94999722               -0.02513823                0.08057098               -0.28786236
               2.39273131                3.05858660                9.00402162                0.08820415               -0.03325534               -0.11886016                0.28366642                0.40242685                2.34415341               -1.56808226
               3.39382639                3.02944945                8.97068726                0.00010000                0.20713048                0.39138131                0.12202710                1.66126058                6.81772744               -0.26525182
               4.39687392                3.01253797                8.98260130                0.00010000                0.33532505                0.25569650               -0.04043824                2.36699952                8.97042802                0.12444575
               5.40053290                2.99520987                8.99391672                0.00010000                0.35697885                0.19022328               -0.15663028                2.46580086                8.79580187                0.79216254
               6.40401350                2.97811681                9.00364337                0.00010000                0.35819511                0.10003753               -0.27405298                2.37728160                8.52343079                1.58461622
               7.40769680                2.96099740                9.01045738                0.10810980                0.28170760                0.08813073               -0.46178814                1.55066958                5.92880417                2.66832597
               8.40964765                2.93175089                8.96890425                0.37836347                0.22185270                0.28817448               -0.61155144                0.44333660                1.85116114                2.35272111
               9.41213385                2.89592828                8.89429812                0.90098704                0.35551588                0.37260174               -1.20042853                0.01973552                0.11618111                0.74199460
              10.41675797                2.86074830                8.81792134                1.00000000                0.46241138                0.48265021               -1.81439136               -0.04605155                0.03532670               -0.44205604
               0.43283381                4.12684277                9.14306768                1.00000000               -0.31624783               -0.40768280                1.41233032               -0.05477191                0.02537243                0.94150077
               1.42967133                4.09272600                9.05806091                0.78788046               -0.20202142               -0.22139472                0.69239227               -0.02423758                0.06232497               -0.29210665
               2.42879338                4.05781606                8.97366218                0.07821959                0.14337158               -0.03533286               -0.02635689                0.52249374                3.59795981               -1.52278847
               3.43253876                4.03287895                8.95949536                0.00010000                0.40598611                0.28214375                0.06116278                1.60842925                8.92867504               -0.19762194
               4.43691310                4.01461121                8.98222028                0.00010000                0.41489907                0.17229286               -0.02213646                2.09472467               10.72828959                0.33683240
               5.44083674                3.99665548                9.00575497                0.00010000                0.34868209                0.10710644               -0.05083656                2.16358656               10.70020644                1.00271054
               6.44388674                3.97916280                9.02950329                0.00010000                0.24317006                0.07178305               -0.06616546                2.17102192               10.70161056                1.85005298
               7.44570014                3.96247030                9.05429456                0.12115831                0.09828481                0.10444623               -0.10549577                1.43412087                7.11861786                2.97391031
               8.44585244                3.93376880                9.00729313                0.39994485                0.07906919                0.12729726               -0.19943115                0.38008938                1.76289449                1.79138800
               9.44728153                3.89906048                8.92517585                0.93495929                0.25485061                0.25472345               -0.84417987                0.01210971                0.00611643                0.57563838
              10.45094945                3.86499627                8.84288989                1.00000000                0.36679241                0.38133934               -1.49306367               -0.04975201                0.00573489               -0.55587924
               0.46548632                5.12311471                9.12526698                1.00000000               -0.24528713               -0.33930129                1.19813781               -0.05273718                0.02953567                0.92559603
               1.46303345                5.09088332                9.03416542                0.76150656               -0.12290465               -0.14602386                0.43234530               -0.01984293                0.07581033               -0.29290675
               2.46302823                5.05787994                8.94386005                0.06683490                0.30831877                0.04961975               -0.33160583                0.53916506                4.85507486               -1.48886567
               3.46919983                5.03509232                8.94847684                0.00010000                0.59818248                0.20018277               -0.08329479                1.48752005               11.06219657               -0.10404318
               4.47499188                5.01598383                8.98308987                0.00010000                0.50266087                0.10355634               -0.03126847                1.82850123               12.54307276                0.44097266
               5.47925305                4.99735200                9.01909949                0.00010000                0.33136155                0.03250602                0.05960180                1.92584941               12.61148958                1.11156998
               6.48161911                4.97955247                9.05686020                0.00010000                0.12600841               -0.00694311                0.17476482                1.96700725               12.74793835                1.92945169
               7.48177321                4.96308633                9.09710299                0.13216720               -0.04799250               -0.01234376                0.30129135                1.25712470                8.04589320                2.86677797
               8.48065926                4.93429684                9.04199721                0.41785080               -0.03123181               -0.00725924                0.15684182                0.29682260                1.63818715                1.57649277
               9.48114858                4.90102275                8.95431073                0.96418172                0.16160452                0.14696300               -0.52132164                0.01196556                0.00885800                0.47331762
              10.48389135                4.86837509                8.86648884                1.00000000                0.27427743                0.30123169               -1.20187187               -0.04676609                0.00941384               -0.63414968
               0.49624184                6.12005674                9.10732616                1.00000000               -0.17325966               -0.27350193                0.98171993               -0.05077368                0.03399824                0.90930410
               1.49450924                6.08980552                9.01016543                0.73203350               -0.04370800               -0.06799021                0.16947327               -0.01544583                0.09233566               -0.30587833
               2.49536768                6.05880846                8.91404930                0.05404953                0.48380152                0.14042559               -0.63871023                0.48683728                6.18424419               -1.49072367
               3.50418527                6.03688261                8.93886588                0.00010000                0.79278866                0.16452343               -0.27717645                1.28862357               13.20312620               -0.05507945
               4.51122345                6.01668234                8.98435682                0.00010000                0.57999076                0.04147005               -0.06780523                1.54597492               14.28821961                0.45799248
               5.51578509                5.99730560                9.03271164                0.00010000                0.31345558               -0.04350504                0.16430169                1.67510553               14.47881522                1.10873788
               6.51749256                5.97902393                9.08391619                0.00010000                0.01565936               -0.10377946                0.42300453                1.74054557               14.69400922                1.87867321
               7.51609827                5.96222343                9.13827926                0.14127918               -0.18200491               -0.15934240                0.70840966                1.06900470                8.93621957                2.73802774
               8.51385246                5.93362361                9.07571794                0.43241330               -0.13278446               -0.12004699                0.48302502                0.21602824                1.55295775                1.52070795
               9.51344258                5.90199974                8.98267041                0.98797602                0.07284953                0.05556092               -0.22438462                0.00826686                0.01867476                0.43822711
              10.51530945                5.87102090                8.88932469                1.00000000                0.18668701                0.23298127               -0.93397347               -0.04466254                0.00943857               -0.66115360
               0.52497329                7.11764467                9.08916418                1.00000000               -0.10004736               -0.20999149                0.76221068               -0.04894108                0.03719454                0.88533238
               1.52397282                7.08952352                8.98593524                0.69980726                0.03572994                0.01366741               -0.09798339               -0.01096882                0.11122597               -0.33095113
               2.52568789                7.06068845                8.88407998                0.04014812                0.65627991                0.24132039               -0.95339098                0.36449051                7.49315889               -1.50651328
               3.53709842                7.03838279                8.92864701                0.00010000                0.99002457                0.13170173               -0.49618575                0.97532807               15.32026587               -0.17673679
               4.54548838                7.01681323                8.98508654                0.00010000                0.66575738               -0.02373365               -0.12398502                1.21752192               16.01225717                0.38394837
               5.55041356                6.99648190                9.04548293                0.00010000                0.30119068               -0.12365828                0.25804660                1.39391361               16.30388358                0.99864438
               6.55151220                6.97747688                9.10977799                0.00010000               -0.09299676               -0.20112022                0.66767574                1.47163467               16.60580897                1.72686450
               7.54855363                6.95989948                9.17807252                0.14864982               -0.31543393               -0.30127923                1.11442319                0.86516402                9.86565655                2.59722903
               8.54520352                6.93189590                9.10911824                0.44394770               -0.23185006               -0.22339928                0.79842255                0.14521926                1.52045040                1.50024642
               9.54391663                6.90213397                9.01079141                1.00000000               -0.01238686               -0.02566178                0.05352426                0.00350930                0.02940162                0.44036250
              10.54495578                6.87303472                8.91195069                1.00000000                0.10391523                0.17337204               -0.68739534               -0.04538013                0.00714231               -0.64977482
               0.55150532                8.11585691                9.07065635                1.00000000               -0.02592365               -0.14989171                0.53966736               -0.04631869                0.04356550                0.85292490
               1.55124608                8.09007887                8.96136249                0.66418755                0.11464454                0.10013017               -0.36912809               -0.00569894                0.13825648               -0.37711720
               2.55379821                8.06363487                8.85387870                0.02516007                0.81604844                0.35235762               -1.27607450                0.15864183                8.71921962               -1.50111485
               3.56756705                8.03951664                8.91639419                0.00010000                1.18382858                0.07380477               -0.71540415                0.53368427               17.37739205               -0.32638035
               4.57747478                8.01620767                8.98435064                0.00010000                0.77163257               -0.11824153               -0.18932505                0.84838969               17.73679401                0.25386258
               5.58299970                7.99483244                9.05630416                0.00010000                0.30164468               -0.20182044                0.33819291                1.06960855               18.07818616                0.77553824
               6.58350768                7.97500153                9.13331626                0.00010000               -0.20085818               -0.28112374                0.90097351                1.14466048               18.52222062                1.40531529
               7.57898254                7.95619785                9.21617265                0.15446533               -0.44926606               -0.43456559                1.52570582                0.63813820               10.89808560                2.32621626
               8.57452236                7.92915563                9.14238373                0.45226228               -0.33042948               -0.32526867                1.11466050                0.08482287                1.57256454                1.44657970
               9.57237395                7.90148650                9.03903425                1.00000000               -0.09609962               -0.10588328                0.32693425                0.00144509                0.05064565                0.46510783
              10.57260036                7.87448834                8.93475263                1.00000000                0.02264118                0.11769571               -0.44792510               -0.04682605                0.00622025               -0.62509001
               0.57560300                9.11464684                9.05172154                1.00000000                0.04778805               -0.09406656                0.31654219               -0.04353372                0.03644661                0.69772118
               1.57608088                9.09152612                8.93616892                0.62523754                0.19099758                0.18998563               -0.64048174               -0.00080632                0.21105204               -0.37807193
               2.57942295                9.06773560                8.82405360                0.00953283                0.95592078                0.46017290               -1.59129804               -0.15880506                9.91998376               -1.19315908
               3.59519930                9.03985889                8.90291056                0.00010000                1.38587120               -0.08605979               -0.90583616                0.09263956               19.33557275               -0.28129700
               4.60714038                9.01444840                8.98186756                0.00010000                0.89062874               -0.18851881               -0.25182754                0.44168940               19.35802098                0.12515671
               5.61301187                8.99244549                9.06392104                0.00010000                0.29498088               -0.26077697                0.40050147                0.64895949               19.70744316                0.43626819
               6.61304000                8.97185441                9.15224604                0.00010000               -0.29247897               -0.34399377                1.10070729                0.68331218               20.40116697                0.81620522
               7.60716229                8.95120817                9.25039357                0.15955374               -0.57143402               -0.54286853                1.91828203                0.37523815               12.10676469                1.55276412
               8.60161132                8.92539052                9.17473034                0.45813817               -0.42747394               -0.42207166                1.42474145                0.03045566                1.82957132                1.06536786
               9.59861282                8.90001631                9.06758487                1.00000000               -0.17978657               -0.19087675                0.60925827                0.00151283                0.12296856                0.42841273
              10.59801558                8.87538863                8.95774718                1.00000000               -0.05972312                0.05840669               -0.19902381               -0.04663595               -0.01029703               -0.52542344
               0.59687608               10.11397558                9.02996162                1.00000000                0.12651152               -0.06712564                0.08055772                0.11760746                0.38383970                0.56471226
               1.59814119               10.09387858                8.91159522                0.80016735                0.27066333                0.23524596               -0.89751229                0.14916805                0.73347783               -0.35148000
               2.60228934               10.07283832                8.80020419                0.50003484                1.22829282                0.51027216               -1.83704990               -0.51751798               11.18577743               -0.91106085
               3.62270705               10.03779544                8.89115843                0.43408810                1.57163135               -0.20634444               -1.04620991               -0.26927670               20.87468035               -0.14420192
               4.63372197               10.01243729                8.97775022                0.43066753                0.79329185               -0.20111069               -0.30377930                0.24923180               20.65936096                0.08566853
               5.63857288                9.98961690                9.06712025                0.45341023                0.23446375               -0.28285927                0.44004848                0.34031919               21.03415940                0.25788806
               6.63841125                9.96812165                9.16336064                0.49961971               -0.28108476               -0.37327551                1.23964162                0.32330373               21.93591941                0.47005070
               7.63295119                9.94534047                9.27284224                0.58163972               -0.60439580               -0.58676912                2.18576243                0.20851655               13.38505007                0.98128887
               8.62632333                9.92071419                9.20036742                0.73103302               -0.52725441               -0.46763295                1.68949163                0.08762600                2.62164711                0.73235747
               9.62240610                9.89766897                9.09506692                1.00000000               -0.27001663               -0.23473375                0.89421746                0.12644261                0.61601512                0.37568176
              10.62092300                9.87565647                8.98247744                1.00000000               -0.14831052                0.02678445                0.07082862                0.08949178                0.25152339               -0.43739091
               0.34723371                0.17685084               10.23747591                1.00000000               -0.55853111               -0.63544972                2.20845816               -0.13578042               -0.62197210                0.67957243
               1.34164840                0.12917647               10.16532843                1.00000000               -0.44672111               -0.46085753                1.63824401               -0.09481664               -0.61797647               -0.03334774
               2.33829929                0.08141891               10.09318611                0.71095587               -0.09318200               -0.31680642                1.06198218                0.08059691               -0.32382001               -0.62974083
               3.33978476                0.03764904               10.02700602                0.51942581                0.50404853               -0.18645404                0.49745116                0.36756450                1.24385663               -0.08342308
               4.34838026                0.00621094                9.98655486                0.44637754                0.86956214               -0.14844177                0.02763947                0.33902189                3.79832868               -0.07211283
               5.35717600               -0.01179791                9.97223687                0.45328642                0.49164167               -0.07041137               -0.33912550                0.15839928                4.92832362               -0.00716470
               6.35821309               -0.03001772                9.95522311                0.53190819               -0.04295557                0.10606972               -0.69524830                0.25112900                3.52727502                0.05020702
               7.35631689               -0.06024426                9.91323937                0.69325091               -0.03407943                0.29020949               -1.12950324                0.25118904                1.28297208                0.08566083
               8.35753151               -0.10108514                9.85133546                0.96951781                0.31325119                0.46325364               -1.63496223                0.08851701               -0.09240966                0.31357200
               9.36258192               -0.14593267                9.78176486                1.00000000                0.60988439                0.61519498               -2.17427039               -0.07561131               -0.46114028                0.17329052
              10.36972919               -0.19084501                9.71241293                1.00000000                0.71472771                0.76703757               -2.70831705               -0.13389179               -0.44645361               -0.43854273
               0.39355028                1.17049634               10.21463515                1.00000000               -0.51340780               -0.60190454                1.99091594               -0.05063002               -0.03033931                0.89068805
               1.38841620                1.12456790               10.14185975                1.00000000               -0.43406493               -0.42497143                1.41936692               -0.01573415                0.03313888               -0.06377129
               2.38486898                1.07825085               10.07026744                0.27400578               -0.36759030               -0.27687339                0.85116124                0.19257766                0.96095315               -0.96684174
               3.38106439                1.03578450               10.01611125                0.00010000               -0.41875112               -0.16632959                0.36826601                0.79565640                2.83859792               -1.16667340
               4.37649395                1.00472653                9.98242011                0.00010000               -0.20950326                0.32207313               -0.03334743                1.69169635                5.15332219                0.28870740
               5.37687433                0.98749797                9.97533411                0.00010000                0.42268017                0.08912451               -0.31154649                2.04310235                6.27623025                0.19253101
               6.38494756                0.97104298                9.96521213                0.01014655                0.87440829               -0.08186213               -0.58303412                1.66390866                4.81113396                0.14115219
               7.39436249                0.94265783                9.92967053                0.24378586                0.81566601                0.32024673               -0.95139891                0.91773806                2.62023126                1.13910223
               8.40126088                0.90354740                9.87603333                0.66698672                0.61716234                0.43739025               -1.39836000                0.29048821                1.14804862                0.86303321
               9.40670574                0.86021928                9.81104333                1.00000000                0.60208696                0.57285490               -1.89867926                0.02557848                0.36145627                0.43612379
              10.41330262                0.81682537                9.74157289                1.00000000                0.65968783                0.71608628               -2.43269920               -0.05085548                0.14209617               -0.46904774
               0.43807800                2.16481275               10.19587204                1.00000000               -0.44987923               -0.53807727                1.79800706               -0.05140460                0.09493253                1.08366204
               1.43357921                2.12067704               10.11774626                0.84784474               -0.35718795               -0.35876421                1.19719202               -0.01758567                0.15178405               -0.20278392
               2.43093424                2.07588145               10.04065824                0.11032539               -0.21784985               -0.19804059                0.61176002                0.19822375                1.20249199               -1.50696217
               3.42922221                2.03432244                9.98360980                0.00010000               -0.02167666                0.15659213                0.12393511                1.58608140                5.13277360               -1.21731838
               4.43050071                2.01265241                9.98532265                0.00010000                0.12496909                0.55038884               -0.02788597                2.87285637                7.74520190                0.33227853
               5.43172160                1.98998458                9.98208924                0.00010000                0.29153477                0.24296263               -0.24367525                3.00451523                7.33805887                0.55048371
               6.43633141                1.96834504                9.97677398                0.00010000                0.52228188               -0.08475710               -0.46477321                2.77226594                6.96501751                0.84666974
               7.44216723                1.94616067                9.96702188                0.09734691                0.47242067                0.18531564               -0.65793975                1.62302997                4.41743477                2.26033803
               8.44577982                1.90766267                9.91161946                0.37407942                0.38241424                0.40537572               -1.08862868                0.37152233                1.59909645                2.18170415
               9.44981552                1.86552443                9.84546669                0.92442642                0.48600480                0.49113611               -1.59309061                0.04851197                0.60260854                0.81162872
              10.45549992                1.82347672                9.77000268                1.00000000                0.56843973                0.61240456               -2.15713138               -0.04231807                0.14256746               -0.43857492
               0.48079359                3.15973480               10.17679116                1.00000000               -0.37978077               -0.47488961                1.59668935               -0.05423152                0.03763771                1.03714258
               1.47699579                3.11739261               10.09146967                0.79864524               -0.28027718               -0.29218136                0.94634603               -0.02245113                0.08455697               -0.32018213
               2.47518805                3.07429004               10.00697739                0.08545464               -0.04903631               -0.11566875                0.30441934                0.41146213                2.59183856               -1.69730259
               3.47601506                3.03891634                9.97188552                0.00010000                0.15504494                0.41139480                0.12013358                1.66265633                7.30337721               -0.17339819
               4.47828895                3.01573430                9.98224504                0.00010000                0.26284678                0.26417082               -0.03205352                2.37487732                9.48615748                0.17634185
               5.48127200                2.99235723                9.99234000                0.00010000                0.29639149                0.19605883               -0.15729707                2.47807311                9.32279598                0.85591629
               6.48421678                2.96934784               10.00080810                0.00010000                0.31167334                0.10632505               -0.28793992                2.38590834                9.00764448                1.66819687
               7.48750546                2.94636415               10.00573705                0.10474589                0.25553932                0.08780391               -0.47462739                1.57205815                6.38196440                2.74858167
               8.48932757                2.91165492                9.96256793                0.37117674                0.21782335                0.31274100               -0.64898415                0.45949536                2.09445431                2.54813631
               9.49186193                2.87004201                9.88207500                0.88394421                0.36120593                0.39517097               -1.23873657                0.01958004                0.13114774                0.82921819
              10.49655169                2.82907346                9.79955046                1.00000000                0.46897548                0.50642208               -1.85538523               -0.04534647                0.03541463               -0.43464354
               0.52167774                4.15531496               10.15704543                1.00000000               -0.31027944               -0.40700387                1.38478050               -0.05311751                0.02360357                0.99483042
               1.51857495                4.11483342               10.06497111                0.77544568               -0.20189904               -0.21840911                0.68912655               -0.02213314                0.06042249               -0.32842435
               2.51763976                4.07356807                9.97352279                0.07537851                0.12280648               -0.02992111               -0.00416140                0.53811562                3.98263605               -1.65130324
               3.52103108                4.04255034                9.95999461                0.00010000                0.34588049                0.29882979                0.04276804                1.61266742                9.61263873               -0.19658128
               4.52455737                4.01793582                9.98199260                0.00010000                0.33192223                0.18855226               -0.02336072                2.09210240               11.36472637                0.37689668
               5.52766952                3.99390575               10.00521434                0.00010000                0.27426405                0.12137688               -0.05537328                2.16873066               11.35846958                1.07254396
               6.53004265                3.97047154               10.02873009                0.00010000                0.18158993                0.08413413               -0.08278046                2.17234879               11.34179729                1.95911788
               7.53130132                3.94791675               10.05302975                0.11730220                0.06246079                0.11904853               -0.13642242                1.45303297                7.70894264                3.15900646
               8.53129187                3.91391749               10.00508882                0.39214488                0.07436274                0.14826549               -0.23734442                0.40139392                2.04532901                1.93736808
               9.53278858                3.87342785                9.91650631                0.91718807                0.26191061                0.27872110               -0.88590251                0.01110953                0.00868044                0.64163165
              10.53653008                3.83360516                9.82770772                1.00000000                0.37415050                0.40932830               -1.54008997               -0.04935678                0.00459197               -0.55828099
               0.56069433                5.15159472               10.13709452                1.00000000               -0.23943157               -0.33764634                1.16918507               -0.05147883                0.02716145                0.97777751
               1.55830001                5.11302443               10.03847208                0.74979870               -0.12304430               -0.14242798                0.42885623               -0.01833929                0.07332349               -0.33137109
               2.55823344                5.07369162                9.94066483                0.06433480                0.28003245                0.05545487               -0.30936473                0.55669230                5.34153683               -1.61665777
               3.56390066                5.04489293                9.94751763                0.00010000                0.52710731                0.21083929               -0.10245397                1.48831829               11.93452864               -0.16854370
               4.56877559                5.01950535                9.98273494                0.00010000                0.41051159                0.12472050               -0.03772400                1.81847264               13.34268953                0.45041575
               5.57211089                4.99478476               10.01964662                0.00010000                0.24385860                0.05383323                0.05251454                1.92177168               13.42917820                1.17676965
               6.57365276                4.97103052               10.05849311                0.00010000                0.05046423                0.01267135                0.15689322                1.96323974               13.56739985                2.05430942
               7.57312018                4.94874512               10.09988673                0.12828074               -0.09042062                0.00840949                0.26344276                1.27230706                8.72833739                3.07551806
               8.57184435                4.91462023               10.04341861                0.41023101               -0.03618622                0.00634380                0.12886303                0.31615705                1.91398644                1.67903836
               9.57239645                4.87561643                9.94891477                0.94695453                0.16827942                0.16659385               -0.55674220                0.01154105                0.01034239                0.51017913
              10.57520993                4.83726003                9.85425622                1.00000000                0.28134828                0.32630967               -1.24416643               -0.04645825                0.00944483               -0.66131349
               0.59778874                6.14856203               10.11698074                1.00000000               -0.16774785               -0.26995115                0.95138623               -0.04947352                0.03203450                0.96002779
               1.59611127                6.11198486               10.01184477                0.72117614               -0.04418202               -0.06435663                0.16646746               -0.01388891                0.09121698               -0.34718453
               2.59690510                6.07467717                9.90779077                0.05204058                0.44362233                0.14483515               -0.61490574                0.50493044                6.75168740               -1.62279136
               3.60498371                6.04676713                9.93598184                0.00010000                0.70649459                0.17383280               -0.29136682                1.29095773               14.25476485               -0.15480372
               4.61103500                6.02043023                9.98362242                0.00010000                0.47980347                0.06553668               -0.07477248                1.53486664               15.27484829                0.44297444
               5.61457978                5.99498242               10.03430188                0.00010000                0.21560485               -0.01684249                0.15738704                1.66256082               15.47401835                1.16298432
               6.61534709                5.97072497               10.08805471                0.00010000               -0.07110119               -0.08079424                0.40850632                1.72869141               15.69806352                2.00236517
               7.61315776                5.94808494               10.14519400                0.13765633               -0.23016970               -0.14256687                0.67816018                1.07403740                9.68916992                2.94552403
               8.61074370                5.91404437               10.08046776                0.42523698               -0.13890809               -0.11345652                0.46700066                0.22947314                1.80422286                1.60107708
               9.61037960                5.87675973                9.98029961                0.97134548                0.07850112                0.06842960               -0.25050928                0.00982315                0.02106277                0.45400232
              10.61231372                5.84013135                9.87982006                1.00000000                0.19341248                0.25196157               -0.96907624               -0.04382994                0.01197255               -0.70783472
               0.63285920                7.14619570               10.09661997                1.00000000               -0.09521088               -0.20471997                0.73143855               -0.04737978                0.03528662                0.93366328
               1.63190709                7.11173730                9.98495410                0.68993847                0.03452883                0.01634767               -0.09839433               -0.00907771                0.11063042               -0.37528141
               2.63354978                7.07658832                9.87470541                0.03874200                0.60298286                0.24195942               -0.92419073                0.38652781                8.13365443               -1.64472429
               3.64396675                7.04836959                9.92363105                0.00010000                0.88539242                0.14414232               -0.49898008                0.98920328               16.54840814               -0.28488876
               4.65125763                7.02081608                9.98380521                0.00010000                0.55503101                0.00476944               -0.12643286                1.21188752               17.19529972                0.35606514
               5.65506737                6.99444791               10.04802117                0.00010000                0.19332177               -0.09142150                0.25418165                1.37403028               17.48625674                1.03999884
               6.65512406                6.96941464               10.11639542                0.00010000               -0.18929220               -0.17639425                0.65879938                1.44553112               17.80011750                1.84074150
               7.65128153                6.94589378               10.18911716                0.14559221               -0.36825206               -0.29047739                1.09540914                0.85475197               10.68320588                2.80381585
               8.64775902                6.91235109               10.11705993                0.43748998               -0.23878002               -0.22178962                0.79016887                0.15158956                1.73749239                1.57349556
               9.64650593                6.87698502               10.01126086                0.99095177               -0.00844677               -0.01912141                0.03843235                0.00669793                0.02990175                0.44431399
              10.64759009                6.84229926                9.90498761                1.00000000                0.10841598                0.18496147               -0.70940665               -0.04321485                0.01112054               -0.70681305
               0.66575795                8.14446763               10.07589094                1.00000000               -0.02208569               -0.14347410                0.50981574               -0.04473616                0.04127436                0.89945391
               1.66553709                8.11231181                9.95769829                0.65613253                0.11227106                0.10075000               -0.36457745               -0.00391068                0.13633215               -0.42234045
               2.66800337                8.07951636                9.84133445                0.02464315                0.75014634                0.34712974               -1.23694428                0.19042411                9.43598469               -1.63699852
               3.68054002                8.04964997                9.90928802                0.00010000                1.05955279                0.09255615               -0.70079645                0.56991264               18.78415962               -0.41568521
               4.68919442                8.02052562                9.98245914                0.00010000                0.64609078               -0.08101114               -0.18299150                0.85220593               19.11270723                0.22679715
               5.69346183                7.99315399               10.05966609                0.00010000                0.18087124               -0.16149651                0.33942484                1.04572369               19.44944269                0.80340228
               6.69281185                7.96719708               10.14229003                0.00010000               -0.30727464               -0.25084366                0.89682872                1.10137777               19.91644752                1.49614985
               7.68731634                7.94227539               10.23136165                0.15241652               -0.50637993               -0.42556364                1.51242887                0.60751325               11.78508581                2.52175148
               8.68268425                7.90960857               10.15349402                0.44729566               -0.33754732               -0.32538207                1.10853269                0.08360040                1.75055956                1.51466756
               9.68056539                7.87637730               10.04225878                1.00000000               -0.09316496               -0.10275371                0.31703345                0.00346938                0.04528175                0.47011305
              10.68082095                7.84383058                9.93023798                1.00000000                0.02555579                0.12336965               -0.45922768               -0.04521470                0.00949654               -0.68047208
               0.69627612                9.14332621               10.05473520                1.00000000                0.05040333               -0.08683878                0.28861377               -0.04229454                0.03324458                0.73730798
               1.69678015                9.11375230                9.92982815                0.62051683                0.18719892                0.18783894               -0.62970965                0.00014829                0.21140579               -0.41557785
               2.70002010                9.08353091                9.80843302                0.01030329                0.87877933                0.44862103               -1.53939998               -0.10862940               10.72612056               -1.28930377
               3.71435574                9.05022071                9.89399972                0.00010000                1.23888164               -0.04815665               -0.87482384                0.14072441               20.91967328               -0.32817359
               4.72479773                9.01919586                9.97940606                0.00010000                0.74773212               -0.14423202               -0.23538304                0.45223391               20.91062423                0.10974801
               5.72931038                8.99121798               10.06793676                0.00010000                0.16162407               -0.21462242                0.40797643                0.62949094               21.25771957                0.45067756
               6.72803021                8.96439776               10.16323664                0.00010000               -0.41450398               -0.30036266                1.10073287                0.63935805               21.99821145                0.86504623
               7.72102030                8.93738251               10.26949946                0.15898123               -0.63505447               -0.52805764                1.90377488                0.33265906               13.07533105                1.67627528
               8.71532912                8.90584345               10.18891944                0.45585831               -0.43334991               -0.42118603                1.41639085                0.02261433                1.98272535                1.10736297
               9.71235330                8.87492995               10.07365192                1.00000000               -0.17749475               -0.18919955                0.60195760                0.00168308                0.11769129                0.43984884
              10.71177923                8.84476665                9.95573451                1.00000000               -0.05740765                0.06149167               -0.20685023               -0.04735863               -0.01179892               -0.56541843
               0.72405989               10.14273086               10.03063662                1.00000000                0.12754670               -0.05953598                0.05633630                0.11215035                0.40327360                0.59717899
               1.72533536               10.11606859                9.90271521                0.79911013                0.26512374                0.23162911               -0.88160972                0.14341646                0.77301166               -0.38062635
               2.72936236               10.08848878                9.78216457                0.50083155                1.11771021                0.49578640               -1.77904322               -0.43486086               12.09496565               -0.97018808
               3.74768956               10.04868684                9.88089541                0.43488898                1.39397342               -0.15338734               -1.00649063               -0.20900779               22.61571247               -0.16476068
               4.75724183               10.01764098                9.97481319                0.43100438                0.65800926               -0.15548774               -0.27954764                0.25314511               22.36648257                0.08116376
               5.76084975                9.98886154               10.07157291                0.45351897                0.10963263               -0.23564433                0.45494131                0.33137884               22.74543003                0.27038237
               6.75943448                9.96118983               10.17578075                0.49974621               -0.41629579               -0.32079328                1.24653162                0.28306233               23.70833167                0.50439099
               7.75252383                9.93171424               10.29465228                0.58187195               -0.69226937               -0.56682662                2.17619009                0.15010382               14.45373917                1.04966040
               8.74558910                9.90118485               10.21722557                0.73093044               -0.54239860               -0.46586011                1.68472985                0.06995088                2.80973132                0.75180259
               9.74167586                9.87259331               10.10399921                1.00000000               -0.26943637               -0.23366366                0.89135390                0.12603352                0.64095272                0.38930451
              10.74020037                9.84506042                9.98318988                1.00000000               -0.14754877                0.02937660                0.06714966                0.08882486                0.26369750               -0.46445006
               0.41576569                0.20781208               11.25943241                1.00000000               -0.55507603               -0.62878704                2.18477391               -0.13183923               -0.66975131                0.72648313
               1.41021493                0.15341064               11.18168520                1.00000000               -0.44701357               -0.45891406                1.63274023               -0.09100180               -0.66947414               -0.03255679
               2.40682542                0.09891163               11.10388013                0.71049127               -0.10412670               -0.31847650                1.07441987                0.08176057               -0.37325936               -0.66608151
               3.40813239                0.04833205               11.03213569                0.51982348                0.47289935               -0.18804771                0.52492543                0.35938970                1.24009072               -0.08794712
               4.41628340                0.00990904               10.98696902                0.44667897                0.82332500               -0.13774328                0.05296563                0.33048340                3.87411931               -0.07605853
               5.42459889               -0.01511057               10.96887627                0.45330872                0.45800411               -0.05181207               -0.33327664                0.15387642                5.04779961               -0.00821732
               6.42544349               -0.04005750               10.94822310                0.53155833               -0.05165664                0.11955638               -0.70485637                0.24611482                3.61624885                0.05168602
               7.42356576               -0.07668622               10.90187414                0.69231711               -0.03026061                0.29814439               -1.14457827                0.24727171                1.30554880                0.08977133
               8.42483827               -0.12375262               10.83491301                0.96728312                0.31850727                0.46871302               -1.65141244                0.08714207               -0.11734867                0.32887737
               9.42993591               -0.17478832               10.75994668                1.00000000                0.61465629                0.62119689               -2.19166444               -0.07518767               -0.49795258                0.18568773
              10.43713140               -0.22589728               10.68526072                1.00000000                0.71954930                0.77355116               -2.72459190               -0.13367772               -0.47842469               -0.46805909
               0.46884874                1.20152421               11.23441975                1.00000000               -0.50936015               -0.59623101                1.96802433               -0.04883034               -0.03512770                0.94863275
               1.46375514                1.14882150               11.15603235                1.00000000               -0.43332102               -0.42324615                1.41490230               -0.01352359                0.02936706               -0.06455808
               2.46018232                1.09572687               11.07885859                0.27260957               -0.37637747               -0.27837793                0.86459477                0.19370180                1.00131207               -1.01538575
               3.45622759                1.04645158               11.01995061                0.00010000               -0.44363842               -0.17006813                0.39612497                0.79641669                2.96043597               -1.22604790
               4.45130955                1.00853161               10.98221087                0.00010000               -0.25533298                0.32044402               -0.01048060                1.66972278                5.37620319                0.31906237
               5.45112093                0.98437131               10.97221881                0.00010000                0.36914543                0.09826852               -0.31122215                2.02084896                6.56147888                0.21680994
               6.45869246                0.96113807               10.95929758                0.00949917                0.83825552               -0.07215151               -0.59916378                1.64883918                5.04406293                0.15173958
               7.46788604                0.92629523               10.92005440                0.24206348                0.80341445                0.32670715               -0.97188188                0.90273699                2.75827385                1.20371279
               8.47476075                0.88093452               10.86196009                0.66229456                0.61851623                0.44287016               -1.41734926                0.28719270                1.21644830                0.91643056
               9.48025636                0.83142365               10.79196807                1.00000000                0.60714180                0.57988317               -1.91714728                0.02604925                0.38552065                0.46308535
              10.48690358                0.78183823               10.71715267                1.00000000                0.66472204                0.72457346               -2.45210088               -0.05061700                0.14961811               -0.49859024
               0.52019451                2.19588746               11.21372804                1.00000000               -0.44527023               -0.53431917                1.77500889               -0.04941322                0.10386485                1.14878677
               1.51574180                2.14494572               11.12969932                0.83697681               -0.35625633               -0.35693893                1.19319256               -0.01510564                0.16810966               -0.21973703
               2.51306938                2.09334407               11.04686900                0.10850382               -0.22429081               -0.19754359                0.62817299                0.19774435                1.27443223               -1.60298639
               3.51125599                2.04493069               10.98501422                0.00010000               -0.06556269                0.15725453                0.15361227                1.56862737                5.41135792               -1.21637579
               4.51175813                2.01631792               10.98511875                0.00010000                0.05767138                0.54316288               -0.01362589                2.83785724                8.15560144                0.38052582
               5.51240941                1.98685480               10.97966795                0.00010000                0.23691131                0.24158933               -0.24023413                2.97431904                7.71472574                0.60329659
               6.51649635                1.95849947               10.97208653                0.00010000                0.47073191               -0.08067137               -0.47151133                2.75350015                7.34553932                0.89580654
               7.52182405                1.92984793               10.96034473                0.09557321                0.44786777                0.18329669               -0.67698691                1.61477653                4.68505870                2.32915283
               8.52545371                1.88510479               10.90064249                0.36918616                0.38645609                0.41548668               -1.10623278                0.36997277                1.71257533                2.33325652
               9.52955318                1.83680934               10.82941290                0.90984874                0.49180938                0.50246925               -1.61606851                0.05036580                0.64828900                0.87489901
              10.53528989                1.78859419               10.74829744                1.00000000                0.57367197                0.62560805               -2.18248908               -0.04092766                0.15916941               -0.45712682
               0.56974396                3.19083783               11.19263258                1.00000000               -0.37475484               -0.47257242                1.57322933               -0.05251025                0.03890559                1.09269605
               1.56599641                3.14168272               11.10091172                0.78682532               -0.27958646               -0.28953084                0.94165332               -0.02006125                0.08954508               -0.35419435
               2.56415223                3.09177599               11.01011001                0.08333252               -0.06850639               -0.11207573                0.31952665                0.41335791                2.82143210               -1.82733828
               3.56462629                3.04959667               10.97308993                0.00010000                0.09951747                0.41922607                0.12485017                1.63423070                7.76776114               -0.10413463
               4.56614258                3.01939487               10.98196023                0.00010000                0.18997350                0.26706641               -0.02447680                2.34181041                9.98452106                0.22165865
               5.56842576                2.98920310               10.99077078                0.00010000                0.23133756                0.19724713               -0.15549436                2.44944992                9.82667878                0.92001061
               6.57076933                2.95952464               10.99788457                0.00010000                0.25752482                0.10803332               -0.29432106                2.35844956                9.47895332                1.75521969
               7.57357625                2.92996116               11.00096484                0.10212761                0.22147256                0.08264179               -0.47780018                1.57079099                6.82171040                2.83476388
               8.57519879                2.88924425               10.95592457                0.36503018                0.20990117                0.32803461               -0.67502413                0.46703157                2.32648535                2.74033397
               9.57777428                2.84147303               10.86952339                0.86787186                0.36582761                0.41220002               -1.26787160                0.01946048                0.14732738                0.91188161
              10.58251534                2.79435039               10.78081364                1.00000000                0.47410616                0.52653479               -1.88887198               -0.04483580                0.03671357               -0.43554605
               0.61745452                4.18643602               11.17076329                1.00000000               -0.30521010               -0.40514402                1.36042922               -0.05156735                0.02256389                1.04388599
               1.61440241                4.13915510               11.07184344                0.76318981               -0.20159603               -0.21502424                0.68492341               -0.02001279                0.06005165               -0.36658221
               2.61342259                4.09110256               10.97357895                0.07306455                0.09596585               -0.02485956                0.01282835                0.54106451                4.34077470               -1.77981415
               3.61632173                4.05331521               10.96035072                0.00010000                0.27826545                0.30687784                0.03392534                1.58753468               10.27108973               -0.20119109
               4.61898790                4.02165925               10.98175306                0.00010000                0.24734542                0.19837295               -0.02259123                2.05293148               11.99122131                0.41152990
               5.62126864                3.99079974               11.00464750                0.00010000                0.19596869                0.12983794               -0.05620406                2.13267843               11.99799792                1.14174397
               6.62290728                3.96066014               11.02784768                0.00010000                0.11258120                0.08947023               -0.09050098                2.13293446               11.96511716                2.07074484
               7.62352026                3.93150076               11.05156611                0.11413385                0.01875945                0.12356385               -0.15092670                1.44217762                8.28863286                3.33856945
               8.62328247                3.89166548               11.00254624                0.38507703                0.06579883                0.16272084               -0.26702625                0.41323701                2.32423274                2.08916228
               9.62483624                3.84505334               10.90745780                0.89956614                0.26779975                0.29799975               -0.92018544                0.01014715                0.01221879                0.70903375
              10.62863846                3.79912489               10.81208809                1.00000000                0.38022213                0.43430459               -1.58078292               -0.04874561                0.00375607               -0.56271367
               0.66327444                5.18273495               11.14865068                1.00000000               -0.23448260               -0.33520848                1.14388310               -0.05027396                0.02530418                1.02464599
               1.66092962                5.13738224               11.04274255                0.73794926               -0.12305133               -0.13876497                0.42500924               -0.01675073                0.07182936               -0.37193415
               2.66081342                5.09127880               10.93767276                0.06221515                0.24453370                0.06047465               -0.29125939                0.55968719                5.80063352               -1.74425328
               3.66582029                5.05573422               10.94642776                0.00010000                0.44516329                0.21789494               -0.11015345                1.46053564               12.77915454               -0.22903954
               4.66971668                5.02336232               10.98233539                0.00010000                0.31290729                0.14061533               -0.03922009                1.77390554               14.13275820                0.45809058
               5.67207844                4.99179986               11.02014978                0.00010000                0.15051616                0.06954954                0.05050616                1.87581208               14.23160270                1.24202938
               6.67272700                4.96131404               11.05999807                0.00010000               -0.03319855                0.02543980                0.14730437                1.91435084               14.36938134                2.18243675
               7.67141446                4.93243244               11.10237185                0.12498064               -0.14080296                0.02013565                0.23867204                1.25664883                9.40810575                3.28683481
               8.66991094                4.89249867               11.04457447                0.40302611               -0.04483254                0.01691758                0.10473003                0.32747170                2.19507698                1.79237726
               9.67051781                4.84743303               10.94317589                0.92912388                0.17431991                0.18401760               -0.58885048                0.01065628                0.01165447                0.55359140
              10.67339734                4.80303649               10.84160551                1.00000000                0.28795293                0.35039655               -1.28465504               -0.04617670                0.00926803               -0.68497252
               0.70715446                6.17973185               11.12635388                1.00000000               -0.16309130               -0.26636082                0.92533098               -0.04838830                0.03017341                1.00514747
               1.70552355                6.13637980               11.01349478                0.71014312               -0.04450525               -0.06089356                0.16339935               -0.01247099                0.09029388               -0.38963306
               2.70626435                6.09231205               10.90175119                0.05033828                0.39626889                0.14857391               -0.59520880                0.50819621                7.29291948               -1.75214749
               3.71344892                6.05767311               10.93303854                0.00010000                0.60680140                0.18223095               -0.29217266                1.26529938               15.27780683               -0.24613132
               4.71840038                6.02447156               10.98286137                0.00010000                0.36921190                0.08677435               -0.07378943                1.49025979               16.25024482                0.42988593
               5.72083316                5.99219073               11.03585938                0.00010000                0.10806644                0.00589054                0.15687719                1.60837204               16.45682286                1.21854781
               6.72056171                5.96116893               11.09208632                0.00010000               -0.16822715               -0.06288255                0.40041109                1.67021496               16.68887220                2.13048260
               7.71746862                5.93190348               11.15184246                0.13454523               -0.28652002               -0.13121478                0.65441487                1.04868305               10.44608014                3.16202493
               8.71483131                5.89200383               11.08505795                0.41835798               -0.14785361               -0.10795577                0.45211409                0.23644697                2.06446269                1.69052856
               9.71451155                5.84873370               10.97766023                0.95393592                0.08383532                0.08140264               -0.27633618                0.00990781                0.02200373                0.47716311
              10.71650802                5.80613282               10.86994317                1.00000000                0.19964702                0.27220243               -1.00538442               -0.04372078                0.01194192               -0.74771476
               0.74901076                7.17740773               11.10379295                1.00000000               -0.09107712               -0.20005417                0.70538724               -0.04625458                0.03336381                0.97687837
               1.74809999                7.13616437               10.98396736                0.68005910                0.03366353                0.01891035               -0.09932645               -0.00758925                0.10997069               -0.41894065
               2.74968403                7.09425028               10.86559617                0.03762287                0.54333914                0.24276145               -0.90046316                0.39391505                8.74962690               -1.77615838
               3.75896677                7.05937884               10.91866740                0.00010000                0.76601103                0.15805771               -0.48973907                0.97620839               17.74592922               -0.38068599
               4.76500425                7.02509781               10.98255788                0.00010000                0.42908620                0.03356072               -0.11936045                1.17446509               18.36310946                0.33339983
               5.76754850                6.99191767               11.05056656                0.00010000                0.07071545               -0.06029201                0.25780553                1.31415435               18.65712650                1.08357968
               6.76641856                6.96005639               11.12295398                0.00010000               -0.29976341               -0.15428185                0.65498383                1.37349152               18.98551267                1.95792269
               7.76155323                6.92980814               11.19998071                0.14297135               -0.43044486               -0.28264504                1.07849944                0.81474028               11.50740879                3.01698627
               8.75780966                6.89033955               11.12492162                0.43134774               -0.24831220               -0.22071782                0.78341135                0.15290235                1.96435637                1.64982430
               9.75658698                6.84906108               11.01156006                0.97446902               -0.00424889               -0.01179987                0.02129298                0.00825332                0.03007904                0.45374743
              10.75772469                6.80848053               10.89776256                1.00000000                0.11377016                0.19995914               -0.73834464               -0.04186073                0.01356630               -0.75634157
               0.78871610                8.17573076               11.08085266                1.00000000               -0.01868872               -0.13802092                0.48471754               -0.04371394                0.03921819                0.94162969
               1.78852921                8.13675801               10.95407094                0.64806865                0.11060402                0.10166412               -0.36187596               -0.00261488                0.13499966               -0.46542143
               2.79092818                8.09716728               10.82913981                0.02434092                0.67981748                0.34345634               -1.20603764                0.20830094               10.13013259               -1.76271723
               3.80212556                8.06083426               10.90237827                0.00010000                0.92113398                0.11545906               -0.67945791                0.58142245               20.15638806               -0.49146211
               4.80935086                8.02514277               10.98069081                0.00010000                0.50160525               -0.04042504               -0.16772799                0.82811000               20.46689214                0.20629824
               5.81215767                7.99098489               11.06309266                0.00010000                0.03951021               -0.11827221                0.34869369                0.98638538               20.80722117                0.83336453
               6.81014106                7.95808330               11.15125284                0.00010000               -0.43387001               -0.21958879                0.89769306                1.01443253               21.30237646                1.58782272
               7.80348027                7.92625058               11.24642123                0.15062563               -0.57523226               -0.41825515                1.50037226                0.54695360               12.67812063                2.71650290
               8.79863642                7.88758948               11.16455439                0.44251861               -0.34723188               -0.32666569                1.10578991                0.07754078                1.93793130                1.58006121
               9.79653563                7.84849770               11.04537492                0.99133414               -0.09022593               -0.09941122                0.30745995                0.00535537                0.04207387                0.47587035
              10.79683190                7.81013200               10.92556807                1.00000000                0.02962704                0.13239115               -0.47917723               -0.04208253                0.01481696               -0.73207786
               0.82608199                9.17464731               11.05749382                1.00000000                0.05291872               -0.08072201                0.26511387               -0.04155293                0.03041730                0.77367474
               1.82661117                9.13819765               10.92357472                0.61517780                0.18459045                0.18669685               -0.62282810                0.00081764                0.21341241               -0.45097250
               2.82977380                9.10111941               10.79326560                0.01105423                0.80042790                0.44020938               -1.49990659               -0.07146776               11.51013584               -1.37712259
               3.84261973                9.06168802               10.88541409                0.00010000                1.08210132               -0.00627058               -0.84298545                0.17085111               22.46466390               -0.36575886
               4.85141582                9.02428931               10.97715990                0.00010000                0.58579722               -0.09482313               -0.21201388                0.44437331               22.43597983                0.09889222
               5.85433568                8.98955222               11.07208057                0.00010000                0.00128539               -0.16163178                0.42315323                0.58657831               22.79152041                0.46608140
               6.85144153                8.95566462               11.17426070                0.00010000               -0.56747767               -0.24810131                1.10587187                0.56241290               23.58375543                0.91325193
               7.84298612                8.92144304               11.28846906                0.15828567               -0.71640870               -0.51112704                1.89182785                0.26212526               14.04742608                1.79692936
               8.83711336                8.88380624               11.20305816                0.45315849               -0.44172778               -0.42257446                1.41524201                0.00822159                2.14475994                1.14544800
               9.83415157                8.84707286               11.07962403                1.00000000               -0.17494610               -0.18686008                0.59427251                0.00236654                0.11518480                0.45005504
              10.83361443                8.81112836               10.95361017                1.00000000               -0.05371334                0.06623646               -0.22199617               -0.04526553               -0.01014159               -0.60376951
               0.86078437               10.17411632               11.03108835                1.00000000                0.12890997               -0.05309928                0.03560368                0.10780093                0.42094442                0.62728357
               1.86207347               10.14049195               10.89396303                0.79739864                0.26120396                0.22942976               -0.87141322                0.13898697                0.81172498               -0.40834634
               2.86600845               10.10597147               10.76462333                0.50152180                1.01496056                0.48520595               -1.73596574               -0.36568927               12.98029435               -1.02445361
               3.88237268               10.06070885               10.87102861                0.43572924                1.21828379               -0.09791704               -0.96863063               -0.16096303               24.31807545               -0.18139838
               4.89037413               10.02324631               10.97215927                0.43132357                0.50706218               -0.10430028               -0.25030490                0.24800067               24.04616834                0.07840394
               5.89251393                9.98775226               11.07621908                0.45354764               -0.04378118               -0.17999635                0.47567440                0.31157314               24.43999961                0.28252712
               6.88949850                9.95312127               11.18829127                0.49974434               -0.59663869               -0.25433452                1.25628318                0.21948604               25.46773907                0.53659839
               7.88058115                9.91602803               11.31636604                0.58187703               -0.81637352               -0.54150058                2.16691731                0.06033861               15.52466823                1.11727421
               8.87317103                9.87913799               11.23406202                0.73030212               -0.56601563               -0.46682502                1.68758130                0.04239071                3.00580807                0.76844615
               9.86926084                9.84476050               11.11289400                1.00000000               -0.26777203               -0.23123606                0.88459500                0.12686432                0.66536282                0.40266680
              10.86781559                9.81145673               10.98382044                1.00000000               -0.14452481                0.03283723                0.05559718                0.08973887                0.27344577               -0.49030207
               0.48933311                0.24140581               12.28117138                1.00000000               -0.55219123               -0.62324425                2.16486315               -0.12853597               -0.71659713                0.77229566
               1.48381120                0.17983103               12.19798324                1.00000000               -0.44747489               -0.45684120                1.62669368               -0.08792202               -0.72003635               -0.03188498
               2.48038361                0.11814036               12.11467451                0.70972503               -0.11567542               -0.31860973                1.08245649                0.08079716               -0.42287098               -0.70212841
               3.48149769                0.06026026               12.03750453                0.52023426                0.43692302               -0.18752559                0.54567320                0.34559969                1.22815058               -0.09185471
               4.48912207                0.01420606               11.98761417                0.44700540                0.76901152               -0.12480188                0.07369707                0.31739436                3.92902170               -0.07938322
               5.49687792               -0.01864734               11.96557134                0.45328984                0.42090630               -0.03101668               -0.32865693                0.14697643                5.14307617               -0.00832673
               6.49754020               -0.05113296               11.94112598                0.53110031               -0.05699813                0.13473084               -0.71537910                0.23720319                3.68995674                0.05390383
               7.49573795               -0.09480934               11.89034780                0.69112733               -0.02141024                0.30708411               -1.16190752                0.23931168                1.32125299                0.09427135
               8.49711199               -0.14860174               11.81830721                0.96436720                0.32686007                0.47482833               -1.67113990                0.08380068               -0.14619438                0.34484673
               9.50227516               -0.20626169               11.73793157                1.00000000                0.62103155                0.62764621               -2.21275810               -0.07457636               -0.53735127                0.19822540
              10.50953262               -0.26399010               11.65792110                1.00000000                0.72574665                0.78069440               -2.74461453               -0.13352612               -0.51244633               -0.50223623
               0.54962253                1.23517337               12.25399564                1.00000000               -0.50578286               -0.59150768                1.94897974               -0.04709312               -0.03935194                1.00492578
               1.54456470                1.17526262               12.17015780                1.00000000               -0.43227823               -0.42140458                1.41001543               -0.01149307                0.02598945               -0.06590303
               2.54097696                1.11495426               12.08755934                0.27094493               -0.38219345               -0.27850269                0.87341925                0.19233825                1.04060355               -1.06273717
               3.53692083                1.05838501               12.02403375                0.00010000               -0.46135740               -0.17023298                0.41720657                0.78528634                3.07174607               -1.28458679
               4.53174982                1.01295804               11.98221050                0.00010000               -0.29518177                0.31537517                0.00799581                1.62472140                5.57299224                0.34630788
               5.53101720                0.98104249               11.96910967                0.00010000                0.31217062                0.10729420               -0.31136163                1.97133564                6.81904817                0.24476648
               6.53799323                0.95021434               11.95322886                0.00881754                0.79241329               -0.05964273               -0.61507136                1.61221089                5.26250407                0.17016355
               7.54686546                0.90826150               11.91023289                0.24025563                0.78414708                0.33213169               -0.99328460                0.87533445                2.89345604                1.27181449
               8.55367617                0.85614654               11.84768634                0.65714934                0.61790534                0.44825344               -1.43859009                0.28022239                1.28589296                0.97266082
               9.55922357                0.80001478               11.77270038                1.00000000                0.61248004                0.58643883               -1.93708652                0.02607501                0.40995889                0.48860757
              10.56592577                0.74381685               11.69253087                1.00000000                0.67022028                0.73316562               -2.47272077               -0.05071259                0.15642688               -0.53425910
               0.60821275                2.22957565               12.23137222                1.00000000               -0.44123070               -0.53099493                1.75548558               -0.04772635                0.11363155                1.21140975
               1.60380044                2.17140294               12.14161011                0.82600735               -0.35523809               -0.35490059                1.18876094               -0.01303925                0.18612788               -0.23835176
               2.60110798                2.11257030               12.05322170                0.10682184               -0.23004044               -0.19604657                0.64033314                0.19570910                1.34559457               -1.69920867
               3.59919963                2.05685560               11.98668204                0.00010000               -0.10744851                0.15560722                0.17679846                1.52712471                5.67471478               -1.22491693
               4.59895901                2.02051357               11.98505014                0.00010000               -0.00756494                0.52875565               -0.00101135                2.75958253                8.54216898                0.42412729
               5.59904833                1.98349854               11.97728456                0.00010000                0.18031965                0.23676964               -0.23683570                2.90123227                8.07250378                0.66067554
               6.60256541                1.94767418               11.96734376                0.00010000                0.41320587               -0.07616311               -0.47723730                2.69716533                7.71058694                0.95518460
               7.60731245                1.91183329               11.95348214                0.09413724                0.41988776                0.17882726               -0.69628804                1.58616799                4.94939914                2.41322677
               8.61096316                1.86036332               11.88949480                0.36473936                0.39069492                0.42056499               -1.12368521                0.36281726                1.82731861                2.48667597
               9.61512635                1.80546709               11.81314532                0.89557214                0.49755323                0.51099793               -1.63685690                0.05028640                0.69358323                0.93497526
              10.62091423                1.75067322               11.72635290                1.00000000                0.57878794                0.63775196               -2.20569733               -0.04040286                0.17657165               -0.48363740
               0.66501344                3.22455347               12.20825575                1.00000000               -0.37041738               -0.47005350                1.55294877               -0.05108749                0.04018615                1.14510805
               1.66130927                3.16816460               12.11030274                0.77532313               -0.27874798               -0.28659962                0.93621388               -0.01801266                0.09515737               -0.39002077
               2.65943848                3.11103333               12.01336792                0.08153744               -0.08946012               -0.10806335                0.32976135                0.40862698                3.04132591               -1.95821294
               3.65952006                3.06149715               11.97438252                0.00010000                0.04300243                0.41665450                0.13654947                1.57894767                8.21729144               -0.04931886
               4.66029853                3.02353316               11.98175551                0.00010000                0.11805824                0.26388468               -0.01596069                2.27033658               10.46855250                0.26295004
               5.66188123                2.98577788               11.98923012                0.00010000                0.16516290                0.19315415               -0.15218615                2.38222296               10.31574569                0.98565968
               6.66360179                2.94869108               11.99492168                0.00010000                0.20092252                0.10493808               -0.29759103                2.29605674                9.94343143                1.84684927
               7.66589968                2.91183804               11.99618105                0.10000509                0.18484651                0.07239200               -0.47993159                1.54648606                7.25304575                2.93010861
               8.66729872                2.86455784               11.94906745                0.35960070                0.20098630                0.33437553               -0.69361420                0.46591817                2.55065225                2.93166282
               9.66991940                2.81023473               11.85671757                0.85260934                0.37033728                0.42444698               -1.29105480                0.01894027                0.16423580                0.99070504
              10.67470546                2.75657189               11.76177302                1.00000000                0.47860577                0.54428995               -1.91728427               -0.04476457                0.03889061               -0.44471618
               0.71996872                4.22017458               12.18425401                1.00000000               -0.30083999               -0.40282086                1.33929030               -0.05020266                0.02197792                1.08920692
               1.71696032                4.16567094               12.07866958                0.75120004               -0.20103731               -0.21150981                0.67992257               -0.01801490                0.06078407               -0.40605852
               2.71594798                4.11040904               11.97377936                0.07106671                0.06592160               -0.01995102                0.02479703                0.53200838                4.68201363               -1.90749852
               3.71827876                4.06518869               11.96067312                0.00010000                0.20685178                0.30635836                0.03455611                1.53416402               10.91177806               -0.20987754
               4.72008501                4.02579126               11.98154077                0.00010000                0.16280557                0.20128457               -0.01803606                1.97915641               12.60999676                0.44425020
               5.72153487                3.98736162               12.00409026                0.00010000                0.11706848                0.13177932               -0.05405078                2.05903586               12.62639136                1.21237783
               6.72242638                3.94977294               12.02692007                0.00010000                0.04202732                0.08747670               -0.09364466                2.05680212               12.57999987                2.18544643
               7.72237541                3.91328113               12.05001122                0.11146816               -0.02707737                0.11837107               -0.15839145                1.40420534                8.86064102                3.51420674
               8.72188483                3.86705083               11.99974830                0.37862678                0.05578455                0.16991125               -0.28913849                0.41590116                2.59892301                2.24434248
               9.72349110                3.81395603               11.89810260                0.88244561                0.27298975                0.31255484               -0.94793264                0.00936358                0.01688706                0.77565198
              10.72734463                3.76155901               11.79609206                1.00000000                0.38535255                0.45668045               -1.61586456               -0.04817202                0.00345836               -0.57180774
               0.77301667                5.21649705               12.15997218                1.00000000               -0.23021534               -0.33259382                1.12215058               -0.04917969                0.02386272                1.06744696
               1.77071451                5.16393441               12.04697226                0.72618078               -0.12278848               -0.13517794                0.42062113               -0.01516151                0.07123446               -0.41377626
               2.77056090                5.11063431               11.93483964                0.06032580                0.20533028                0.06508867               -0.27769857                0.54808315                6.24183979               -1.87088240
               3.77482112                5.06762432               11.94531456                0.00010000                0.35739130                0.22080812               -0.10920300                1.40377244               13.60405314               -0.28448526
               4.77770872                5.02755885               11.98195054                0.00010000                0.21295716                0.15070970               -0.03550494                1.69615958               14.91529827                0.46792252
               5.77908026                4.98841347               12.02065674                0.00010000                0.05547989                0.07874853                0.05248338                1.79190970               15.02459906                1.31023260
               6.77881832                4.95044062               12.06143920                0.00010000               -0.11871853                0.03028845                0.14261969                1.82535337               15.16062259                2.31409739
               7.77670589                4.91420546               12.10466017                0.12212046               -0.19382407                0.02177249                0.22161795                1.21238823               10.08593576                3.49782188
               8.77494184                4.86795606               12.04551321                0.39623519               -0.05536987                0.02284752                0.08563752                0.33053596                2.47984787                1.91420270
               9.77559850                4.81648583               11.93713776                0.91131989                0.17971050                0.19813968               -0.61637565                0.00963898                0.01335841                0.60114124
              10.77853605                4.76570550               11.82856312                1.00000000                0.29375554                0.37304992               -1.32179700               -0.04593099                0.00880556               -0.70782078
               0.82411041                6.21352271               12.13548735                1.00000000               -0.15905805               -0.26312844                0.90325689               -0.04748285                0.02846470                1.04628107
               1.82251983                6.16296738               12.01511276                0.69911094               -0.04453426               -0.05760417                0.15990894               -0.01115625                0.08968843               -0.43271578
               2.82321973                6.11171081               11.89588659                0.04879683                0.34549151                0.15211095               -0.58003070                0.49594212                7.81752179               -1.87916184
               3.82942966                6.06960486               11.93013839                0.00010000                0.49996614                0.18959150               -0.28554379                1.20985705               16.28061725               -0.32871898
               4.83321905                6.02880545               11.98214663                0.00010000                0.25308151                0.10478941               -0.06703395                1.41218363               17.21607493                0.42237390
               5.83449129                5.98893660               12.03743942                0.00010000               -0.00387986                0.02363815                0.16074864                1.51533998               17.43086844                1.27885997
               6.83314146                5.95037871               12.09606293                0.00010000               -0.26917821               -0.05170220                0.39633937                1.56909183               17.67003559                2.26402880
               7.82910773                5.91371658               12.15828230                0.13179744               -0.34631336               -0.12753602                0.63520150                0.99426218               11.20730572                3.38481552
               8.82621519                5.86750778               12.08951004                0.41175513               -0.15866393               -0.10524596                0.44004229                0.23635991                2.33334794                1.78930455
               9.82593445                5.81791882               11.97477289                0.93632225                0.08857460                0.09297220               -0.29948018                0.00901512                0.02269856                0.50685749
              10.82798668                5.76902001               11.85971237                1.00000000                0.20522284                0.29210122               -1.03996978               -0.04386279                0.01179592               -0.78460645
               0.87317766                7.21123448               12.11072772                1.00000000               -0.08743708               -0.19616776                0.68351227               -0.04544863                0.03149642                1.01664425
               1.87230329                7.16278232               11.98296758                0.67018869                0.03323063                0.02143154               -0.10112470               -0.00639270                0.10939428               -0.46210219
               2.87384227                7.11367653               11.85669615                0.03661531                0.48101651                0.24408867               -0.88228661                0.38563941                9.35055240               -1.90274850
               3.88192362                7.07141615               11.91383627                0.00010000                0.63891933                0.17345957               -0.47531374                0.93326106               18.92261494               -0.46617570
               4.88662066                7.02965464               11.98141801                0.00010000                0.29450945                0.06220599               -0.10703545                1.10344541               19.51843296                0.31814625
               5.88781381                6.98888623               12.05317729                0.00010000               -0.06002419               -0.03146606                0.26568793                1.21524360               19.81907114                1.13289058
               6.88542017                6.94940657               12.12949509                0.00010000               -0.41758719               -0.13659471                0.65420994                1.25789321               20.16370308                2.08106867
               7.87946206                6.91165474               12.21068715                0.14061434               -0.49766883               -0.27997438                1.06327107                0.74570226               12.34028178                3.23757380
               8.87546680                6.86585114               12.13272816                0.42539135               -0.25977466               -0.22172624                0.77943700                0.14822606                2.20271320                1.73290173
               9.87426657                6.81834527               12.01168672                0.95777114               -0.00051910               -0.00440425                0.00476903                0.00775532                0.02950905                0.47013659
              10.87545641                6.77154752               11.89022072                1.00000000                0.11898453                0.21606980               -0.76918058               -0.04256007                0.01311704               -0.80226871
               0.92010576                8.20959935               12.08558529                1.00000000               -0.01558233               -0.13352294                0.46365868               -0.04308387                0.03738015                0.98098693
               1.91994993                8.16339602               11.95046077                0.63988417                0.10964686                0.10292171               -0.36112928               -0.00167159                0.13425853               -0.50722854
               2.92229869                8.11659258               11.81721370                0.02405606                0.60834215                0.34142099               -1.18287528                0.21096054               10.81049007               -1.88174151
               3.93211678                8.07307405               11.89569886                0.00010000                0.77595909                0.14195197               -0.65683645                0.56440450               21.50602369               -0.55764824
               4.93781788                8.03004957               11.97910458                0.00010000                0.34637280                0.00253043               -0.14883531                0.77317091               21.80504571                0.19290791
               5.93904423                7.98830727               12.06663996                0.00010000               -0.11435335               -0.07365221                0.36165345                0.89117113               22.15486333                0.86844079
               6.93553081                7.94764682               12.16024389                0.00010000               -0.57335146               -0.18911028                0.90118543                0.88532351               22.68203328                1.68427302
               7.92757720                7.90811709               12.26136910                0.14891783               -0.65208149               -0.41392311                1.48942019                0.45678744               13.58176617                2.91540290
               8.92248918                7.86307326               12.17560982                0.43771143               -0.35920104               -0.33031821                1.10786623                0.06581037                2.13982021                1.64887237
               9.92039318                7.81783074               12.04840798                0.97648035               -0.08790954               -0.09666523                0.29963745                0.00532818                0.04036701                0.48576207
              10.92073099                7.77334141               11.92065443                1.00000000                0.03378058                0.14456879               -0.50463269               -0.04154833                0.01673159               -0.78117485
               0.96472266                9.20856402               12.06003748                1.00000000                0.05539685               -0.07559451                0.24528221               -0.04114331                0.02778983                0.80804541
               1.96527662                9.16484076               11.91737159                0.60920251                0.18303973                0.18645172               -0.61939129                0.00129359                0.21672006               -0.48533691
               2.96838345                9.12050495               11.77843489                0.01162606                0.72390465                0.43458295               -1.47117988               -0.04907992               12.28060565               -1.46007962
               3.97975472                9.07425519               11.87714001                0.00010000                0.92336987                0.03778864               -0.81379048                0.17993241               23.98481251               -0.39734674
               4.98685085                9.02970525               11.97516578                0.00010000                0.41426346               -0.04196318               -0.18712118                0.41574307               23.94262888                0.09233445
               5.98803999                8.98741319               12.07639983                0.00010000               -0.17670118               -0.10361068                0.44096726                0.51963118               24.31350419                0.48433085
               6.98331682                8.94562437               12.18535408                0.00010000               -0.74343091               -0.18930823                1.11312702                0.45372960               25.16185788                0.96412835
               7.97317137                8.90337628               12.30733602                0.15736988               -0.81237326               -0.49256575                1.88236833                0.16448294               15.03167780                1.91999471
               8.96706936                8.85924478               12.21722428                0.44990244               -0.45331923               -0.42636060                1.42205079               -0.01380962                2.32320458                1.18678729
               9.96410498                8.81641197               12.08553737                0.99429860               -0.17326267               -0.18620185                0.59080424                0.00128151                0.11557794                0.45801537
              10.96360411                8.77443890               11.95129459                1.00000000               -0.05008781                0.07462176               -0.24283918               -0.04303634               -0.00900294               -0.64140446
               1.00672942               10.20808746               12.03134869                1.00000000                0.13054606               -0.04765595                0.01781635                0.10443500                0.43730985                0.65601177
               2.00803488               10.16712505               11.88528694                0.79512556                0.25866236                0.22842918               -0.86589182                0.13566453                0.85005277               -0.43561598
               3.01190267               10.12528424               11.74744526                0.50205234                0.92401233                0.47792953               -1.70517150               -0.31283997               13.85133250               -1.07653028
               4.02651513               10.07382982               11.86152280                0.43655730                1.05360346               -0.04253681               -0.93524094               -0.12765573               25.99638361               -0.19619435
               5.03297474               10.02921031               11.96980709                0.43162378                0.35013047               -0.04949352               -0.22117049                0.23265079               25.70680589                0.07685684
               6.03351774                9.98623506               12.08108639                0.45351567               -0.21662141               -0.11781285                0.49722489                0.28029199               26.12182020                0.29498626
               7.02864231                9.94386065               12.20090641                0.49962721               -0.81356439               -0.17637136                1.26616451                0.13408418               27.21764644                0.56853423
               8.01724645                9.89826578               12.33799063                0.58165403               -0.97325047               -0.51105037                2.15799642               -0.05822228               16.61009621                1.18719724
               9.00917730                9.85454605               12.25097719                0.72916502               -0.60108759               -0.46987319                1.69904966                0.00284002                3.21858531                0.79032178
              10.00522470                9.81410670               12.12169111                1.00000000               -0.26804443               -0.23052692                0.87945892                0.12636105                0.69235755                0.40857014
              11.00381641                9.77483384               11.98430183                1.00000000               -0.14082867                0.03949484                0.03814005                0.09394470                0.28979760               -0.51518012
               0.56781004                0.27760949               13.30272967                1.00000000               -0.54989706               -0.61875965                2.14857695               -0.12583353               -0.76215230                0.81661621
               1.56231107                0.20842382               13.21421907                1.00000000               -0.44816690               -0.45472532                1.62048920               -0.08548840               -0.76913210               -0.03140154
               2.55884671                0.13909942               13.12552926                0.70863951               -0.12776631               -0.31744838                1.08688523                0.07780720               -0.47126845               -0.73794090
               3.55975575                0.07343651               13.04304915                0.52058362                0.39751609               -0.18541828                0.56058999                0.32702565                1.21183001               -0.09500056
               4.56679703                0.01912873               12.98844296                0.44732726                0.70964284               -0.11069262                0.08980418                0.30013065                3.96851088               -0.08215905
               5.57394860               -0.02235377               12.96230313                0.45323625                0.38345635               -0.00928094               -0.32621638                0.13779785                5.21791479               -0.00758218
               6.57446616               -0.06318517               12.93391552                0.53054052               -0.05695056                0.15087335               -0.72772328                0.22445635                3.74913485                0.05688275
               7.57280959               -0.11457097               12.87863599                0.68968276               -0.00677688                0.31681477               -1.18153384                0.22736901                1.32958307                0.09927829
               8.57433062               -0.17561394               12.80149021                0.96083907                0.33827030                0.48140882               -1.69323865                0.07852677               -0.17944454                0.36129499
               9.57957500               -0.24036143               12.71569152                1.00000000                0.62864044                0.63434825               -2.23610667               -0.07377917               -0.57950930                0.21162992
              10.58690343               -0.30516156               12.63036843                1.00000000                0.73284272                0.78828020               -2.76657031               -0.13324075               -0.54832532               -0.54014277
               0.63573738                1.27142189               13.27339935                1.00000000               -0.50261533               -0.58769729                1.93339257               -0.04546728               -0.04295773                1.05906196
               1.63071123                1.20387657               13.18423266                1.00000000               -0.43094732               -0.41950384                1.40482379               -0.00965796                0.02307880               -0.06787692
               2.62711843                1.13592493               13.09632698                0.26890849               -0.38499392               -0.27740519                0.87824440                0.18841962                1.07976006               -1.10870093
               3.62301135                1.07158233               13.02829474                0.00010000               -0.47124795               -0.16764634                0.43198326                0.76314854                3.17633475               -1.34187125
               4.61769347                1.01802180               12.98237079                0.00010000               -0.32639097                0.30633651                0.02149072                1.55865264                5.74993598                0.37207794
               5.61648353                0.97755342               12.96599158                0.00010000                0.25629211                0.11508193               -0.31359092                1.89595168                7.05343325                0.27665517
               6.62281932                0.93832357               12.94699616                0.00806172                0.74070712               -0.04522453               -0.63248621                1.55440556                5.46756877                0.19641722
               7.63129767                0.88859718               12.90018870                0.23824699                0.75958998                0.33676370               -1.01663021                0.83639877                3.02528193                1.34313373
               8.63801112                0.82920014               12.83318829                0.65142447                0.61566708                0.45355728               -1.46208153                0.26955765                1.35639602                1.03213593
               9.64361101                0.76598205               12.75322634                1.00000000                0.61800128                0.59265466               -1.95830311                0.02564214                0.43525351                0.51412712
              10.65037114                0.70272125               12.66769826                1.00000000                0.67601289                0.74204231               -2.49411487               -0.05094304                0.16283114               -0.57461823
               0.70199135                2.26585555               13.24883775                1.00000000               -0.43764780               -0.52818477                1.73904879               -0.04636369                0.12424788                1.27111977
               1.69761488                2.20003374               13.15347454                0.81482866               -0.35410076               -0.35268629                1.18386056               -0.01140354                0.20586793               -0.25872890
               2.69490934                2.13355131               13.05967567                0.10511652               -0.23465133               -0.19354259                0.64849519                0.19151865                1.41680235               -1.79552175
               3.69292185                2.07008358               12.98855019                0.00010000               -0.14551758                0.15184413                0.19375224                1.46386641                5.92736307               -1.23602166
               4.69199899                2.02525546               12.98509852                0.00010000               -0.06779896                0.50707149                0.00940558                2.64184242                8.91134924                0.46595984
               5.69156587                1.97994787               12.97493123                0.00010000                0.12557589                0.22785851               -0.23478152                2.78729271                8.41558402                0.72365417
               6.69451051                1.93591034               12.96254178                0.00010000                0.35475598               -0.07191294               -0.48413521                2.60420750                8.06215809                1.02553866
               7.69866099                1.89216431               12.94641897                0.09285227                0.39131964                0.17185397               -0.71757884                1.53702923                5.21067215                2.51137456
               8.70233690                1.83345720               12.87816878                0.36044464                0.39528745                0.42119307               -1.14227140                0.34957752                1.94483704                2.64513596
               9.70656674                1.77149166               12.79667576                0.88130844                0.50346374                0.51739052               -1.65699623                0.04822475                0.73960476                0.99412696
              10.71240617                1.70967929               12.70418349                1.00000000                0.58394337                0.64978302               -2.22788173               -0.04068191                0.19484792               -0.51652382
               0.76645371                3.26085820               13.22369156                1.00000000               -0.36663221               -0.46759131                1.53558718               -0.04995652                0.04131618                1.19447443
               1.76278739                3.19682284               13.11963600                0.76401183               -0.27773715               -0.28346682                0.93008918               -0.01631241                0.10111924               -0.42761902
               2.76089897                3.13205408               13.01670523                0.07989195               -0.11014283               -0.10352216                0.33555036                0.39731751                3.25835274               -2.09001763
               3.76058453                3.07461921               12.97582092                0.00010000               -0.01164650                0.40510195                0.15228630                1.49915892                8.65741982               -0.00212382
               4.76066604                3.02816323               12.98164101                0.00010000                0.04949822                0.25468818               -0.00701716                2.16315466               10.93959419                0.30315128
               5.76157450                2.98211059               12.98772705                0.00010000                0.10104950                0.18364030               -0.14868249                2.27866869               10.79413531                1.05445310
               6.76268703                2.93688531               12.99193275                0.00010000                0.14584500                0.09706009               -0.30070080                2.19997394               10.40304404                1.94432361
               7.76449140                2.89203426               12.99136620                0.09818899                0.14941413                0.05707390               -0.48527248                1.49912816                7.68004923                3.03638588
               8.76567531                2.83762401               12.94205228                0.35462174                0.19310111                0.33246829               -0.70800873                0.45641259                2.77091647                3.12509977
               9.76835342                2.77632986               12.84370230                0.83793977                0.37534672                0.43272665               -1.31077576                0.01781895                0.18149024                1.06717363
              10.77318225                2.71571691               12.74246795                1.00000000                0.48288258                0.56096708               -1.94254361               -0.04516921                0.04154493               -0.46145416
               0.82906294                4.25650372               13.19754910                1.00000000               -0.29701939               -0.40038271                1.32118477               -0.04903988                0.02163427                1.13146665
               1.82609275                4.19436441               13.08544189                0.73947945               -0.20018095               -0.20796538                0.67416332               -0.01616958                0.06224513               -0.44647578
               2.82505932                4.13148087               12.97407489                0.06925581                0.03515658               -0.01500803                0.03198037                0.51150789                5.01439247               -2.03406298
               3.82679588                4.07818562               12.96104184                0.00010000                0.13556892                0.29800210                0.04126425                1.45371367               11.54145601               -0.22234806
               4.82777070                4.03034922               12.98139234                0.00010000                0.08106439                0.19758446               -0.01076553                1.87247388               13.22166152                0.47738318
               5.82841717                3.98362067               13.00356649                0.00010000                0.04078073                0.12723784               -0.05040279                1.95047904               13.24707814                1.28601004
               6.82858632                3.93785154               13.02597478                0.00010000               -0.02561555                0.07839125               -0.09542338                1.94670581               13.19022352                2.30407825
               7.82790486                3.89330578               13.04839829                0.10915081               -0.07083838                0.10417698               -0.16476267                1.34113978                9.42862729                3.68871355
               8.82716955                3.84010657               12.99676347                0.37265544                0.04626809                0.16984843               -0.30535779                0.40977040                2.87139986                2.40221985
               9.82883022                3.78014619               12.88849915                0.86592422                0.27795749                0.32278511               -0.97059915                0.00868585                0.02254023                0.84084895
              10.83272870                3.72089863               12.77977080                1.00000000                0.38984798                0.47714284               -1.64633215               -0.04773192                0.00363535               -0.58665365
               0.88975154                5.25285054               13.17109369                1.00000000               -0.22646914               -0.33008924                1.10373845               -0.04820084                0.02273273                1.10723268
               1.88748685                5.19266353               13.05115497                0.71460657               -0.12218135               -0.13171155                0.41555939               -0.01356492                0.07140303               -0.45636742
               2.88730791                5.13175392               12.93211879                0.05858417                0.16518038                0.06957207               -0.26878664                0.52227761                6.67263221               -1.99618747
               3.89079046                5.08057925               12.94424370                0.00010000                0.26862758                0.21957010               -0.10358440                1.31831780               14.41634349               -0.33610293
               4.89268046                5.03211492               12.98162529                0.00010000                0.11456490                0.15511733               -0.02856076                1.58631212               15.69160885                0.48133438
               5.89308175                4.98465535               13.02119945                0.00010000               -0.03722150                0.08133598                0.05656221                1.67276370               15.81093580                1.38280881
               6.89193603                4.93845313               13.06285046                0.00010000               -0.20112918                0.02710377                0.13994765                1.69978414               15.94485470                2.44973837
               7.88905917                4.89411780               13.10680420                0.11957772               -0.24528631                0.01335109                0.20784123                1.14153022               10.76399936                3.70819572
               8.88703031                4.84102097               13.04628722                0.38981606               -0.06620488                0.02342032                0.07144694                0.32529479                2.76885776                2.04302875
               9.88773507                4.78278556               12.93084838                0.89387438                0.18462117                0.20878467               -0.63934155                0.00858824                0.01568987                0.65119902
              10.89072273                4.72525976               12.81516957                1.00000000                0.29876592                0.39422297               -1.35491041               -0.04576609                0.00839835               -0.73237582
               0.94847295                6.24990193               13.14441902                1.00000000               -0.15548740               -0.26039298                0.88475832               -0.04670414                0.02693907                1.08458053
               1.94691807                6.19173018               13.01669296                0.68818836               -0.04418954               -0.05446126                0.15574839               -0.00985121                0.08951921               -0.47614727
               2.94758916                6.13287231               12.89015058                0.04734711                0.29415807                0.15571434               -0.56949780                0.46826601                8.33237971               -2.00419491
               3.95280124                6.08257702               12.92732767                0.00010000                0.39158451                0.19578036               -0.27622431                1.12430061               17.27046418               -0.40401970
               4.95542085                6.03345157               12.98152069                0.00010000                0.13664958                0.11939336               -0.05758259                1.30109008               18.17439174                0.42122634
               5.95553423                5.98524739               13.03907436                0.00010000               -0.11506510                0.03597965                0.16655580                1.38565663               18.39830276                1.34526181
               6.95311955                5.93839362               13.10001311                0.00010000               -0.36833042               -0.04781633                0.39384510                1.42860698               18.64391410                2.40354288
               7.94816762                5.89357280               13.16454649                0.12929941               -0.40559338               -0.13224885                0.61794446                0.91239905               11.97438848                3.61261717
               8.94500768                5.84057497               13.09385879                0.40539529               -0.17022126               -0.10615819                0.43143945                0.22915662                2.61196536                1.89729336
               9.94476319                5.78432189               12.97167062                0.91884658                0.09286484                0.10215799               -0.31933805                0.00788269                0.02366350                0.54180366
              10.94686497                5.72878309               12.84914377                1.00000000                0.21017815                0.31166653               -1.07233845               -0.04406478                0.01138656               -0.82031082
               1.00516097                7.24764269               13.11746319                1.00000000               -0.08415270               -0.19305961                0.66526207               -0.04484849                0.02974694                1.05401594
               2.00431945                7.19157431               12.98194486                0.66034942                0.03327055                0.02396241               -0.10397833               -0.00532913                0.10909607               -0.50499075
               3.00582639                7.13486821               12.84795044                0.03563747                0.41888820                0.24606967               -0.86947479                0.36156429                9.94295577               -2.02599182
               4.01269721                7.08449486               12.90916113                0.00010000                0.51027553                0.19002667               -0.46032044                0.85942512               20.08632781               -0.54361310
               5.01603190                7.03450279               12.98041718                0.00010000                0.15778106                0.09007946               -0.09325253                0.99849527               20.66450168                0.31029735
               6.01585283                6.98537494               13.05588032                0.00010000               -0.19245675               -0.00581121                0.27478080                1.07877066               20.97431845                1.18919041
               7.01218276                6.93749681               13.13603818                0.00010000               -0.53635180               -0.12419253                0.65408260                1.10154649               21.33627264                2.21155429
               8.00512580                6.89147282               13.22124613                0.13840348               -0.56592018               -0.28315192                1.04793801                0.64915237               13.18428608                3.46631928
               9.00086436                6.83889781               13.14051036                0.41953463               -0.27205942               -0.22520837                0.77821607                0.13710816                2.45454284                1.82514432
               9.99968461                6.78482872               13.01165544                0.94103687                0.00273354                0.00201984               -0.00980838                0.00652222                0.02952175                0.49330210
              11.00091903                6.73149309               12.88237894                1.00000000                0.12344198                0.23257714               -0.79851669               -0.04313044                0.01268029               -0.84620800
               1.05971273                8.24604074               13.09012584                1.00000000               -0.01267627               -0.12989326                0.44601867               -0.04270283                0.03574906                1.01843085
               2.05958597                8.19220942               12.94684835                0.63153913                0.10935802                0.10452172               -0.36227227               -0.00091628                0.13415590               -0.54843677
               3.06189989                8.13779370               12.80548231                0.02370157                0.53845939                0.34090268               -1.16670104                0.19796168               11.48319540               -1.99657199
               4.07035516                8.08637756               12.88924154                0.00010000                0.63053892                0.17111460               -0.63632242                0.51736682               22.84207893               -0.61718345
               5.07451067                8.03525316               12.97771411                0.00010000                0.18802310                0.04653511               -0.13021372                0.68651510               23.13230268                0.18596065
               6.07411562                7.98513117               13.07032573                0.00010000               -0.27290395               -0.02912664                0.37477367                0.76106189               23.49562685                0.90972688
               7.06905259                7.93590977               13.16927655                0.00010000               -0.71829792               -0.16060706                0.90456957                0.71691692               24.05771089                1.78763410
               8.05974966                7.88790977               13.27620963                0.14718983               -0.73293270               -0.41257088                1.47768433                0.33923627               14.50098594                3.12202842
               9.05439394                7.83607081               13.18671171                0.43275282               -0.37256538               -0.33616012                1.11417400                0.04821245                2.35979831                1.72622065
              10.05229835                7.78436228               13.05136767                0.96123783               -0.08601578               -0.09393416                0.29225610                0.00360178                0.04004999                0.50196751
              11.05267362                7.73343463               12.91547542                1.00000000                0.03752693                0.15798902               -0.53070074               -0.04271886                0.01625531               -0.82924363
               1.11196955                9.24504482               13.06239946                1.00000000                0.05786051               -0.07133069                0.22851399               -0.04094108                0.02525361                0.84112749
               2.11254816                9.19366474               12.91118690                0.60264239                0.18239658                0.18697512               -0.61889828                0.00167154                0.22109768               -0.51939358
               3.11561749                9.14168626               12.76384200                0.01196742                0.65184681                0.43132151               -1.45156006               -0.04241215               13.04356795               -1.54040014
               4.12558510                9.08791715               12.86913828                0.00010000                0.76955497                0.08209197               -0.78925006                0.16652964               25.49038990               -0.42521234
               5.13100859                9.03543349               12.97341747                0.00010000                0.24161804                0.01238347               -0.16430395                0.36556165               25.43731705                0.08939120
               6.13041746                8.98479241               13.08089991                0.00010000               -0.36330426               -0.04261588                0.45770607                0.42932828               25.82800398                0.50609761
               7.12374250                8.93428467               13.19652324                0.00010000               -0.93339862               -0.12612335                1.11949879                0.31618010               26.73664402                1.01956049
               8.11174948                8.88322140               13.32611643                0.15619493               -0.91832062               -0.47235066                1.87292134                0.04262872               16.03619499                2.04904518
               9.10537609                8.83217461               13.23149917                0.44605629               -0.46783341               -0.43161079                1.43523703               -0.04115206                2.52531206                1.23620548
              10.10239282                8.78295004               13.09144011                0.98109005               -0.17280683               -0.18689225                0.59100839               -0.00183654                0.11958025                0.46950093
              11.10191995                8.73465287               12.94875339                1.00000000               -0.04728649                0.08520070               -0.26552101               -0.04389259               -0.00907971               -0.68096554
               1.16165407               10.24461413               13.03144468                1.00000000                0.13238940               -0.04306917                0.00254718                0.10193103                0.45267623                0.68392466
               2.16297796               10.19594893               12.87664519                0.79238701                0.25725881                0.22841839               -0.86413539                0.13328043                0.88830420               -0.46300686
               3.16679924               10.14642013               12.73051990                0.50241610                0.84802807                0.47338742               -1.68441746               -0.27830083               14.71467924               -1.12790029
               4.17993852               10.08801940               12.85232380                0.43734666                0.90737026                0.01022461               -0.90776952               -0.11062280               27.66090544               -0.21047032
               5.18494665               10.03550083               12.96773586                0.43190480                0.19562431                0.00673369               -0.19538663                0.20677903               27.35484610                0.07599254
               6.18385101                9.98427885               13.08616358                0.45343939               -0.39997255               -0.05135552                0.51624517                0.23767906               27.79469828                0.30802641
               7.17694720                9.93338730               13.21361456                0.49941160               -1.05693579               -0.08973628                1.27361147                0.02966484               28.96208774                0.60125655
               8.16271229                9.87846275               13.35952597                0.58121803               -1.15524681               -0.47586498                2.14801364               -0.20115472               17.71959898                1.26208350
               9.15384226                9.82743859               13.26804301                0.72756491               -0.64644682               -0.47360174                1.71507841               -0.04529838                3.45972283                0.81981070
              10.14978336                9.78062444               13.13048318                0.99713091               -0.27260798               -0.23256002                0.88504865                0.12405691                0.72876416                0.41629535
              11.14839010                9.73513865               12.98458324                1.00000000               -0.13932550                0.04857735                0.01745621                0.09843589                0.31312284               -0.54487210
               0.65111126                0.31639877               14.32414292                1.00000000               -0.54822987               -0.61522498                2.13582845               -0.12374656               -0.80612636                0.85913331
               1.64562896                0.23917582               14.23039302                1.00000000               -0.44915524               -0.45262057                1.61452826               -0.08366515               -0.81632323               -0.03119564
               2.64212816                0.16178610               14.13641222                0.70725125               -0.14041884               -0.31522688                1.08857003                0.07285642               -0.51730327               -0.77362336
               3.64282059                0.08786908               14.04871633                0.52083828                0.35550782               -0.18225401                0.57089231                0.30436878                1.19412319               -0.09726153
               4.64923831                0.02470722               13.98941025                0.44762782                0.64715354               -0.09631798                0.10172362                0.27909011                3.99664581               -0.08436959
               5.65576366               -0.02617588               13.95904701                0.45315483                0.34758582                0.01233693               -0.32629960                0.12649323                5.27498817               -0.00604058
               6.65619003               -0.07615659               13.92657152                0.52989093               -0.05043698                0.16730110               -0.74206745                0.20807841                3.79434071                0.06063150
               7.65475492               -0.13592920               13.86671713                0.68800297                0.01387708                0.32703941               -1.20309324                0.21163452                1.33033705                0.10486903
               8.65646757               -0.20477199               13.78444244                0.95677448                0.35259180                0.48826839               -1.71696912                0.07141212               -0.21730606                0.37806668
               9.66180675               -0.27709873               13.69320944                1.00000000                0.63723623                0.64118052               -2.26082556               -0.07283935               -0.62448052                0.22637123
              10.66921230               -0.34945261               13.60258969                1.00000000                0.74055423                0.79620323               -2.78950862               -0.13276231               -0.58588437               -0.58119092
               0.72709675                1.31024652               14.29266349                1.00000000               -0.49981063               -0.58464675                1.92083800               -0.04404768               -0.04595723                1.11072526
               1.72209865                1.23464961               14.19825427                1.00000000               -0.42933326               -0.41753980                1.39934750               -0.00808861                0.02066573               -0.07052949
               2.71851009                1.15863384               14.10512422                0.26648492               -0.38474663               -0.27522455                0.87951961                0.18185755                1.11946605               -1.15323195
               3.71440371                1.08604654               14.03267342                0.00010000               -0.47291954               -0.16300497                0.44118899                0.73068303                3.27692838               -1.39753534
               4.70905170                1.02374404               13.98264031                0.00010000               -0.34716095                0.29276575                0.03012325                1.47337930                5.91162390                0.39816880
               5.70746050                0.97394749               13.96283785                0.00010000                0.20478888                0.12060145               -0.31854515                1.79627364                7.26792593                0.31311063
               6.71314748                0.92551642               13.94057913                0.00721596                0.68592353               -0.02975280               -0.65195825                1.47622512                5.66005039                0.23062183
               7.72117897                0.86734119               13.88990029                0.23599046                0.73094899                0.34062426               -1.04198268                0.78691197                3.15357822                1.41754424
               8.72776646                0.80011069               13.81844471                0.64509376                0.61198509                0.45870217               -1.48744653                0.25537153                1.42812913                1.09510134
               9.73341867                0.72931308               13.73353432                1.00000000                0.62360502                0.59861997               -1.98054360                0.02478564                0.46178429                0.54053152
              10.74023856                0.65850942               13.64264857                1.00000000                0.68198872                0.75128267               -2.51605480               -0.05119408                0.16904666               -0.61874491
               0.80142413                2.30470584               14.26615319                1.00000000               -0.43442534               -0.52574573                1.72517915               -0.04537495                0.13558375                1.32787711
               1.79707988                2.23082502               14.16528732                0.80339697               -0.35278792               -0.35023718                1.17827804               -0.01024494                0.22721090               -0.28078880
               2.79436838                2.15628161               14.06619161                0.10331262               -0.23779211               -0.19000397                0.65261654                0.18472420                1.48862097               -1.89177793
               3.79232404                2.08460899               13.99055709                0.00010000               -0.17817101                0.14582406                0.20470424                1.38049453                6.17317421               -1.24466357
               4.79080496                2.03056254               13.98523825                0.00010000               -0.12036437                0.47791582                0.01713264                2.48798733                9.26806453                0.50894337
               5.78991675                1.97623615               13.97258893                0.00010000                0.07579369                0.21421024               -0.23486901                2.63487590                8.74650955                0.79356228
               6.79232083                1.92324836               13.95766105                0.00010000                0.29910699               -0.06859367               -0.49328797                2.47615871                8.40129899                1.10744926
               7.79589889                1.87088328               13.93913057                0.09160107                0.36411430                0.16226283               -0.74131610                1.46779297                5.46901767                2.62214923
               8.79960312                1.80440205               13.86664937                0.35612540                0.40024212                0.41772267               -1.16237509                0.33024440                2.06626322                2.81096256
               9.80390373                1.73487367               13.78000540                0.86689565                0.50963046                0.52208694               -1.67723929                0.04429317                0.78711695                1.05398562
              10.80979572                1.66557304               13.68179527                1.00000000                0.58919912                0.66230367               -2.24968300               -0.04173833                0.21412145               -0.55455523
               0.87395089                3.29973161               14.23896749                1.00000000               -0.36329153               -0.46520251                1.52082471               -0.04908984                0.04212864                1.24123254
               1.87031798                3.22764487               14.12890452                0.75279034               -0.27651407               -0.28012837                0.92320012               -0.01491506                0.10715641               -0.46676244
               2.86842061                3.15483376               14.02007893                0.07829356               -0.12926479               -0.09836939                0.33705262                0.37928292                3.47736711               -2.22271263
               3.86773268                3.08896303               13.97742825                0.00010000               -0.06181639                0.38549846                0.16901913                1.39674934                9.09275652                0.04261096
               4.86718428                3.03330236               13.98161516                0.00010000               -0.01302415                0.23960554                0.00118835                2.02286542               11.39885978                0.34475567
               5.86747220                2.97823169               13.98625647                0.00010000                0.04196170                0.16866391               -0.14626363                2.14097132               11.26391008                1.12782945
               6.86802352                2.92414455               13.98890766                0.00010000                0.09544683                0.08442200               -0.30550965                2.07164889               10.85779107                2.04861928
               7.86938113                2.87058645               13.98647560                0.09654270                0.11787189                0.03670594               -0.49542442                1.42904867                8.10568344                3.15419299
               8.87038095                2.80846514               13.93490728                0.34989442                0.18762020                0.32291237               -0.72042834                0.43886106                2.99094338                3.32341929
               9.87313354                2.73975482               13.83050206                0.82366398                0.38120461                0.43766281               -1.32866927                0.01606015                0.19880986                1.14292885
              10.87800505                2.67175550               13.72292215                1.00000000                0.48715082                0.57756405               -1.96591679               -0.04601620                0.04438578               -0.48464452
               0.94461582                4.29540179               14.21067771                1.00000000               -0.29363872               -0.39799141                1.30591057               -0.04804004                0.02138061                1.17139909
               1.94167943                4.22522245               14.09215284                0.72798983               -0.19899720               -0.20444385                0.66767313               -0.01440317                0.06413031               -0.48751665
               2.94063588                4.15431423               13.97441897                0.06755034                0.00554935               -0.00994415                0.03467906                0.48003523                5.34385360               -2.15938329
               3.94179042                4.09231895               13.96149841                0.00010000                0.06788597                0.28267029                0.05060862                1.34746166               12.16574162               -0.23858133
               4.94199360                4.03535465               13.98132546                0.00010000                0.00517837                0.18774121               -0.00272814                1.73456698               13.82680876                0.51227824
               5.94189399                3.97960943               14.00308220                0.00010000               -0.02972718                0.11650418               -0.04702739                1.80918780               13.86158381                1.36364377
               6.94139905                3.92493680               14.02501160                0.00010000               -0.08673584                0.06262559               -0.09823443                1.80475611               13.79693850                2.42742768
               7.94015927                3.87161740               14.04671597                0.10706165               -0.10935425                0.08173616               -0.17350427                1.25457468                9.99602192                3.86466027
               8.93921197                3.81086030               13.99364114                0.36702744                0.03876560                0.16280864               -0.31751357                0.39516992                3.14465655                2.56319857
               9.94093458                3.74362693               13.87869061                0.84996223                0.28310370                0.32917598               -0.98962086                0.00802150                0.02892272                0.90497597
              10.94487404                3.67712433               13.76316542                1.00000000                0.39394583                0.49647541               -1.67318120               -0.04743115                0.00418427               -0.60726323
               1.01334876                5.29177178               14.18204695                1.00000000               -0.22312836               -0.32784878                1.08837387               -0.04730430                0.02183373                1.14482365
               2.01111748                5.22355599               14.05528345                0.70325379               -0.12119728               -0.12839545                0.40977849               -0.01188410                0.07221253               -0.49940262
               3.01092481                5.15463487               13.92946391                0.05694147                0.12620061                0.07405198               -0.26434339                0.48285887                7.09850105               -2.12007595
               4.01364149                5.09461643               13.94324287                0.00010000                0.18301674                0.21440381               -0.09652698                1.20503595               15.22194100               -0.38560976
               5.01458515                5.03705718               13.98137932                0.00010000                0.02161588                0.15417226               -0.02084530                1.44559738               16.46306842                0.49840739
               6.01407381                4.98056178               14.02178799                0.00010000               -0.12372430                0.07757674                0.06055703                1.52054139               16.59209451                1.46020176
               7.01211066                4.92539706               14.06423816                0.00010000               -0.27623397                0.01625290                0.13671855                1.54039699               16.72393093                2.58968829
               8.00854913                4.87222117               14.10881699                0.11725445               -0.29179194               -0.00451995                0.19384895                1.04573967               11.44498917                3.91866303
               9.00627482                4.81172132               14.04694215                0.38370186               -0.07595938                0.01851069                0.06125645                0.31177809                3.06392140                2.17798962
              10.00702994                4.74633834               13.92435093                0.87690646                0.18934025                0.21604534               -0.65840655                0.00759246                0.01870034                0.70282108
              11.01006163                4.68168500               13.80146491                1.00000000                0.30316903                0.41400494               -1.38419758               -0.04562947                0.00815295               -0.75993396
               1.08010132                6.28884481               14.15318252                1.00000000               -0.15226553               -0.25819006                0.86942407               -0.04600203                0.02561501                1.12080686
               2.07857866                6.22265455               14.01822772                0.67741825               -0.04343510               -0.05144396                0.15077972               -0.00845291                0.08988927               -0.51982107
               3.07923261                6.15579526               13.88449664                0.04595431                0.24450835                0.15950434               -0.56351259                0.42563961                8.84232136               -2.12761057
               4.08346883                6.09660703               13.92461390                0.00010000                0.28637922                0.20067924               -0.26734202                1.00923878               18.25322486               -0.47393433
               5.08496020                6.03843810               13.98099498                0.00010000                0.02480555                0.13049935               -0.04827715                1.15801400               19.12747519                0.42585209
               6.08396494                5.98116096               14.04077054                0.00010000               -0.22063001                0.04284472                0.17177330                1.22145636               19.36069364                1.41780139
               7.08054760                5.92526185               14.10393983                0.00010000               -0.46075641               -0.05114221                0.39041500                1.25175995               19.61197846                2.54898153
               8.07474981                5.87152700               14.17064119                0.12696484               -0.46086171               -0.14515883                0.60004665                0.80475667               12.74958207                3.84463932
               9.07133036                5.81123051               14.09813883                0.39923407               -0.18135334               -0.11101004                0.42590895                0.21471758                2.90219421                2.01384549
              10.07112274                5.74794784               13.96838613                0.90167112                0.09688758                0.10879669               -0.33609061                0.00661966                0.02514034                0.58088785
              11.07326812                5.68540442               13.83826560                1.00000000                0.21453720                0.33033542               -1.10173749               -0.04427219                0.01089260               -0.85668582
               1.14480926                7.28660798               14.12403296                1.00000000               -0.08112890               -0.19065569                0.65012610               -0.04436755                0.02816410                1.08961444
               2.14399797                7.22252711               13.98088801                0.65055001                0.03379326                0.02653501               -0.10798008               -0.00425505                0.10927111               -0.54784417
               3.14548512                7.15782496               13.83930665                0.03465487                0.35927334                0.24871583               -0.86173482                0.32198547               10.53126572               -2.14701911
               4.15118343                7.09863002               13.90462986                0.00010000                0.38531887                0.20730986               -0.44758631                0.75499689               21.24306809               -0.61503954
               5.15319150                7.03966717               13.97955296                0.00010000                0.02478700                0.11651977               -0.08099135                0.86040983               21.80447260                0.30887011
               6.15167917                6.98141867               14.05867290                0.00010000               -0.32058387                0.01606296                0.28229516                0.90682192               22.12476818                1.25236637
               7.14677982                6.92437422               14.14257675                0.00010000               -0.65017851               -0.11737090                0.65205025                0.90764234               22.50430797                2.34952852
               8.13867560                6.86931799               14.23164591                0.13626064               -0.63157393               -0.29198222                1.03025932                0.52694219               14.04186617                3.70303182
               9.13414834                6.80950112               14.14829248                0.41371890               -0.28435923               -0.23108251                0.77911047                0.11965069                2.72241622                1.92728965
              10.13298842                6.74851427               14.01149055                0.92436358                0.00573327                0.00687898               -0.02221564                0.00491632                0.03017373                0.52216582
              11.13426301                6.68829171               13.87425038                1.00000000                0.12745891                0.24888344               -0.82616078               -0.04363161                0.01213065               -0.89003606
               1.20737570                8.28503170               14.09450566                1.00000000               -0.00991216               -0.12701247                0.43126828               -0.04246531                0.03431945                1.05445721
               2.20727658                8.22318525               13.94321533                0.62302758                0.10968585                0.10644676               -0.36518845               -0.00020211                0.13476771               -0.58955341
               3.20956942                8.16076958               13.79387968                0.02324805                0.47249865                0.34171977               -1.15675714                0.16931451               12.15242589               -2.10896958
               4.21672655                8.10075323               13.88297241                0.00010000                0.49051603                0.20193324               -0.61994912                0.44012584               24.17106243               -0.67221049
               5.21937974                8.04076849               13.97650030                0.00010000                0.03338887                0.09020728               -0.11466939                0.56865246               24.45287556                0.18433834
               6.21739433                7.98148222               14.07413543                0.00010000               -0.42893091                0.01393092                0.38512767                0.59805356               24.83213360                0.95712998
               7.21080112                7.92291444               14.17833528                0.00010000               -0.86162872               -0.13483295                0.90505806                0.51292516               25.43089402                1.89846582
               8.20016176                7.86568736               14.29092278                0.14538514               -0.81370098               -0.41385731                1.46263085                0.19690790               15.43950177                3.33771153
               9.19452710                7.80660886               14.19789330                0.42758862               -0.38656423               -0.34317638                1.12259021                0.02508172                2.60032807                1.81409357
              10.19243047                7.74808541               14.05425310                0.94565828               -0.08432523               -0.09138935                0.28534141                0.00135926                0.04118132                0.52529381
              11.19284060                7.69038209               13.91004042                1.00000000                0.04101255                0.17100269               -0.55570191               -0.04368466                0.01599986               -0.87771273
               1.26765286                9.28406773               14.06460776                1.00000000                0.06031850               -0.06780865                0.21432561               -0.04085796                0.02274629                0.87330511
               2.26825604                9.22465605               13.90499362                0.59557121                0.18252855                0.18815380               -0.62091172                0.00203933                0.22641524               -0.55361897
               3.27130343                9.16465936               13.74940369                0.01208082                0.58654990                0.43004290               -1.43962235               -0.05195687               13.80316160               -1.61951921
               4.27998704                9.10266868               13.86135501                0.00010000                0.62660629                0.12480752               -0.77050900                0.13013399               26.98855322               -0.45090256
               5.28383555                9.04147132               13.97187970                0.00010000                0.07536288                0.06624475               -0.14600855                0.29403726               26.92507195                0.08926321
               6.28149430                8.98169729               14.08555395                0.00010000               -0.55011841                0.01930204                0.47050421                0.31724544               27.33831051                0.53135114
               7.27283319                8.92167756               14.20774406                0.00010000               -1.12874808               -0.06056492                1.12210448                0.15320543               28.31072481                1.08020641
               8.25891934                8.86104085               14.34479444                0.15475820               -1.02906336               -0.44994901                1.86026139               -0.09958750               17.06592884                2.18560900
               9.25225192                8.80263759               14.24592902                0.44164846               -0.48384828               -0.43771403                1.45112593               -0.07334622                2.75484405                1.29397332
              10.24924237                8.74668648               14.09735754                0.96688871               -0.17279806               -0.18694690                0.59158868               -0.00482697                0.12727903                0.48995538
              11.24879596                8.69171177               13.94598417                1.00000000               -0.04464134                0.09473053               -0.28786225               -0.04556426               -0.00997849               -0.72308146
               1.32538191               10.28367553               14.03139963                1.00000000                0.13438326               -0.03922045               -0.01054583                0.10018482                0.46725669                0.71132970
               2.32672574               10.22694832               13.86800423                0.78927006                0.25678685                0.22922743               -0.86542661                0.13171573                0.92671215               -0.49084849
               3.33051765               10.16937044               13.71375691                0.50262683                0.78957637                0.47110843               -1.67192511               -0.26352524               15.57478750               -1.17939940
               4.34251727               10.10324938               13.84336741                0.43808807                0.78571143                0.05806968               -0.88697050               -0.11082964               29.31868107               -0.22502572
               5.34623188               10.04209339               13.96589936                0.43216917                0.05078638                0.06220682               -0.17507391                0.17057637               28.99508057                0.07537289
               6.34353300                9.98186826               14.09141130                0.45333164               -0.58551024                0.01709713                0.53025807                0.18435766               29.46163432                0.32166797
               7.33452167                9.92170314               14.22637864                0.49911363               -1.31615105                0.00255795                1.27627900               -0.09014564               30.70401983                0.63524912
               8.31720998                9.85668838               14.38095090                0.58059127               -1.35535644               -0.43524711                2.13419506               -0.36336382               18.85811648                1.34341961
               9.30741454                9.79785458               14.28527876                0.72556112               -0.69751122               -0.47830075                1.73302612               -0.10083262                3.73684950                0.85490028
              10.30325975                9.74434648               14.13939208                0.99041324               -0.27678992               -0.23400062                0.89273888                0.12284438                0.77518518                0.43563440
              11.30187875                9.69227670               13.98465095                1.00000000               -0.13810086                0.05649366               -0.00319679                0.10130135                0.33435929               -0.57921179
               0.73918733                0.35775103               15.34544624                1.00000000               -0.54720097               -0.61248980                2.12647859               -0.12242836               -0.84816113                0.89960352
               1.73371532                0.27207740               15.24650964                1.00000000               -0.45049958               -0.45057253                1.60931590               -0.08255548               -0.86104436               -0.03139091
               2.73017733                0.18620293               15.14730066                0.70558991               -0.15375710               -0.31220317                1.08883346                0.06611253               -0.55978957               -0.80924869
               3.73064017                0.10357710               15.05446700                0.52098470                0.31109639               -0.17862373                0.57803805                0.27828009                1.17722480               -0.09844218
               4.73639926                0.03098122               14.99047743                0.44790119                0.58234648               -0.08240404                0.11010197                0.25455723                4.01595220               -0.08594894
               5.74228710               -0.03005627               14.95577714                0.45305230                0.31417954                0.03299830               -0.32896580                0.11316269                5.31617705               -0.00380601
               6.74268285               -0.08998777               14.91907417                0.52916496               -0.03708452                0.18342369               -0.75829909                0.18832139                3.82624964                0.06511726
               7.74154541               -0.15883991               14.85457413                0.68611107                0.04046656                0.33745382               -1.22613254                0.19235460                1.32365999                0.11105992
               8.74349218               -0.23605716               14.76715083                0.95224672                0.36963631                0.49523976               -1.74174393                0.06255561               -0.25974279                0.39499777
               9.74893814               -0.31648377               14.67047501                1.00000000                0.64665268                0.64804921               -2.28634851               -0.07182925               -0.67220732                0.24274899
              10.75642524               -0.39690314               14.57457826                1.00000000                0.74870983                0.80439161               -2.81294769               -0.13210420               -0.62493268               -0.62498460
               0.82363667                1.35162613               15.31181611                1.00000000               -0.49728614               -0.58209722                1.91090754               -0.04307279               -0.04845971                1.15979260
               1.81866381                1.26757167               15.21221961                1.00000000               -0.42740287               -0.41548409                1.39340205               -0.00699293                0.01874719               -0.07393788
               2.81508861                1.18308090               15.11391737                0.26369638               -0.38149882               -0.27209437                0.87764596                0.17269226                1.16053704               -1.19661582
               3.81103383                1.10179086               15.03711852                0.00010000               -0.46635467               -0.15708087                0.44628673                0.68874002                3.37574904               -1.45106466
               4.80576152                1.03015718               14.98297325                0.00010000               -0.35653029                0.27391239                0.03501181                1.37060143                6.06152229                0.42606230
               5.80390322                0.97027371               14.95962067                0.00010000                0.15981854                0.12283843               -0.32591866                1.67377220                7.46498574                0.35455050
               6.80895789                0.91184647               14.93395699                0.00627967                0.63002153               -0.01407181               -0.67323554                1.37864532                5.84064462                0.27265290
               7.81650366                0.84453462               14.87934905                0.23347624                0.69908898                0.34359459               -1.06889265                0.72781891                3.27839010                1.49486531
               8.82293967                0.76889524               14.80343936                0.63818244                0.60695918                0.46355250               -1.51416173                0.23786224                1.50129236                1.16162238
               9.82864284                0.68999672               14.71361547                1.00000000                0.62919500                0.60437047               -2.00352775                0.02352902                0.48982555                0.56834811
              10.83552357                0.61114077               14.61737716                1.00000000                0.68807288                0.76088763               -2.53841111               -0.05141328                0.17521543               -0.66600385
               0.90643478                2.34610908               15.28334133                1.00000000               -0.43140945               -0.52338952                1.71348414               -0.04485828                0.14721705                1.38198688
               1.90212068                2.26376772               15.17704010                0.79169859               -0.35113912               -0.34748026                1.17138461               -0.00963798                0.24969202               -0.30418901
               2.89941199                2.18076105               15.07272800                0.10138109               -0.23909941               -0.18542172                0.65194950                0.17508674                1.56179940               -1.98779073
               3.89733869                2.10043548               14.99264428                0.00010000               -0.20417788                0.13696235                0.21072936                1.27840121                6.41603186               -1.24744539
               4.89532844                2.03645947               14.98544117                0.00010000               -0.16327177                0.44069733                0.02245119                2.30092583                9.61609672                0.55510329
               5.89407326                1.97240050               14.97023385                0.00010000                0.03332053                0.19500945               -0.23727189                2.44641504                9.06684228                0.87119204
               6.89599485                1.90973080               14.95267602                0.00010000                0.24898821               -0.06696655               -0.50497124                2.31486530                8.72868076                1.20090107
               7.89905302                1.84803198               14.93159265                0.09031537                0.33962415                0.14990472               -0.76721209                1.37924460                5.72467337                2.74388106
               8.90278733                1.77321389               14.85492128                0.35168174                0.40550813                0.41026905               -1.18385725                0.30498590                2.19237119                2.98561961
               9.90716319                1.69560364               14.76313097                0.85225890                0.51607690                0.52532503               -1.69786240                0.03863101                0.83662252                1.11566252
              10.91310887                1.61831461               14.65918983                1.00000000                0.59456830                0.67565446               -2.27142931               -0.04359284                0.23450497               -0.59672036
               0.98742223                3.34115834               15.25410805                1.00000000               -0.36031484               -0.46284204                1.50853248               -0.04835173                0.04244223                1.28607301
               1.98381908                3.26062207               15.13810000                0.74158141               -0.27498228               -0.27662873                0.91547499               -0.01362291                0.11297623               -0.50695157
               2.98192258                3.17937247               15.02344629                0.07668564               -0.14578255               -0.09264114                0.33427622                0.35434369                3.70171965               -2.35565444
               3.98090343                3.10453011               14.97920130                0.00010000               -0.10537846                0.35819441                0.18482361                1.27320916                9.52725376                0.08839400
               4.97981502                3.03897113               14.98166478                0.00010000               -0.06716162                0.21855763                0.00782548                1.85192186               11.84768986                0.38923690
               5.97956020                2.97417390               14.98480178                0.00010000               -0.00956501                0.14807640               -0.14582872                1.97127262               11.72610182                1.20651175
               6.97962371                2.91050714               14.98582256                0.00010000                0.05226277                0.06694041               -0.31303243                1.91276463               11.30696831                2.16007350
               7.98060545                2.84753272               14.98145772                0.09497442                0.09220047                0.01128108               -0.51063369                1.33681059                8.53207239                3.28307290
               8.98146772                2.77710062               14.92764372                0.34527682                0.18546438                0.30608860               -0.73219284                0.41356015                3.21376970                3.52877929
               9.98431474                2.70050322               14.81712891                0.80962224                0.38810226                0.43966004               -1.34570733                0.01372262                0.21603313                1.21945889
              10.98922977                2.62465386               14.70314962                1.00000000                0.49150284                0.59479977               -1.98818133               -0.04724081                0.04722069               -0.51300082
               1.06654028                4.33685224               15.22366731                1.00000000               -0.29061857               -0.39580676                1.29336001               -0.04706031                0.02114356                1.20962689
               2.06363409                4.25823514               15.09879535                0.71666566               -0.19747241               -0.20107352                0.66059627               -0.01244777                0.06626875               -0.52892360
               3.06259083                4.17890822               14.97476847                0.06589715               -0.02149387               -0.00488702                0.03350496                0.43800751                5.67465452               -2.28333042
               4.06320422                4.10759937               14.96205401                0.00010000                0.00661238                0.26107260                0.06014309                1.21664147               12.78910324               -0.25865851
               5.06272308                4.04083062               14.98133778                0.00010000               -0.06207581                0.17212116                0.00434757                1.56721806               14.42619675                0.54937930
               6.06196270                3.97536203               15.00262594                0.00010000               -0.09158777                0.09985724               -0.04547292                1.63717984               14.47058501                1.44556754
               7.06089132                3.91106961               15.02401010                0.00010000               -0.13834727                0.04057650               -0.10376889                1.63287541               14.40004198                2.55580267
               8.05919575                3.84825760               15.04492820                0.10510935               -0.14016468                0.05165592               -0.18648016                1.14577805               10.56582255                4.04371609
               9.05808803                3.77933566               14.99041320                0.36162463                0.03443207                0.14912284               -0.32717481                0.37231563                3.42189357                2.72811649
              10.05988440                3.70439684               14.86870673                0.83445938                0.28873712                0.33216249               -1.00619396                0.00732579                0.03578435                0.96885135
              11.06386277                3.63021060               14.74630717                1.00000000                0.39783761                0.51535214               -1.69731714               -0.04722087                0.00498433               -0.63292755
               1.14371522                5.33324220               15.19286117                1.00000000               -0.22010762               -0.32600874                1.07580155               -0.04643226                0.02113392                1.18071507
               2.14151414                5.25660060               15.05935054                0.69209874               -0.11983543               -0.12529735                0.40332693               -0.00999131                0.07362713               -0.54278976
               3.14131851                5.17927473               14.92683192                0.05536121                0.08998588                0.07845670               -0.26392970                0.43047673                7.52338517               -2.24269216
               4.14331386                5.10975156               14.94231316                0.00010000                0.10391037                0.20559905               -0.09017284                1.06510021               16.02541625               -0.43465729
               5.14339672                5.04241355               14.98120838                0.00010000               -0.06245242                0.14821765               -0.01445625                1.27550630               17.23097744                0.51850026
               6.14206481                4.97617105               15.02241059                0.00010000               -0.20055339                0.06782402                0.06247793                1.33728303               17.36891912                1.54212385
               7.13938565                4.91131867               15.06558483                0.00010000               -0.34049276               -0.00174730                0.13080652                1.34959662               17.49857344                2.73387615
               8.13525496                4.84856584               15.11068118                0.11507268               -0.33054268               -0.03104627                0.17704219                0.92644554               12.13176511                4.12996861
               9.13277480                4.78008308               15.04751235                0.37781552               -0.08343206                0.00829444                0.05389747                0.28996135                3.36756165                2.31865546
              10.13358632                4.70714647               14.91768025                0.86041231                0.19415125                0.22015918               -0.67443885                0.00663330                0.02236813                0.75571374
              11.13665782                4.63496090               14.78748562                1.00000000                0.30715057                0.43266498               -1.41013080               -0.04550117                0.00809664               -0.79090078
               1.21889484                6.33033207               15.16180750                1.00000000               -0.14930991               -0.25651845                0.85684717               -0.04534008                0.02450471                1.15537461
               2.21740174                6.25572920               15.01970855                0.66679492               -0.04227174               -0.04853885                0.14495920               -0.00688362                0.09089232               -0.56378632
               3.21804941                6.18047736               14.87888032                0.04459649                0.19828269                0.16350277               -0.56178140                0.36867443                9.35071053               -2.24983949
               4.22136740                6.11171135               14.92198083                0.00010000                0.18821551                0.20419998               -0.26076665                0.86580127               19.23331480               -0.54036267
               5.22181372                6.04379498               14.98055515                0.00010000               -0.07820764                0.13806542               -0.04134126                0.98443735               20.07732566                0.43505865
               6.21980324                5.97671851               15.04250982                0.00010000               -0.31626256                0.04431613                0.17417181                1.02496390               20.31914211                1.49575382
               7.21548847                5.91103466               15.10782141                0.00010000               -0.54214921               -0.06133715                0.38377648                1.04142155               20.57503783                2.69975830
               8.20896026                5.84763667               15.17654743                0.12473133               -0.50909219               -0.16569879                0.57913860                0.67296589               13.53543826                4.08009651
               9.20530662                5.77950155               15.10237697                0.39322164               -0.19105122               -0.11969692                0.42258137                0.19282956                3.20639003                2.13824407
              10.20513923                5.70880002               14.96494881                0.88483953                0.10086306                0.11292966               -0.35020496                0.00531082                0.02724243                0.62325090
              11.20732388                5.63886390               14.82710902                1.00000000                0.21846485                0.34783244               -1.12810396               -0.04440426                0.01045051               -0.89464291
               1.29201416                7.32811183               15.13046572                1.00000000               -0.07829784               -0.18884886                0.63762477               -0.04395369                0.02677748                1.12376479
               2.29123118                7.25562982               14.97978526                0.64078231                0.03478450                0.02917711               -0.11315382               -0.00307428                0.11008310               -0.59090521
               3.29270985                7.18254478               14.83071574                0.03365166                0.30405446                0.25199566               -0.85869407                0.26738284               11.11844498               -2.26670718
               4.29731227                7.11383556               14.90020940                0.00010000                0.26842300                0.22484232               -0.43873666                0.62092325               22.39713151               -0.68226069
               5.29807831                7.04517486               14.97879735                0.00010000               -0.09939306                0.14091009               -0.07242737                0.69066273               22.94090976                0.31250422
               6.29532441                6.97705737               15.06152622                0.00010000               -0.43911967                0.03371068                0.28589979                0.70185682               23.27179100                1.32153788
               7.28929591                6.91009193               15.14907918                0.00010000               -0.75385119               -0.11614437                0.64577422                0.67945753               23.66827558                2.49427637
               8.28024738                6.84525186               15.24185131                0.13413466               -0.69139377               -0.30606052                1.00808011                0.38093165               14.91555937                3.94667825
               9.27546804                6.77768914               15.15609257                0.40790430               -0.29586012               -0.23927048                0.78130150                0.09583822                3.00903342                2.03884226
              10.27433018                6.70940507               15.01121112                0.90779253                0.00869679                0.01005730               -0.03291363                0.00320204                0.03163812                0.55587201
              11.27564197                6.64191755               14.86585573                1.00000000                0.13117937                0.26413466               -0.85158250               -0.04399595                0.01156899               -0.93447863
               1.36297979                8.32655509               15.09875120                1.00000000               -0.00724839               -0.12474424                0.41893784               -0.04230577                0.03308598                1.08932125
               2.36290731                8.25631274               14.93954459                0.61435480                0.11057682                0.10868170               -0.36975221                0.00057668                0.13617550               -0.63095767
               3.36519133                8.18551727               14.78234716                0.02269154                0.41242382                0.34369322               -1.15234778                0.12524702               12.82093630               -2.22017375
               4.37115578                8.11620820               14.87684255                0.00010000                0.36069166                0.23342715               -0.60887900                0.33318954               25.49741433               -0.72433839
               5.37240516                8.04661318               14.97542072                0.00010000               -0.11162351                0.13224193               -0.10416651                0.42086530               25.76985262                0.18680427
               6.36892331                7.97739272               15.07802828                0.00010000               -0.57610179                0.05430979                0.39039530                0.40467483               26.16610416                1.00989045
               7.36088312                7.90871177               15.18737771                0.00010000               -0.99708164               -0.11232455                0.90021095                0.27716669               26.80211169                2.01629711
               8.34898168                7.84151546               15.30546225                0.14347707               -0.89064713               -0.41731977                1.44180064                0.03200445               16.39981788                3.56214508
               9.34307018                7.77471614               15.20916351                0.42220329               -0.40034101               -0.35102631                1.13126336               -0.00362322                2.86407194                1.91221760
              10.34097486                7.70900117               15.05707450                0.92979931               -0.08255976               -0.08974472                0.27911349               -0.00082392                0.04375580                0.55455268
              11.34141899                7.64414660               14.90436138                1.00000000                0.04441264                0.18315800               -0.57929394               -0.04419919                0.01594461               -0.92673671
               1.43165274                9.32561695               15.06668598                1.00000000                0.06277874               -0.06490618                0.20230620               -0.04083868                0.02023442                0.90478276
               2.43228053                9.25780346               14.89876866                0.58806857                0.18332944                0.18990002               -0.62508481                0.00246619                0.23261146               -0.58832731
               3.43531933                9.18941865               14.73504955                0.01198873                0.52998109                0.43042211               -1.43420629               -0.07794317               14.56212233               -1.69837956
               4.44288015                9.11850410               14.85372810                0.00010000                0.49958784                0.16429471               -0.75818945                0.07074820               28.48404446               -0.47547809
               5.44531109                9.04781970               14.97049730                0.00010000               -0.07804216                0.11778963               -0.13389526                0.20193370               28.40933501                0.09117717
               6.44131931                8.97814356               15.09031000                0.00010000               -0.72972921                0.08023962                0.47717893                0.18534179               28.84649074                0.55967247
               7.43071650                8.90784544               15.21896533                0.00010000               -1.32181034                0.00556752                1.11850252               -0.03166166               29.88509000                1.14589721
               8.41488310                8.83690547               15.36332166                0.15307576               -1.14033179               -0.42486181                1.84149497               -0.25920018               18.12365023                2.32961033
               9.40790987                8.77066861               15.26052169                0.43673695               -0.49999271               -0.44395163                1.46645285               -0.11137012                3.01257708                1.36011506
              10.40488325                8.70761017               15.10327188                0.95188050               -0.17213672               -0.18665563                0.59034251               -0.00739443                0.13749250                0.51540125
              11.40446713                8.64558071               14.94299614                1.00000000               -0.04161139                0.10371239               -0.30939794               -0.04591786               -0.01065445               -0.76577219
               1.49779000               10.32525697               15.03123376                1.00000000                0.13649289               -0.03599835               -0.02176896                0.09910340                0.48121245                0.73839841
               2.49915493               10.26011074               14.85933666                0.78584817                0.25709079                0.23072830               -0.86923781                0.13087760                0.96546464               -0.51933013
               3.50293182               10.19412571               14.69708139                0.50270679                0.75073818                0.47070658               -1.66630275               -0.26958376               16.43456988               -1.23151784
               4.51416970               10.11949409               14.83458439                0.43877996                0.69362759                0.09899881               -0.87320960               -0.12888276               30.97431449               -0.24031483
               5.51680437               10.04896897               14.96423438                0.43241899               -0.07826416                0.11492712               -0.16164828                0.12449940               30.63080652                0.07466815
               6.51260441                9.97899751               15.09676874                0.45320198               -0.76581898                0.08539476                0.53739936                0.12121799               31.12467776                0.33577810
               7.50148799                9.90882312               15.23914014                0.49874845               -1.58149558                0.09776871                1.27210495               -0.22181558               32.44461198                0.67071652
               8.48097450                9.83301823               15.40220987                0.57979910               -1.56749584               -0.38872381                2.11396885               -0.54016075               20.02921838                1.43056101
               9.47013807                9.76583711               15.30270353                0.72321599               -0.75298151               -0.48315021                1.75048031               -0.16468794                4.04837756                0.89683274
              10.46591487                9.70526806               15.14833795                0.98311904               -0.27892654               -0.23421140                0.89450614                0.12234903                0.82651497                0.45886902
              11.46455954                9.64622085               14.98451930                1.00000000               -0.13553272                0.06401316               -0.02332355                0.10451983                0.35665088               -0.61392505
               0.83202125                0.40165111               16.36667249                1.00000000               -0.54675928               -0.61038230                2.11979861               -0.12237441               -0.88773134                0.93817363
               1.82655366                0.30712805               16.26257934                1.00000000               -0.45231232               -0.44876572                1.60561074               -0.08230228               -0.90239512               -0.03229631
               2.82297500                0.21236771               16.15818889                0.70368903               -0.16826722               -0.30935290                1.08920723                0.05814985               -0.59792387               -0.84494518
               3.82318831                0.12059721               16.06027709                0.52102579                0.26361101               -0.17492315                0.58303249                0.24889458                1.16127281               -0.09823874
               4.82824722                0.03799660               15.99161229                0.44814386                0.51510769               -0.06950510                0.11538999                0.22646256                4.02738032               -0.08703227
               5.83349046               -0.03393907               15.95246769                0.45293306                0.28354052                0.05208548               -0.33420845                0.09777660                5.34303615               -0.00106905
               6.83391803               -0.10461989               15.91140554                0.52837229               -0.01695058                0.19875154               -0.77618727                0.16545679                3.84589227                0.07026277
               7.83315145               -0.18325785               15.84219448                0.68403403                0.07269005                0.34778258               -1.25019652                0.16983458                1.31008053                0.11782557
               8.83537183               -0.26944909               15.74960756                0.94732346                0.38918642                0.50217810               -1.76707372                0.05206456               -0.30648067                0.41191089
               9.84093518               -0.35852466               15.64748247                1.00000000                0.65676558                0.65487398               -2.31227542               -0.07083175               -0.72251430                0.26095684
              10.84850714               -0.44755011               15.54633074                1.00000000                0.75719634                0.81278853               -2.83663915               -0.13131184               -0.66523858               -0.67120833
               0.92532056                1.39554728               16.33088164                1.00000000               -0.49482288               -0.57987366                1.90363205               -0.04320374               -0.05052151                1.20649095
               1.92037233                1.30264039               16.22612231                1.00000000               -0.42493182               -0.41335991                1.38653048               -0.00698495                0.01756734               -0.07831662
               2.91682192                1.20927418               16.12267714                0.26057777               -0.37547592               -0.26854144                0.87422912                0.16163824                1.20401233               -1.23887486
               3.91286281                1.11884798               16.04159915                0.00010000               -0.45209671               -0.15099585                0.45028734                0.63852794                3.47471098               -1.50226270
               4.90777999                1.03730155               15.98334055                0.00010000               -0.35431679                0.24882382                0.03800207                1.25119477                6.20178354                0.45609358
               5.90577648                0.96658178               15.95631948                0.00010000                0.12260007                0.12089778               -0.33483915                1.52971803                7.64605226                0.40061547
               6.91023199                0.89736763               15.92711442                0.00525751                0.57439625                0.00103483               -0.69567650                1.26279040                6.00983673                0.32193119
               7.91726440                0.82021997               15.86852244                0.23071392                0.66469479                0.34550455               -1.09672693                0.66003549                3.39981413                1.57479780
               8.92352589                0.73557269               15.78816148                0.63074105                0.60064869                0.46795878               -1.54168448                0.21722420                1.57604621                1.23161470
               9.92927737                0.64802407               15.69346377                1.00000000                0.63467941                0.60990720               -2.02697784                0.02187679                0.51956637                0.59787866
              10.93621947                0.56057777               15.59188035                1.00000000                0.69420991                0.77081465               -2.56109817               -0.05158176                0.18142298               -0.71589678
               1.01697095                2.39005363               16.30042288                1.00000000               -0.42838937               -0.52100931                1.70461368               -0.04451356                0.15840453                1.43381141
               2.01268706                2.29886085               16.18871501                0.77973720               -0.34853831               -0.34449067                1.16179252               -0.00949070                0.27220134               -0.32832270
               3.01000018                2.20699688               16.07923060                0.09931713               -0.23777780               -0.17969930                0.64392238                0.16241057                1.63739320               -2.08220352
               4.00793150                2.11757729               15.99477167                0.00010000               -0.22314363                0.12365969                0.21560484                1.15863223                6.65962921               -1.24337294
               5.00553731                2.04297308               15.98568727                0.00010000               -0.19563763                0.39444705                0.02624821                2.08296031                9.95748469                0.60467897
               6.00401875                1.96847888               15.96784349                0.00010000               -0.00008322                0.16940314               -0.24174522                2.22438552                9.37721700                0.95615510
               7.00553565                1.89540081               15.94756163                0.00010000                0.20641759               -0.06778407               -0.51899574                2.12241566                9.04480909                1.30501766
               8.00814710                1.82365224               15.92378632                0.08895284                0.31882841                0.13461913               -0.79466239                1.27231501                5.97797555                2.87467109
               9.01191222                1.73991008               15.84297223                0.34706310                0.41102665                0.39880591               -1.20635745                0.27402533                2.32362777                3.16984417
              10.01636763                1.65367348               15.74604815                0.83737599                0.52279483                0.52720807               -1.71889425                0.03135097                0.88842057                1.17988053
              11.02236811                1.56786618               15.63636668                1.00000000                0.60004789                0.69001816               -2.29327442               -0.04630122                0.25608209               -0.64214761
               1.10681585                3.38512710               16.26913814                1.00000000               -0.35765801               -0.46062083                1.49875337               -0.04706902                0.04219526                1.32939702
               2.10323927                3.29575058               16.14721402                0.73033118               -0.27310751               -0.27337057                0.90745408               -0.01151554                0.11842950               -0.54744224
               3.10135370                3.20568020               16.02676445                0.07503736               -0.15900032               -0.08674486                0.32853285                0.32203566                3.93412782               -2.48759377
               4.10005926                3.12132117               15.98112472                0.00010000               -0.14080468                0.32283196                0.19897849                1.12909850                9.96427760                0.13641175
               5.09853760                3.04519049               15.98177167                0.00010000               -0.11114024                0.19127784                0.01267998                1.65284836               12.28715389                0.43647385
               6.09783646                2.96996984               15.98333989                0.00010000               -0.05153285                0.12165417               -0.14786506                1.77180393               12.18107085                1.29018031
               7.09750695                2.89601195               15.98264701                0.00010000                0.01824847                0.04448834               -0.32371055                1.72522475               11.74975622                2.27817563
               8.09820142                2.82291236               15.97626293                0.09342053                0.07391028               -0.01919918               -0.53056916                1.22311898                8.96083434                3.42166828
               9.09898515                2.74354881               15.92026342                0.34067188                0.18734359                0.28219560               -0.74401889                0.38074857                3.44183686                3.74262718
              10.10194830                2.65856824               15.80358791                0.79569497                0.39614466                0.43895710               -1.36243160                0.01089968                0.23309435                1.29796501
              11.10690804                2.57437814               15.68315852                1.00000000                0.49597479                0.61317959               -2.00980667               -0.04877318                0.04993332               -0.54523616
               1.19478260                4.38084122               16.23654491                1.00000000               -0.28789554               -0.39406023                1.28343929               -0.04593527                0.02102900                1.24628964
               2.19190365                4.29339344               16.10536477                0.70544357               -0.19561469               -0.19817917                0.65320700               -0.00996165                0.06884433               -0.57067764
               3.19087031                4.20526198               15.97508907                0.06426288               -0.04502359               -0.00055099                0.02951979                0.38583449                6.00979952               -2.40604821
               4.19100318                4.12403393               15.96270127                0.00010000               -0.04623519                0.23376507                0.06857656                1.06253695               13.41463726               -0.28310938
               5.18994561                4.04679863               15.98141241                0.00010000               -0.11849012                0.15096634                0.00928031                1.37238488               15.02049199                0.58817349
               6.18863337                3.97091197               16.00217275                0.00010000               -0.14239873                0.07752635               -0.04686672                1.43656113               15.07428830                1.53126444
               7.18709763                3.89629058               16.02293623                0.00010000               -0.17803777                0.01256647               -0.11312402                1.43304420               14.99891875                2.68881708
               8.18507262                3.82326825               16.04298636                0.10322697               -0.16131617                0.01444805               -0.20459256                1.01594565               11.14059832                4.22644855
               9.18387131                3.74555400               15.98709765                0.35634948                0.03418402                0.12909222               -0.33554748                0.34131050                3.70618138                2.89781302
              10.18575630                3.66245262               15.85856674                0.81930093                0.29507703                0.33211477               -1.02123529                0.00657540                0.04294595                1.03341224
              11.18977285                3.58012977               15.72921908                1.00000000                0.40165495                0.53435015               -1.71948279               -0.04704630                0.00593165               -0.66259318
               1.28079269                5.37724589               16.20356298                1.00000000               -0.21734255               -0.32467297                1.06569183               -0.04555438                0.02064379                1.21499873
               2.27861926                5.29178700               16.06334999                0.68109509               -0.11813959               -0.12246725                0.39631011               -0.00783398                0.07571312               -0.58668382
               3.27842990                5.20566918               15.92418532                0.05381718                0.05770424                0.08263356               -0.26693434                0.36568578                7.95002712               -2.36456347
               4.27977335                5.12599647               15.94143942                0.00010000                0.03386832                0.19348020               -0.08577070                0.89988813               16.82989824               -0.48483154
               5.27910726                5.04820982               15.98109020                0.00010000               -0.13488060                0.13758343               -0.01090521                1.07780061               17.99627118                0.54049132
               6.27707574                4.97152037               16.02303755                0.00010000               -0.26478624                0.05242198                0.06077373                1.12508058               18.14179535                1.62770619
               7.27381154                4.89626328               16.06685429                0.00010000               -0.39094103               -0.02639515                0.12060734                1.12970329               18.26883962                2.88173859
               8.26925692                4.82320132               16.11235783                0.11297271               -0.35922725               -0.06547260                0.15558630                0.78488839               12.82711187                4.34238153
               9.26662699                4.74613065               16.04802010                0.37208138               -0.08764446               -0.00694131                0.04823401                0.25973435                3.68262698                2.46483684
              10.26750403                4.66521053               15.91086215                0.84432184                0.19929097                0.22146765               -0.68831522                0.00568668                0.02664631                0.80998252
              11.27061281                4.58506514               15.77326230                1.00000000                0.31087866                0.45058418               -1.43333554               -0.04534623                0.00821689               -0.82502372
               1.36478931                6.37434776               16.17031946                1.00000000               -0.14656214               -0.25531593                0.84658099               -0.04471493                0.02361064                1.18843702
               2.36332368                6.29094410               16.02112691                0.65628736               -0.04073772               -0.04570111                0.13830613               -0.00513800                0.09260532               -0.60820780
               3.36397455                6.20691466               15.87326101                0.04325775                0.15683061                0.16773997               -0.56384850                0.29797093                9.85981880               -2.37140438
               4.36646030                6.12790353               15.91939857                0.00010000                0.10015834                0.20633021               -0.25753637                0.69533759               20.21372511               -0.60510103
               5.36597772                6.04955030               15.98016815                0.00010000               -0.16893840                0.14209351               -0.03834533                0.78212391               21.02533638                0.44738934
               6.36308153                5.97196040               16.04425397                0.00010000               -0.39834837                0.04053005                0.17200860                0.79848957               21.27426328                1.57794561
               7.35801075                5.89576267               16.11161536                0.00010000               -0.60892597               -0.07799153                0.37209954                0.80035512               21.53333483                2.85486940
               8.35090301                5.82195880               16.18222396                0.12254778               -0.54769853               -0.19322884                0.55322723                0.51844934               14.33463324                4.31810480
               9.34705678                5.74541517               16.10659046                0.38730466               -0.19837322               -0.13196162                0.42051211                0.16326878                3.52730207                2.26972355
              10.34693554                5.66688197               15.96138203                0.86832553                0.10499633                0.11477458               -0.36233488                0.00401397                0.03006629                0.66839068
              11.34915671                5.58914146               15.81570352                1.00000000                0.22211622                0.36423210               -1.15173815               -0.04443341                0.01013566               -0.93440750
               1.44670571                7.37213957               16.13678545                1.00000000               -0.07561065               -0.18749458                0.62728388               -0.04359227                0.02559551                1.15663618
               2.44594960                7.29087297               15.97862493                0.63102523                0.03620842                0.03192971               -0.11947466               -0.00175760                0.11164596               -0.63440759
               3.44742988                7.20902398               15.82213277                0.03262187                0.25474246                0.25588191               -0.85990471                0.19828635               11.70638453               -2.38577656
               4.45104445                7.13012307               15.89585513                0.00010000                0.16314958                0.24221154               -0.43462666                0.45843513               23.55130734               -0.74688554
               5.45069287                7.05105169               15.97810441                0.00010000               -0.21056473                0.16271599               -0.06904536                0.49106239               24.07554893                0.31973530
               6.44683316                6.97233097               16.06439090                0.00010000               -0.54363137                0.04679262                0.28381748                0.46648283               24.41612354                1.39544684
               7.43982024                6.89470344               16.15549223                0.00010000               -0.84298770               -0.12042202                0.63335927                0.42022038               24.82814937                2.64459798
               8.42997341                6.81933674               16.25180751                0.13199297               -0.74255225               -0.32494444                0.97957759                0.21286371               15.80784831                4.19581906
               9.42496920                6.74349142               16.16391851                0.40205859               -0.30576926               -0.24955395                0.78385414                0.06543958                3.31724669                2.15881001
              10.42385802                6.66750602               16.01083228                0.89132651                0.01179907                0.01168672               -0.04236730                0.00152701                0.03400356                0.59362246
              11.42520518                6.59234978               15.85721873                1.00000000                0.13471603                0.27827438               -0.87474176               -0.04417306                0.01112324               -0.97965288
               1.52645066                8.37059786               16.10288442                1.00000000               -0.00465271               -0.12293725                0.40858863               -0.04219450                0.03203788                1.12317797
               2.52640413                8.29158269               15.93582028                0.60552696                0.11197602                0.11122254               -0.37583825                0.00147606                0.13844163               -0.67292881
               3.52869018                8.21203229               15.77083272                0.02203823                0.35985779                0.34667791               -1.15283202                0.06608172               13.49042892               -2.33108035
               4.53360129                8.13274776               15.87079483                0.00010000                0.24504456                0.26471063               -0.60370124                0.19740274               26.82389962               -0.77482897
               5.53359107                8.05280462               15.97441697                0.00010000               -0.24209286                0.17147551               -0.10000840                0.24479892               27.08519716                0.19215009
               6.52875943                7.97289626               16.08194334                0.00010000               -0.70908398                0.09096542                0.38886055                0.18362675               27.49837962                1.06695159
               7.51940939                7.89335423               16.19633950                0.00010000               -1.11935606               -0.09351888                0.88811383                0.01333691               28.17107668                2.14011315
               8.50637231                7.81545991               16.31975880                0.14145484               -0.96065505               -0.42256533                1.41325369               -0.15337822               17.38409101                3.79425507
               9.50019629                7.74042409               16.22051857                0.41660137               -0.41322926               -0.35957756                1.13913677               -0.03800849                3.15355450                2.01938957
              10.49810772                7.66711571               16.05983537                0.91371719               -0.08052803               -0.08874852                0.27299922               -0.00286994                0.04750594                0.58846142
              11.49858573                7.59470694               15.89845454                1.00000000                0.04780055                0.19443101               -0.60132746               -0.04441777                0.01601809               -0.97591882
               1.60389217                9.36968083               16.06865388                1.00000000                0.06525270               -0.06249705                0.19207995               -0.04085511                0.01770050                0.93569345
               2.60454470                9.29309743               15.89249193                0.58020259                0.18471356                0.19215167               -0.63114892                0.00299894                0.23966883               -0.62372327
               3.60758644                9.21595753               15.72071956                0.01172128                0.48377417                0.43220505               -1.43436926               -0.12044967               15.32214280               -1.77760343
               4.61422018                9.13541729               15.84619122                0.00010000                0.39269580                0.19913713               -0.75256500               -0.01135230               29.97974309               -0.49968916
               5.61544036                9.05448120               15.96920179                0.00010000               -0.21320473                0.16539821               -0.12904454                0.09027899               29.89218512                0.09444039
               6.60995609                8.97415028               16.09509753                0.00010000               -0.89585157                0.13850421                0.47615320                0.03566172               30.35350886                0.59048038
               7.59752333                8.89283307               16.23011411                0.00010000               -1.50600518                0.07068054                1.10681639               -0.23507264               31.45959343                1.21601254
               8.57983598                8.81088543               16.38162434                0.15117167               -1.24850453               -0.39683670                1.81441288               -0.43372757               19.21094891                2.48055012
               9.57255323                8.73629987               16.27525807                0.43139055               -0.51591069               -0.44982730                1.47952241               -0.15483306                3.29970360                1.43329616
              10.56951777                8.66573105               16.10916439                0.93624125               -0.17094407               -0.18619953                0.58749719               -0.00974513                0.14904758                0.54473921
              11.56913435                8.59623840               15.93979621                1.00000000               -0.03834149                0.11224701               -0.33027948               -0.04609803               -0.01133509               -0.80880898
               1.67880036               10.36934792               16.03096426                1.00000000                0.13870430               -0.03329046               -0.03142888                0.09859907                0.49468156                0.76524674
               2.68018740               10.29542572               15.85061948                0.78218186                0.25804806                0.23282984               -0.87519627                0.13069422                1.00475483               -0.54856006
               3.68396132               10.22067640               15.68043085                0.50267736                0.73315855                0.47188616               -1.66646422               -0.29727279               17.29583411               -1.28453566
               4.69485057               10.13673051               15.82590322                0.43942597                0.63511671                0.13132190               -0.86660698               -0.16515097               32.63052598               -0.25657815
               5.69666366               10.05611259               15.96266639                0.43265732               -0.18648900                0.16313887               -0.15603298                0.06912163               32.26405132                0.07364006
               6.69112079                9.97566634               16.10215928                0.45305631               -0.93454366                0.15160612                0.53629771                0.04923363               32.78485670                0.35019885
               7.67797278                9.89476784               16.25182074                0.49832765               -1.84449202                0.19347758                1.25941626               -0.36221236               34.18417541                0.70748778
               8.65423095                9.80752318               16.42323028                0.57886537               -1.78593875               -0.33622538                2.08539824               -0.72751769               21.23408231                1.52316675
               9.64225401                9.73142755               16.32028837                0.72058996               -0.81283341               -0.48723235                1.76486490               -0.23649581                4.39409695                0.94419278
              10.63797429                9.66339172               16.15728220                0.97538449               -0.28024697               -0.23393350                0.89330990                0.12186873                0.88092983                0.48463614
              11.63664907                9.59695188               15.98418448                1.00000000               -0.13252174                0.07134824               -0.04368402                0.10748816                0.37949551               -0.64924442
               0.92961901                0.44809621               17.38784221                1.00000000               -0.54679918               -0.60906452                2.11461600               -0.12248139               -0.92444122                0.97649673
               1.92415102                0.34434552               17.27862185                1.00000000               -0.45489540               -0.44758546                1.60350756               -0.08157193               -0.94054419               -0.03673327
               2.92052111                0.24032752               17.16908481                0.70157707               -0.18544002               -0.30658218                1.08931607                0.04822498               -0.63317130               -0.88221685
               3.92044222                0.13896819               17.06612765                0.52096794                0.21175779               -0.17171741                0.58655221                0.21507028                1.14456284               -0.09640001
               4.92475626                0.04578407               16.99278523                0.44835944                0.44561805               -0.05799958                0.11773360                0.19458894                4.03155723               -0.08813670
               5.92935458               -0.03778122               16.94909297                0.45279913                0.25588268                0.06914492               -0.34186023                0.08036333                5.35732740                0.00198830
               6.92987392               -0.12000028               16.90355042                0.52752393                0.00952080                0.21292873               -0.79540193                0.13987002                3.85474687                0.07597757
               7.92954500               -0.20913932               16.82957020                0.68179293                0.11003305                0.35780557               -1.27484762                0.14446339                1.29046689                0.12511418
               8.93207458               -0.30492678               16.73180936                0.94206247                0.41098397                0.50896447               -1.79254155                0.04007341               -0.35705142                0.42861570
               9.93776468               -0.40322723               16.62422950                1.00000000                0.66746772                0.66158407               -2.33829382               -0.06992671               -0.77512939                0.28112182
              10.94542393               -0.50142654               16.51784547                1.00000000                0.76592528                0.82134364               -2.86043176               -0.13043915               -0.70652766               -0.71956694
               1.03214489                1.44200557               17.34988875                1.00000000               -0.49252398               -0.57837023                1.89874529               -0.04361080               -0.05348964                1.25216586
               2.02721965                1.33986967               17.23995022                0.99566581               -0.42264351               -0.41179822                1.38113984               -0.00689515                0.01784080               -0.08627852
               3.02369202                1.23726169               17.13140195                0.25717217               -0.36775016               -0.26489256                0.87558496                0.14817231                1.25153011               -1.28477689
               4.01986465                1.13725102               17.04612426                0.00010000               -0.43075797               -0.14628708                0.45597697                0.57873821                3.57423470               -1.55199222
               5.01507686                1.04520408               16.98373330                0.00010000               -0.34071267                0.21689258                0.04073916                1.11546287                6.33232743                0.48680479
               6.01305039                0.96291023               16.95292389                0.00010000                0.09374030                0.11422056               -0.34445157                1.36567950                7.81148843                0.45010431
               7.01695167                0.88212901               16.92004346                0.00415568                0.52012437                0.01494203               -0.71862504                1.13013927                6.16786593                0.37744335
               8.02345288                0.79443873               16.85741451                0.22772135                0.62837981                0.34621160               -1.12487871                0.58453979                3.51793287                1.65692910
               9.02951926                0.70016287               16.77260567                0.62282634                0.59312065                0.47178065               -1.56952921                0.19366824                1.65250078                1.30489094
              10.03531529                0.60338861               16.67307591                1.00000000                0.63997959                0.61521668               -2.05063891                0.01982469                0.55112833                0.62928334
              11.04231885                0.50678689               16.56615520                1.00000000                0.70035605                0.78100135               -2.58404438               -0.05169579                0.18771318               -0.76798823
               1.13301860                2.43652881               17.31743361                1.00000000               -0.42616061               -0.51906578                1.69920408               -0.04345037                0.16630827                1.48319472
               2.12875699                2.33610956               17.20027595                0.76752485               -0.34576985               -0.34230987                1.15120171               -0.00787148                0.29217913               -0.35339764
               3.12610320                2.23502967               17.08560645                0.09712550               -0.23411929               -0.17497851                0.63066988                0.14676592                1.71904916               -2.17681389
               4.12407460                2.13604245               16.99695637                0.00010000               -0.23484425                0.10388631                0.22359465                1.02046888                6.90707741               -1.23540206
               5.12140631                2.05012192               16.98596614                0.00010000               -0.21656800                0.33856940                0.02895136                1.83633980               10.29124818                0.65595178
               6.11974324                1.96450319               16.96539895                0.00010000               -0.02290593                0.13690134               -0.24799244                1.97162572                9.67761849                1.04677821
               7.12094819                1.88029856               16.94229611                0.00010000                0.17293446               -0.07164765               -0.53504914                1.90129289                9.35014901                1.41811950
               8.12320193                1.79778491               16.91569940                0.08749597                0.30249322                0.11636571               -0.82302728                1.14815661                6.22931246                3.01237163
               9.12699806                1.70450884               16.83079413                0.34225030                0.41676061                0.38324380               -1.22947127                0.23762082                2.46025375                3.36381377
              10.13153715                1.60907711               16.72875309                0.82225718                0.52976967                0.52776619               -1.74025560                0.02254390                0.94264646                1.24707394
              11.13759345                1.51419349               16.61332434                1.00000000                0.60563078                0.70549233               -2.31528231               -0.04994459                0.27889315               -0.69006528
               1.23211438                3.43162425               17.28408312                1.00000000               -0.35530199               -0.45878064                1.49131796               -0.04495111                0.04236531                1.37031599
               2.22856136                3.33302347               17.15624908                0.71899527               -0.27099692               -0.27119672                0.90015496               -0.00761467                0.12462360               -0.58750165
               3.22669444                3.23376212               17.03001694                0.07332890               -0.16897978               -0.08316329                0.32281744                0.28262003                4.17647590               -2.61783164
               4.22518176                3.13932875               16.98318087                0.00010000               -0.16757607                0.27900152                0.21171083                0.96561755               10.40554702                0.18401352
               5.22334292                3.05197547               16.98191838                0.00010000               -0.14377461                0.15768212                0.01577965                1.42873171               12.71776073                0.48486882
               6.22230627                2.96564825               16.98184448                0.00010000               -0.08235584                0.08932362               -0.15267873                1.54509984               12.62871386                1.37758145
               7.22169580                2.88069605               16.97934835                0.00010000               -0.00502683                0.01700589               -0.33769362                1.51128398               12.18546413                2.40163561
               8.22220574                2.79676605               16.97084633                0.09183736                0.06418383               -0.05466222               -0.55469308                1.08880290                9.39330239                3.56793773
               9.22297948                2.70782774               16.91276334                0.33601477                0.19378933                0.25132032               -0.75625705                0.34055582                3.67711165                3.96570998
              10.22608152                2.61394394               16.78988028                0.78180030                0.40538622                0.43568672               -1.37912429                0.00768689                0.24999357                1.37933028
              11.23108720                2.52089674               16.66295349                1.00000000                0.50056820                0.63307413               -2.03106603               -0.05055617                0.05245545               -0.58015774
               1.32932113                4.42735319               17.24933609                1.00000000               -0.28543134               -0.39283151                1.27572807               -0.04477183                0.02119312                1.28106637
               2.32646682                4.33068562               17.11185949                0.69425581               -0.19354062               -0.19593431                0.64574280               -0.00710394                0.07231684               -0.61337413
               3.32545032                4.23336640               16.97535887                0.06261915               -0.06466034                0.00246944                0.02359295                0.32360220                6.35118482               -2.52911263
               4.32517361                4.14162248               16.96342554                0.00010000               -0.08944403                0.20144399                0.07533209                0.88671721               14.04395818               -0.31313762
               5.32366144                4.05327557               16.98152339                0.00010000               -0.16244808                0.12460882                0.01133580                1.15241343               15.60997445                0.62730339
               6.32192465                3.96628966               17.00168860                0.00010000               -0.18026801                0.04978447               -0.05196886                1.20967350               15.67259979                1.61954091
               7.32005608                3.88063868               17.02174762                0.00010000               -0.20391762               -0.02108733               -0.12697077                1.20741773               15.59282162                2.82542828
               8.31784630                3.79669166               17.04083635                0.10136368               -0.17123984               -0.02950876               -0.22817578                0.86611043               11.72264736                4.41246497
               9.31663128                3.70953524               16.98370225                0.35112458                0.03877928                0.10296282               -0.34351177                0.30213575                4.00034494                3.07289768
              10.31862189                3.61779084               16.84828203                0.80437675                0.30227188                0.32934459               -1.03542198                0.00576237                0.05030607                1.09949615
              11.32267672                3.52685497               16.71191752                1.00000000                0.40548362                0.55396230               -1.74027352               -0.04685409                0.00695027               -0.69512116
               1.42455409                5.42376762               17.21417500                1.00000000               -0.21480103               -0.32374277                1.05752077               -0.04473208                0.02036750                1.24756463
               2.42240608                5.32910478               17.06727674                0.67017882               -0.11622299               -0.11977620                0.38883905               -0.00553121                0.07853752               -0.63138561
               3.42222963                5.23381151               16.92149323                0.05228305                0.03004334                0.08677089               -0.27267003                0.28883212                8.38017157               -2.48664527
               4.42300694                5.14335763               16.94059774                0.00010000               -0.02528069                0.17855673               -0.08405129                0.71086361               17.63725792               -0.53777309
               5.42172401                5.05446764               16.98099028                0.00010000               -0.19351547                0.12264937               -0.01119533                0.85449575               18.75937403                0.56295656
               6.41913663                4.96664394               17.02362607                0.00010000               -0.31409284                0.03172040                0.05435234                0.88616546               18.91074732                1.71566820
               7.41544215                4.88027431               17.06799698                0.00010000               -0.42526265               -0.05722864                0.10500540                0.88305121               19.03437252                3.03224532
               8.41063138                4.79617587               17.11379291                0.11090526               -0.37595686               -0.10712847                0.12827821                0.62221092               13.53373370                4.55561467
               9.40792302                4.70988700               17.04847703                0.36642919               -0.08771675               -0.02688154                0.04329789                0.22091340                4.01209335                2.61640458
              10.40887704                4.62053083               16.90391394                0.82854488                0.20494253                0.22034350               -0.70082732                0.00473012                0.03149453                0.86587788
              11.41202187                4.53197599               16.75881891                1.00000000                0.31448241                0.46821749               -1.45446131               -0.04513967                0.00848346               -0.86172969
               1.51775217                6.42087834               17.17873912                1.00000000               -0.14398631               -0.25440077                0.83811320               -0.04417262                0.02291924                1.22010462
               2.51631230                6.32829010               17.02247468                0.64584729               -0.03890222               -0.04282433                0.13086767               -0.00329058                0.09507760               -0.65328808
               3.51697412                6.23510182               16.86760335                0.04192069                0.12112279                0.17230129               -0.56918429                0.21406177               10.37102153               -2.49291799
               4.51873476                6.14519362               16.91683010                0.00010000                0.02454597                0.20719800               -0.25819584                0.49932850               21.19617019               -0.66980197
               5.51746504                6.05572855               16.97978825                0.00010000               -0.24467307                0.14265516               -0.04031508                0.55299776               21.97220990                0.46132130
               6.51384130                5.96692407               17.04594999                0.00010000               -0.46399319                0.03164988                0.16405083                0.54439867               22.22619801                1.66296991
               7.50818518                5.87949410               17.11526340                0.00010000               -0.65817361               -0.10072791                0.35403963                0.53125795               22.48666134                3.01303426
               8.50067782                5.79454909               17.18761197                0.12037677               -0.57452915               -0.22712327                0.52080232                0.34250970               15.14989281                4.55764048
               9.49669459                5.70899761               17.11078722                0.38143230               -0.20251618               -0.14748830                0.41884382                0.12569014                3.86791908                2.40755644
              10.49662750                5.62219771               16.95770211                0.85207023                0.10945092                0.11466710               -0.37316449                0.00273453                0.03365352                0.71597144
              11.49888361                5.53621932               16.80407426                1.00000000                0.22561111                0.37987446               -1.17313238               -0.04435640                0.00997686               -0.97585701
               1.60884711                7.41867960               17.14301139                1.00000000               -0.07303280               -0.18640574                0.61862831               -0.04329810                0.02460816                1.18839842
               2.60811678                7.32824830               16.97739577                0.62125530                0.03801153                0.03485338               -0.12688469               -0.00032665                0.11401914               -0.67854610
               3.60960734                7.23725754               16.81351764                0.03155819                0.21249958                0.26035253               -0.86485940                0.11522629               12.29614740               -2.50486429
               4.61236678                7.14750159               16.89151687                0.00010000                0.07230871                0.25909514               -0.43563173                0.26889870               24.70710945               -0.81034360
               5.61105352                7.05732074               16.97741644                0.00010000               -0.30538596                0.18151198               -0.07177742                0.26354537               25.20927476                0.32914434
               6.60625906                6.96727694               17.06720257                0.00010000               -0.63056140                0.05505268                0.27480992                0.20330419               25.55791094                1.47269881
               7.59844229                6.87825975               17.16174637                0.00010000               -0.91404948               -0.13009736                0.61342233                0.13302457               25.98346323                2.79907632
               8.58797807                6.79163341               17.26144286                0.12980931               -0.78270422               -0.34826800                0.94330850                0.02420484               16.72128885                4.44894032
               9.58278820                6.70693723               17.17176965                0.39615818               -0.31340184               -0.26166197                0.78602691                0.02804343                3.65007878                2.28608187
              10.58171003                6.62282417               17.01036378                0.87495035                0.01516615                0.01202863               -0.05109230               -0.00011271                0.03725921                0.63466978
              11.58309153                6.53957348               16.84836089                1.00000000                0.13814975                0.29157152               -0.89595859               -0.04419951                0.01082039               -1.02560095
               1.69774882                8.41715022               17.10692298                1.00000000               -0.00209848               -0.12143114                0.39980366               -0.04212849                0.03115808                1.15619391
               2.69772783                8.32898717               16.93202782                0.59655186                0.11382692                0.11407500               -0.38331970                0.00250418                0.14159568               -0.71565630
               3.70002536                8.24030887               16.75929052                0.02129863                0.31608463                0.35054559               -1.15758960               -0.00780475               14.16180270               -2.44235432
               4.70404953                8.15037552               16.86476853                0.00010000                0.14676187                0.29501734               -0.60461780                0.03379674               28.15194013               -0.82470738
               5.70296059                8.05935879               16.97342055                0.00010000               -0.35405747                0.20691727               -0.10298049                0.04222858               28.39987158                0.19927340
               6.69696838                7.96802512               17.08580549                0.00010000               -0.82356961                0.12301442                0.37936185               -0.06242604               28.82904345                1.12718270
               7.68648920                7.87689216               17.20513998                0.00010000               -1.22419708               -0.07876489                0.86738984               -0.27510583               29.53697182                2.26867248
               8.67248444                7.78758373               17.33372732                0.13931684               -1.02122530               -0.42942097                1.37567582               -0.35738687               18.39449904                4.03269196
               9.66606470                7.70376437               17.23194625                0.41079534               -0.42477155               -0.36862498                1.14559089               -0.07848831                3.47153652                2.13423188
              10.66398900                7.62243828               17.06253448                0.89745934               -0.07818425               -0.08830229                0.26669379               -0.00487939                0.05220039                0.62603644
              11.66450101                7.54205075               16.89233483                1.00000000                0.05120067                0.20505591               -0.62200108               -0.04448975                0.01621405               -1.02540203
               1.78433066                9.41625098               17.07052757                1.00000000                0.06775664               -0.06045362                0.18328969               -0.04089994                0.01513365                0.96617287
               2.78500822                9.33052980               16.88614569                0.57203552                0.18661187                0.19486374               -0.63888802                0.00365338                0.24757964               -0.65993212
               3.78806289                9.24426845               16.70636217                0.01130763                0.44922813                0.43517792               -1.43930363               -0.17942293               16.08412527               -1.85761625
               4.79399278                9.15340193               16.83867680                0.00010000                0.30927968                0.22815102               -0.75365498               -0.11571051               31.47710146               -0.52407889
               5.79424849                9.06145909               16.96791641                0.00010000               -0.32578062                0.20768936               -0.13208550               -0.03979856               31.37458384                0.09846147
               6.78747717                8.96973723               17.09983306                0.00010000               -1.04334636                0.19264269                0.46637551               -0.12979092               31.85945151                0.62315782
               7.77338156                8.87668445               17.24110166                0.00010000               -1.67595291                0.13337318                1.08572667               -0.45404694               33.03327955                1.28982403
               8.75395811                8.78304499               17.39960992                0.14907201               -1.35088354               -0.36570226                1.77753658               -0.62078168               20.32926470                2.63741087
               9.74636389                8.69956473               17.29011214                0.42567623               -0.53160239               -0.45519953                1.49001981               -0.20417334                3.61819809                1.51237261
              10.74332607                8.62105813               17.11502183                0.92011797               -0.16935431               -0.18565598                0.58349131               -0.01208953                0.16156866                0.57700407
              11.74297680                8.54367459               16.93639055                1.00000000               -0.03492636                0.12043330               -0.35052648               -0.04615881               -0.01202453               -0.85229840
               1.86837319               10.41594115               17.03060518                1.00000000                0.14102421               -0.03098306               -0.03984281                0.09858246                0.50778936                0.79198460
               2.86978343               10.33288444               16.84183274                0.77832080                0.25957863                0.23546444               -0.88303674                0.13108481                1.04476110               -0.57859836
               3.87356476               10.24901243               16.66375211                0.50255989                0.73806228                0.47439755               -1.67152571               -0.34710808               18.15956822               -1.33862442
               4.88454468               10.15493854               16.81725225                0.44003129                0.61322831                0.15366076               -0.86710012               -0.21980297               34.28861580               -0.27391934
               5.88582933               10.06351258               16.96111372                0.43288466               -0.26987392                0.20534909               -0.15876913                0.00505594               33.89576046                0.07212985
               6.87914720                9.97187798               17.10749469                0.45290015               -1.08644113                0.21407474                0.52600529               -0.03064532               34.44240175                0.36476119
               7.86410051                9.87955962               17.26432847                0.49786039               -2.09793406                0.28751703                1.23701352               -0.50851966               35.92200756                0.74539073
               8.83718852                9.78026969               17.44391783                0.57781289               -2.00662079               -0.27752969                2.04691595               -0.92192154               22.47372374                1.62045527
               9.82396809                9.69466038               17.33800083                0.71773414               -0.87755817               -0.49043530                1.77619257               -0.31680609                4.77477987                0.99573276
              10.81963735                9.61872516               17.16620415                0.96732416               -0.28115967               -0.23329616                0.89037273                0.12108047                0.93774891                0.51252169
              11.81834490                9.54445941               16.98364562                1.00000000               -0.12924577                0.07848194               -0.06390967                0.11023448                0.40298506               -0.68531510
               1.03197315                0.49708796               18.40896482                1.00000000               -0.54729692               -0.60887587                2.11084986               -0.11966346               -0.96049484                1.01526975
               2.02650018                0.38373665               18.29464949                1.00000000               -0.45836853               -0.44759202                1.60209976               -0.07836767               -0.97935926               -0.04523913
               3.02280578                0.27008908               18.17997521                0.69928333               -0.20605186               -0.30320750                1.08880514                0.03423697               -0.66862929               -0.91760476
               4.02237914                0.15867598               18.07200813                0.52081908                0.15536364               -0.16965705                0.58987240                0.17613520                1.12736175               -0.09530423
               5.02591305                0.05433774               17.99396697                0.44854757                0.37463417               -0.04809981                0.11766079                0.15952958                4.02934154               -0.08942581
               6.02987182               -0.04156115               17.94563049                0.45265531                0.23113457                0.08390378               -0.35140017                0.06121802                5.36106227                0.00518816
               7.03053574               -0.13608641               17.89549750                0.52662709                0.04150158                0.22572226               -0.81551547                0.11214211                3.85444209                0.08215717
               8.03070186               -0.23644420               17.81669752                0.67941114                0.15178800                0.36735493               -1.29966745                0.11675007                1.26586177                0.13286353
               9.03357150               -0.34246940               17.71375673                0.93651001                0.43473104                0.51551351               -1.81780269                0.02675770               -0.41085628                0.44491912
              10.03939648               -0.45059505               17.60071659                1.00000000                0.67865713                0.66812022               -2.36414629               -0.06918165               -0.82970882                0.30332941
              11.04714464               -0.55856090               17.48912210                1.00000000                0.77481669                0.83000421               -2.88419390               -0.12953343               -0.74849389               -0.76976850
               1.14412783                1.49099920               18.36885655                1.00000000               -0.49118849               -0.57824036                1.89475489               -0.04188314               -0.05607646                1.29811941
               2.13921594                1.37926073               18.25374511                0.98202250               -0.42246739               -0.41213040                1.38267543               -0.00422883                0.02259309               -0.10099584
               3.13567848                1.26705700               18.14018884                0.25351336               -0.35998906               -0.26217330                0.88749372                0.13068236                1.30339932               -1.34404409
               4.13201616                1.15697941               18.05071869                0.00010000               -0.40257846               -0.14316702                0.46297763                0.50669778                3.67061777               -1.60235247
               5.12762691                1.05385674               17.98415533                0.00010000               -0.31600406                0.17846442                0.04382937                0.96525630                6.45209531                0.51567084
               6.12569608                0.95927788               17.94943045                0.00010000                0.07358872                0.10275048               -0.35441615                1.18416964                7.96117192                0.50145632
               7.12909869                0.86617081               17.91274192                0.00298110                0.46823843                0.02723616               -0.74164850                0.98269488                6.31491403                0.43791340
               8.13506085                0.76722935               17.84602486                0.22451598                0.59079082                0.34560255               -1.15287365                0.50241982                3.63285903                1.74080157
               9.14091450                0.66268574               17.75677090                0.61449307                0.58447803                0.47490451               -1.59731118                0.16744541                1.73074610                1.38120852
              10.14675041                0.55608615               17.65245099                1.00000000                0.64503289                0.62028193               -2.07429235                0.01736409                0.58459377                0.66263490
              11.15381516                0.44973914               17.54019946                1.00000000                0.70647498                0.79137451               -2.60716940               -0.05175975                0.19410145               -0.82187444
               1.25461244                2.48552316               18.33440696                1.00000000               -0.42546367               -0.51841372                1.69518259               -0.04274126                0.17030551                1.53062063
               2.25035780                2.37549404               18.21173905                0.75507619               -0.34558481               -0.34218631                1.14639643               -0.00477852                0.30990782               -0.38314775
               3.24770074                2.26484561               18.09184399                0.09481698               -0.23222217               -0.17429304                0.62582199                0.12957700                1.81230765               -2.28577154
               4.24571336                2.15581264               17.99924357                0.00010000               -0.23905216                0.07764301                0.23373196                0.86570084                7.15995895               -1.22724415
               5.24291970                2.05790703               17.98626630                0.00010000               -0.22361044                0.27369384                0.03045304                1.56417598               10.61556309                0.70615009
               6.24124115                1.96049386               17.96288364                0.00010000               -0.03407624                0.09769665               -0.25600562                1.69179832                9.96816308                1.14069624
               7.24223817                1.86445831               17.93686064                0.00010000                0.14970882               -0.07888301               -0.55290619                1.65448414                9.64532004                1.53803023
               8.24423533                1.77046785               17.90732578                0.08593281                0.29127152                0.09524077               -0.85182492                1.00810074                6.47924898                3.15481530
               9.24806360                1.66702869               17.81838280                0.33723696                0.42275129                0.36345758               -1.25285483                0.19608372                2.60231200                3.56734395
              10.25269035                1.56181059               17.71124304                0.80692426                0.53699328                0.52698755               -1.76183724                0.01227553                0.99932210                1.31748107
              11.25880347                1.45726659               17.59006103                1.00000000                0.61131187                0.72213322               -2.33747037               -0.05462081                0.30293880               -0.73976670
               1.36333124                3.48063093               18.29896450                1.00000000               -0.35333200               -0.45762467                1.48573709               -0.04403146                0.04379412                1.40820732
               2.35979792                3.37241700               18.16521712                0.70754777               -0.26899074               -0.26978711                0.89360153               -0.00451881                0.13309546               -0.62852756
               3.35795142                3.26357114               18.03322080                0.07155457               -0.17645761               -0.08210845                0.31712342                0.23712405                4.42866353               -2.74909804
               4.35626876                3.15853227               17.98535894                0.00010000               -0.18611040                0.22708336                0.22397452                0.78819678               10.85021998                0.22685220
               5.35422921                3.05933062               17.98208727                0.00010000               -0.16439988                0.11828882                0.01675556                1.18309418               13.13958146                0.53268595
               6.35298077                2.96123182               17.98028632                0.00010000               -0.10074192                0.05136694               -0.16053428                1.29412606               13.06882594                1.46696479
               7.35221437                2.86459315               17.97589314                0.00010000               -0.01641411               -0.01539006               -0.35502900                1.27352447               12.61371825                2.52866578
               8.35265248                2.76913416               17.96516907                0.09020012                0.06395315               -0.09484368               -0.58243414                0.93486708                9.83061054                3.71932916
               9.35349344                2.66995489               17.90513828                0.33126243                0.20527686                0.21347855               -0.76907224                0.29303320                3.92117072                4.19822904
              10.35675802                2.56662590               17.77600542                0.76788081                0.41586522                0.42991463               -1.39593055                0.00418606                0.26677549                1.46414471
              11.36181074                2.46418181               17.64253720                1.00000000                0.50527212                0.65476681               -2.05212317               -0.05253967                0.05476145               -0.61671562
               1.47015967                4.47637066               18.26205947                1.00000000               -0.28324547               -0.39183855                1.26935754               -0.04397029                0.02158494                1.31399413
               2.46732721                4.37009830               18.11827962                0.68305807               -0.19158558               -0.19364492                0.63840096               -0.00466751                0.07668426               -0.65771806
               3.46632796                4.26320344               17.97556092                0.06095013               -0.08046970                0.00603199                0.01630054                0.25084573                6.69963409               -2.65493079
               4.46571782                4.16035431               17.96420791                0.00010000               -0.12229608                0.16520919                0.07978058                0.69110294               14.67767498               -0.35031101
               5.46388203                4.06027280               17.98163913                0.00010000               -0.19283391                0.09367360                0.01002117                0.91020502               16.19454422                0.66505766
               6.46186114                3.96152120               18.00113337                0.00010000               -0.20378581                0.01702636               -0.06130365                0.95904601               16.26527852                1.70890833
               7.45980632                3.86415051               18.02039681                0.00010000               -0.21451053               -0.06003743               -0.14568243                0.95837771               16.18106160                2.96413783
               8.45757093                3.76857098               18.03842285                0.09948519               -0.16868944               -0.07980879               -0.25724818                0.69734077               12.31394103                4.60051922
               9.45643253                3.67129826               17.98022741                0.34588940                0.04881118                0.07094460               -0.35169151                0.25461489                4.30691565                3.25367977
              10.45854715                3.57040888               17.83785830                0.78959845                0.31041717                0.32410485               -1.04923922                0.00488398                0.05783112                1.16772869
              11.46264087                3.47036193               17.69441361                1.00000000                0.40937188                0.57459988               -1.76014193               -0.04660522                0.00798679               -0.72946146
               1.57499656                5.47279416               18.22471340                1.00000000               -0.21247765               -0.32286022                1.05065247               -0.04416005                0.02028255                1.27865936
               2.57287178                5.36854410               18.07112677                0.65929485               -0.11421170               -0.11694947                0.38097993               -0.00342934                0.08209915               -0.67711359
               3.57271233                5.26369178               17.91873191                0.05074226                0.00748386                0.09142202               -0.28054804                0.20019760                8.81453698               -2.60974026
               4.57302146                5.16183645               17.93975839                0.00010000               -0.07229515                0.16170316               -0.08550298                0.49966487               18.44818892               -0.59490958
               5.57126642                5.06120409               17.98086629                0.00010000               -0.23687397                0.10388812               -0.01597825                0.60779401               19.52028498                0.58441454
               6.56828398                4.96157235               18.02412459                0.00010000               -0.34671384                0.00610498                0.04250954                0.62287536               19.67550842                1.80453268
               7.56433215                4.86339240               18.06895439                0.00010000               -0.44162182               -0.09382690                0.08329923                0.61206624               19.79458631                3.18404877
               8.55945155                4.76753799               18.11492340                0.10883593               -0.37921584               -0.15546600                0.09441160                0.43937473               14.25411963                4.76875191
               9.55674783                4.67137378               18.04888606                0.36080135               -0.08297552               -0.05122936                0.03832627                0.17312511                4.35890392                2.77318843
              10.55779204                4.57310800               17.89684561                0.81298616                0.21123592                0.21713416               -0.71262433                0.00372214                0.03688452                0.92363433
              11.56097255                4.47567380               17.74417307                1.00000000                0.31805132                0.48602029               -1.47409689               -0.04486558                0.00886087               -0.90036472
               1.67777658                6.46991346               18.18708173                1.00000000               -0.14155770               -0.25352367                0.83092009               -0.04378696                0.02239657                1.25070271
               2.67636100                6.36775931               18.02374426                0.63542669               -0.03685108               -0.03975977                0.12270687               -0.00148110                0.09829069               -0.69918221
               3.67703956                6.26503188               17.86187732                0.04057106                0.09189031                0.17738681               -0.57725239                0.11742312               10.88491056               -2.61503606
               4.67819881                6.16358837               17.91423465                0.00010000               -0.03687678                0.20706601               -0.26303043                0.27925341               22.18126640               -0.73584578
               5.67630202                6.06235057               17.97936185                0.00010000               -0.30342354                0.13990890               -0.04785781                0.29905821               22.91802033                0.47541462
               6.67213034                5.96164329               18.04753499                0.00010000               -0.51100113                0.01785533                0.14951493                0.26504365               23.17467285                1.74935420
               7.66608200                5.86227397               18.11869615                0.00010000               -0.68766459               -0.12920083                0.32870291                0.23677166               23.43444270                3.17282041
               8.65837705                5.76546166               18.19264001                0.11818701               -0.58784905               -0.26688950                0.48082593                0.14620290               15.98391124                4.79747533
               9.65432502                5.67027367               18.11496734                0.37555931               -0.20277373               -0.16598778                0.41688648                0.07959694                4.23137564                2.55106202
              10.65432157                5.57475157               17.95391874                0.83600534                0.11434683                0.11295243               -0.38330356                0.00142921                0.03800602                0.76573948
              11.65661195                5.48008233               17.79224087                1.00000000                0.22903835                0.39516932               -1.19283340               -0.04418275                0.00996708               -1.01878271
               1.77842912                7.46772369               18.14915802                1.00000000               -0.07053865               -0.18539484                0.61121356               -0.04310035                0.02379297                1.21934371
               2.77772374                7.36774891               17.97608724                0.61144212                0.04013026                0.03801702               -0.13530226                0.00116633                0.11721369               -0.72344550
               3.77923173                7.26723952               17.80483558                0.03045414                0.17820555                0.26544010               -0.87303572                0.01874156               12.88812665               -2.62453822
               4.78128785                7.16597777               17.88714249                0.00010000               -0.00195328                0.27526591               -0.44184445                0.05370011               25.86499404               -0.87385021
               5.77919266                7.06400227               17.97666886                0.00010000               -0.38131976                0.19697772               -0.08113023                0.01005988               26.34222492                0.33944221
               6.77366145                6.96192945               18.06988710                0.00010000               -0.69717221                0.05830647                0.25811321               -0.08516777               26.69678602                1.55191723
               7.76524922                6.86080838               18.16776068                0.00010000               -0.96427759               -0.14507892                0.58502657               -0.17921284               27.13340019                2.95623205
               8.75437590                6.76220020               18.27067368                0.12756822               -0.80996786               -0.37574775                0.89827349               -0.18376921               17.65853902                4.70455901
               9.74904986                6.66805402               18.17963905                0.39017950               -0.31819690               -0.27537162                0.78730882               -0.01691559                4.01078197                2.41963032
              10.74801196                6.57536705               18.00981043                0.85863483                0.01887495                0.01134112               -0.05952045               -0.00176280                0.04138671                0.67839476
              11.74942736                6.48357719               17.83929956                1.00000000                0.14153979                0.30434558               -0.91564898               -0.04411798                0.01066224               -1.07244676
               1.87686413                8.46620556               18.11088049                1.00000000                0.00043664               -0.12008039                0.39220135               -0.04211640                0.03042519                1.18861242
               2.87686849                8.36851965               17.92815389                0.58743334                0.11606971                0.11724802               -0.39206426                0.00365436                0.14564279               -0.75924700
               3.87918552                8.27034069               17.74768093                0.02047792                0.28207829                0.35520516               -1.16602511               -0.09599276               14.83533429               -2.55450552
               4.88251006                8.16909369               17.85870248                0.00010000                0.06830089                0.32371100               -0.61157477               -0.15652235               29.48190047               -0.87480581
               5.88055154                8.06629012               17.97235736                0.00010000               -0.44445971                0.23774944               -0.11346437               -0.18505768               29.71401347                0.20721503
               6.87362087                7.96280942               18.08953058                0.00010000               -0.91622724                0.14973912                0.36120663               -0.33096559               30.15757787                1.18950362
               7.86222700                7.85937239               18.21368730                0.00010000               -1.30824223               -0.06836605                0.83715418               -0.58499393               30.89865908                2.40071534
               8.84745602                7.75794670               18.34727231                0.13706505               -1.07035704               -0.43785298                1.32811162               -0.57856270               19.43340533                4.27607579
               9.84081985                7.66476624               18.24343038                0.40479843               -0.43464370               -0.37806428                1.15037273               -0.12564455                3.82121087                2.25554826
              10.83876315                7.57497839               18.06516925                0.88106221               -0.07552709               -0.08827921                0.26007972               -0.00691171                0.05777359                0.66650959
              11.83930931                7.48616924               17.88601452                1.00000000                0.05461652                0.21522269               -0.64155489               -0.04446169                0.01651820               -1.07550137
               1.97295862                9.46532208               18.07231967                1.00000000                0.07030771               -0.05865820                0.17560202               -0.04097528                0.01252717                0.99639567
               2.97366170                9.37009387               17.87971417                0.56361087                0.18896062                0.19800037               -0.64811512                0.00443741                0.25635095               -0.69701787
               3.97673783                9.27434362               17.69193349                0.01077045                0.42731333                0.43916656               -1.44829252               -0.25471108               16.84836576               -1.93869854
               4.98220796                9.17245199               17.83111812                0.00010000                0.25189691                0.25037684               -0.76128428               -0.24175733               32.97646718               -0.54905111
               5.98177577                9.06875726               17.96656008                0.00010000               -0.41240477                0.24352196               -0.14329030               -0.18714396               32.85661623                0.10275437
               6.97395987                8.96492423               18.10442504                0.00010000               -1.16818550                0.24144392                0.44723460               -0.30914881               33.36374249                0.65713707
               7.95841206                8.85944106               18.25182864                0.00010000               -1.82745366                0.19248223                1.05439631               -0.68591484               34.60479029                1.36657504
               8.93741080                8.75344314               18.41717507                0.14680021               -1.44533887               -0.33151245                1.72995564               -0.81856411               21.48049316                2.79922561
               9.92950528                8.66049274               18.30505847                0.41965223               -0.54700351               -0.46007156                1.49806703               -0.25991215                3.97099245                1.59635392
              10.92647073                8.57360147               18.12083422                0.90363570               -0.16744353               -0.18504420                0.57857855               -0.01448832                0.17497383                0.61162204
              11.92615641                8.48788164               17.93278568                1.00000000               -0.03143122                0.12831011               -0.37008923               -0.04615616               -0.01272790               -0.89650730
               2.06650104               10.46503240               18.03016740                1.00000000                0.14346556               -0.02896803               -0.04732390                0.09896801                0.52065527                0.81873791
               3.06793570               10.37247966               17.83295874                0.77430091                0.26160664                0.23857879               -0.89255461                0.13198105                1.08567712               -0.60947415
               4.07173318               10.27912402               17.64700034                0.50237007                0.76627901                0.47803955               -1.68074299               -0.41938734               19.02614208               -1.39386627
               5.08326128               10.17410122               17.80856121                0.44060066                0.63016220                0.16492312               -0.87447333               -0.29284146               35.94877131               -0.29236503
               6.08433642               10.07116056               17.95949101                0.43310558               -0.32535971                0.24033034               -0.17008444               -0.06708126               35.52602476                0.07004069
               7.07675408                9.96763830               18.11267939                0.45273579               -1.21733129                0.27140686                0.50596041               -0.11750468               36.09687239                0.37932903
               8.05998979                9.86322204               18.27656101                0.49735431               -2.33605100                0.37809738                1.20407638               -0.65831925               37.65701922                0.78423061
               9.03003306                9.75131645               18.46416860                0.57665874               -2.22632546               -0.21266857                1.99768548               -1.12063446               23.74970335                1.72165742
              10.01546328                9.65556481               18.35581222                0.71469302               -0.94742948               -0.49279272                1.78480726               -0.40614740                5.19283431                1.05067179
              11.01108447                9.57127750               18.17508966                0.95902374               -0.28187264               -0.23239618                0.88622231                0.11990666                0.99674432                0.54214737
              12.00982583                9.48873545               17.98290629                1.00000000               -0.12586429                0.08538017               -0.08363825                0.11273606                0.42709425               -0.72226242
               1.13903977                0.54861815               19.43005921                1.00000000               -0.54863259               -0.60923357                2.10887449               -0.11621912               -0.99923827                1.05178322
               2.13355344                0.42524949               19.31066385                1.00000000               -0.46249469               -0.44893040                1.60248813               -0.07492272               -1.02115587               -0.05044475
               3.12978988                0.30154815               19.19086091                0.69682737               -0.22778733               -0.30361253                1.09091020                0.01922966               -0.70536003               -0.94306255
               4.12899770                0.17964099               19.07792510                0.52058925                0.09654293               -0.16724547                0.59360308                0.13481555                1.10863790               -0.09789069
               5.13172074                0.06361883               18.99513845                0.44871204                0.30237987               -0.04006682                0.11653620                0.12270885                4.02057264               -0.09081195
               6.13504530               -0.04527738               18.94206496                0.45250262                0.20874937                0.09635786               -0.36213313                0.04095366                5.35563523                0.00832594
               7.13589572               -0.15284598               18.88724011                0.52568776                0.07788533                0.23701138               -0.83606773                0.08301337                3.84638302                0.08869268
               8.13660300               -0.26513673               18.80357685                0.67690079                0.19713292                0.37632389               -1.32431047                0.08727149                1.23731527                0.14098729
               9.13983838               -0.38205672               18.69545330                0.93070697                0.46010645                0.52176918               -1.84257949                0.01233285               -0.46725454                0.46063120
              10.14580513               -0.50062943               18.57694657                1.00000000                0.69023276                0.67442947               -2.38960156               -0.06864883               -0.88586304                0.32764314
              11.15364304               -0.61897664               18.46016160                1.00000000                0.78379051                0.83871130               -2.90777801               -0.12863178               -0.79080181               -0.82151963
               1.26124623                1.54252581               19.38778385                1.00000000               -0.49070156               -0.57924422                1.89226290               -0.04052397               -0.05141707                1.34258807
               2.25633921                1.42076019               19.26760373                0.96794931               -0.42299024               -0.41374514                1.38773594               -0.00245588                0.03541326               -0.11857834
               3.25278643                1.29851203               19.14915183                0.24963155               -0.35143499               -0.26329389                0.90117605                0.11316512                1.35529004               -1.40854753
               4.24931051                1.17796854               19.05538382                0.00010000               -0.36897081               -0.13918336                0.47035075                0.42799578                3.75968446               -1.65653823
               5.24540701                1.06321816               18.98460988                0.00010000               -0.28116377                0.13470805                0.04629061                0.80372139                6.56130286                0.54121524
               6.24368724                0.95568620               18.94583557                0.00010000                0.06242618                0.08693110               -0.36491808                0.98864163                8.09531926                0.55326250
               7.24665553                0.84952413               18.90521049                0.00173610                0.41969241                0.03769640               -0.76459751                0.82285219                6.45153152                0.50207859
               8.25208109                0.73862651               18.83435704                0.22111877                0.55262630                0.34368704               -1.18042830                0.41492948                3.74485547                1.82592755
               9.25770806                0.62316097               18.74065944                0.60579173                0.57487563                0.47725290               -1.62475000                0.13885081                1.81088109                1.46029669
              10.26357860                0.50611487               18.63159006                1.00000000                0.64979351                0.62508605               -2.09775125                0.01448659                0.62002749                0.69795351
              11.27070393                0.38941047               18.51401181                1.00000000                0.71253289                0.80185254               -2.63037042               -0.05177903                0.20059397               -0.87717850
               1.38176053                2.53703326               19.35133726                1.00000000               -0.42424186               -0.51949612                1.69177898               -0.04392697                0.17756880                1.57743530
               2.37751811                2.41697459               19.22320388                0.74240950               -0.34578479               -0.34239250                1.14620135               -0.00616160                0.33138306               -0.42104202
               3.37484483                2.29628227               19.09812289                0.09239854               -0.23333160               -0.17243962                0.63007026                0.11111017                1.91203387               -2.41136869
               4.37285148                2.17685732               19.00163101                0.00010000               -0.23836666                0.04664547                0.24462502                0.70199524                7.41382809               -1.22195589
               5.37007750                2.06631299               18.98657520                0.00010000               -0.21696591                0.20190963                0.03028542                1.27020393               10.93108399                0.75325127
               6.36851216                1.95646124               18.96027884                0.00010000               -0.03325207                0.05258109               -0.26598849                1.38923142               10.24917717                1.23576577
               7.36941246                1.84790794               18.93123798                0.00010000                0.13762970               -0.08954639               -0.57249310                1.38538272                9.93127655                1.66255801
               8.37126475                1.74173701               18.89866290                0.08425976                0.28572904                0.07145264               -0.88074283                0.85360567                6.72842309                3.29983295
               9.37512704                1.62748833               18.80573703                0.33202792                0.42903009                0.33933738               -1.27624882                0.14968806                2.74980522                3.78000230
              10.37984536                1.51187229               18.69351634                0.79140614                0.54446001                0.52483543               -1.78353312                0.00057926                1.05839257                1.39120164
              11.38601624                1.39706041               18.56657493                1.00000000                0.61708837                0.73996906               -2.35982077               -0.06044091                0.32818087               -0.79061197
               1.50048503                3.53213589               19.31379786                1.00000000               -0.35180590               -0.45745412                1.48116316               -0.04475515                0.04450462                1.44511211
               2.49696697                3.41391234               19.17412111                0.69596363               -0.26795659               -0.26764907                0.88788745               -0.00458571                0.14169508               -0.67405526
               3.49512590                3.29506323               19.03635941                0.06970604               -0.18236333               -0.07628005                0.31090894                0.18294954                4.69087291               -2.88784647
               4.49331970                3.17890145               18.98766036                0.00010000               -0.19593640                0.16797418                0.23513152                0.59952755               11.29903122                0.26348530
               5.49120717                3.06725635               18.98225349                0.00010000               -0.17213941                0.07423515                0.01507744                0.91928717               13.55201769                0.57847445
               6.48987691                2.95673782               18.97863379                0.00010000               -0.10598741                0.00841536               -0.17167712                1.02186140               13.50152392                1.55668643
               7.48908742                2.84773320               18.97224777                0.00010000               -0.01520516               -0.05238804               -0.37569975                1.01465575               13.03451766                2.65734635
               8.48957281                2.74005556               18.95919765                0.08848897                0.07395586               -0.13946474               -0.61332559                0.76221392               10.27386821                3.87312966
               9.49056654                2.62994771               18.89738189                0.32638750                0.22226475                0.16863623               -0.78255391                0.23815613                4.17528614                4.43997705
              10.49401811                2.51661157               18.76196167                0.75390068                0.42761670                0.42164696               -1.41292210                0.00045492                0.28351189                1.55276398
              11.49911887                2.40420986               18.62191102                1.00000000                0.51007653                0.67847295               -2.07306566               -0.05469212                0.05684105               -0.65399422
               1.61731252                4.52788418               19.27472324                1.00000000               -0.28134696               -0.39086707                1.26369969               -0.04385845                0.02217375                1.34590535
               2.61449905                4.41162161               19.12462751                0.67180134               -0.18989002               -0.19072333                0.63119346               -0.00324657                0.08164067               -0.70356359
               3.61351472                4.29475667               18.97568488                0.05923819               -0.09250701                0.01185370                0.00796712                0.16790225                7.05460146               -2.78317230
               4.61264891                4.18021681               18.96502115                0.00010000               -0.14439254                0.12656226                0.08134807                0.47788304               15.31567785               -0.39612654
               5.61062687                4.06779769               18.98172381                0.00010000               -0.20881843                0.05884293                0.00488839                0.64845417               16.77416560                0.70009148
               6.60847254                3.95662955               19.00046253                0.00010000               -0.21195167               -0.02024242               -0.07520719                0.68721370               16.85207357                1.79785255
               7.60638783                3.84686018               19.01883397                0.00010000               -0.20890107               -0.10386317               -0.16938454                0.68829103               16.76314001                3.10324139
               8.60429452                3.73894772               19.03569139                0.09756198               -0.15268431               -0.13609053               -0.29164858                0.51050855               12.91626674                4.78881895
               9.60333415                3.63086106               18.97666842                0.34059874                0.06488971                0.03315645               -0.36051355                0.19849337                4.62815161                3.44019143
              10.60559231                3.52030523               18.82729724                0.77489083                0.31958437                0.31657492               -1.06302571                0.00392140                0.06554779                1.23852015
              11.60972584                3.41062987               18.67671468                1.00000000                0.41335221                0.59657858               -1.77941473               -0.04627191                0.00901358               -0.76472013
               1.73213300                5.52431855               19.23518805                1.00000000               -0.21034517               -0.32182034                1.04458370               -0.04394164                0.02028469                1.30912078
               2.73002954                5.41009787               19.07489634                0.64839737               -0.11221254               -0.11378120                0.37279434               -0.00173837                0.08623132               -0.72400664
               3.72988874                5.29530031               18.91588227                0.04917967               -0.00966005                0.09703789               -0.29011032                0.10010199                9.25297979               -2.73448465
               4.72983634                5.18143269               18.93888769                0.00010000               -0.10626178                0.14378962               -0.09046203                0.26797790               19.26244431               -0.65706442
               5.72776351                5.06843321               18.98067071                0.00010000               -0.26388217                0.08182929               -0.02566034                0.33992621               20.27870715                0.60357638
               6.72455870                4.95633297               19.02447626                0.00010000               -0.36142164               -0.02404501                0.02485220                0.33753160               20.43566115                1.89282716
               7.72053508                4.84565594               19.06966297                0.00010000               -0.43882959               -0.13579763                0.05515771                0.31909790               20.54879202                3.33560146
               8.71578211                4.73733375               19.11568114                0.10673459               -0.36780938               -0.20996982                0.05364862                0.23726263               14.99060700                4.98041538
               9.71317889                4.63061084               19.04924355                0.35514745               -0.07271931               -0.07975988                0.03275486                0.11592740                4.72591768                2.93496625
              10.71432772                4.52294307               18.88966145                0.79757098                0.21826329                0.21212213               -0.72419274                0.00261780                0.04280352                0.98340081
              11.71754415                4.41614143               18.72933697                1.00000000                0.32164333                0.50436508               -1.49270848               -0.04452213                0.00930847               -0.94034436
               1.84487503                6.52144777               19.19535752                1.00000000               -0.13925100               -0.25254153                0.82458716               -0.04360154                0.02200614                1.28079980
               2.84348252                6.40934599               19.02492881                0.62498923               -0.03465444               -0.03640573                0.11389682                0.00018062                0.10217956               -0.74594527
               3.84418194                6.29669743               18.85605831                0.03919362                0.06965213                0.18314301               -0.58756345                0.00862445               11.40140307               -2.73828404
               4.84487556                6.18309260               18.91156949                0.00010000               -0.08284156                0.20620343               -0.27215198                0.03669414               23.16869864               -0.80428414
               5.84252511                6.06943428               18.97883109                0.00010000               -0.34375575                0.13404313               -0.06127889                0.02229765               23.86236046                0.48842629
               6.83800045                5.95614865               19.04894029                0.00010000               -0.53780472               -0.00066379                0.12798813               -0.03728945               24.11909488                1.83567745
               7.83176902                5.84414423               19.12183745                0.00010000               -0.69577905               -0.16313457                0.29560707               -0.08058502               24.37584589                3.33270100
               8.82408487                5.73474832               19.19722849                0.11595810               -0.58628211               -0.31207358                0.43264742               -0.06950027               16.83928006                5.03619384
               9.82004337                5.62926586               19.11912495                0.36964768               -0.19853901               -0.18720245                0.41412789                0.02437787                4.62088407                2.69964618
              10.82011409                5.52454767               18.95003604                0.82006426                0.11976560                0.10992423               -0.39322793                0.00004211                0.04311632                0.81749096
              11.82243869                5.42071717               18.78021759                1.00000000                0.23245990                0.41047343               -1.21132029               -0.04393233                0.01007921               -1.06298501
               1.95546453                7.51926772               19.15523566                1.00000000               -0.06810378               -0.18434770                0.60467808               -0.04302070                0.02311824                1.24989512
               2.95478350                7.40936976               18.97468972                0.60156381                0.04250426                0.04146547               -0.14462636                0.00265913                0.12119264               -0.76916089
               3.95631462                7.29896317               18.79605693                0.02930694                0.15249399                0.27117077               -0.88392499               -0.09057421               13.48217603               -2.74527532
               4.95783338                7.18555676               18.88267998                0.00010000               -0.05806040                0.29055867               -0.45319536               -0.18567753               27.02458660               -0.93836909
               5.95515341                7.07111408               18.97579384                0.00010000               -0.43652085                0.20887954               -0.09729002               -0.26747053               27.47394989                0.34951769
               6.94910296                6.95631970               19.07236484                0.00010000               -0.74148524                0.05643009                0.23334701               -0.39656383               27.83196706                1.63181746
               7.94032371                6.84239325               19.17344690                0.00010000               -0.99162437               -0.16528658                0.54764173               -0.51378930               28.27688090                3.11463677
               8.92927047                6.73109228               19.27940833                0.12525734               -0.82283081               -0.40722307                0.84375174               -0.41009312               18.62225935                4.96110960
               9.92386709                6.62686679               19.18751583                0.38410704               -0.31966106               -0.29049713                0.78737370               -0.07010577                4.40281431                2.55858895
              10.92287725                6.52514156               19.00917337                0.84235574                0.02297100                0.00985072               -0.06797321               -0.00348220                0.04638111                0.72431127
              11.92432651                6.42435090               18.83004791                1.00000000                0.14492600                0.31687164               -0.93418803               -0.04395884                0.01062947               -1.12030973
               2.06381053                8.51776082               19.11476700                1.00000000                0.00297221               -0.11878641                0.38546094               -0.04216844                0.02981496                1.22075131
               3.06384025                8.41017530               18.92418654                0.57817224                0.11864645                0.12074128               -0.40193198                0.00489767                0.15055653               -0.80373883
               4.06618346                8.30212085               18.73597002                0.01958328                0.25854277                0.36059531               -1.17757742               -0.19799449               15.51081893               -2.66792140
               5.06901111                8.18890377               18.85253703                0.00010000                0.01146527                0.35027062               -0.62434562               -0.37234083               30.81332361               -0.92576628
               6.06641276                8.07361187               18.97115126                0.00010000               -0.51105527                0.26332290               -0.13153505               -0.43530183               31.02711623                0.21517248
               7.05879000                7.95727725               19.09302962                0.00010000               -0.98460566                0.17057292                0.33407431               -0.61964336               31.48302443                1.25293590
               8.04672065                7.84083850               19.22188307                0.00010000               -1.36902717               -0.06255028                0.79690244               -0.91348857               32.25472651                2.53508295
               9.03140946                7.72660386               19.36028955                0.13469923               -1.10643349               -0.44795326                1.26985243               -0.81574528               20.50348749                4.52305873
              10.02459198                7.62345592               19.25495370                0.39862360               -0.44245573               -0.38784081                1.15340315               -0.18008347                4.20623109                2.38236463
              11.02256034                7.52474469               19.06773608                0.86455274               -0.07255731               -0.08856998                0.25306888               -0.00901142                0.06421304                0.70928561
              12.02314083                7.42705461               18.87950373                1.00000000                0.05804912                0.22508928               -0.66017533               -0.04436756                0.01691907               -1.12648133
               2.16979221                9.51689199               19.07403961                1.00000000                0.07292125               -0.05701796                0.16872284               -0.04108618                0.00987420                1.02657300
               3.17052142                9.41178459               18.87318338                0.55496420                0.19170215                0.20152567               -0.65865375                0.00534365                0.26598228               -0.73499997
               4.17362625                9.30617507               18.67739632                0.01012823                0.41870569                0.44402824               -1.46070083               -0.34603685               17.61470233               -2.02105568
               5.17889554                9.19256217               18.82345111                0.00010000                0.22238221                0.26506433               -0.77512900               -0.38881062               34.47736502               -0.57488832
               6.17807390                9.07638053               18.96505060                0.00010000               -0.47060359                0.27198394               -0.16265052               -0.35060659               34.33769209                0.10693203
               7.16948346                8.95973116               19.10877775                0.00010000               -1.26732834                0.28392994                0.41846749               -0.50068230               34.86533578                0.69191678
               8.15272733                8.84114224               19.26218958                0.00010000               -1.95726582                0.24705011                1.01234313               -0.92834539               36.17254863                1.44556791
               9.13033815                8.72213321               19.43420903                0.14437542               -1.53013697               -0.29440344                1.67098870               -1.02551722               22.66715254                2.96517444
              10.12212459                8.61910998               19.32007348                0.41336442               -0.56199065               -0.46447972                1.50384978               -0.32256584                4.36165502                1.68447611
              11.11909833                8.52337016               19.12659340                0.88688626               -0.16526323               -0.18437248                0.57291706               -0.01697331                0.18925690                0.64812512
              12.11881933                8.42885268               18.92898877                1.00000000               -0.02790087                0.13591727               -0.38892444               -0.04611328               -0.01343664               -0.94160862
               2.27320361               10.51662046               19.02965871                1.00000000                0.14604276               -0.02715284               -0.05415754                0.09967488                0.53338510                0.84564697
               3.27466404               10.41420581               18.82398164                0.77015035                0.26407624                0.24212242               -0.90356546                0.13330892                1.12766658               -0.64119762
               4.27848513               10.31100141               18.63013725                0.50212078                0.81826993                0.48263363               -1.69347477               -0.51414948               19.89546660               -1.45033100
               5.29102943               10.19420506               18.79976278                0.44113846                0.68732570                0.16428877               -0.88837767               -0.38410329               37.61036718               -0.31188576
               6.29223165               10.07905155               18.95771203                0.43331886               -0.35073940                0.26710159               -0.18994580               -0.14668549               37.15425887                0.06732364
               7.28401465                9.96295585               19.11761390                0.45256606               -1.32399815                0.32246947                0.47591759               -0.21048424               37.74735339                0.39379378
               8.26575168                9.84577950               19.28841000                0.49681513               -2.55416358                0.46372597                1.16012516               -0.80956774               39.38788131                0.82380976
               9.23293137                9.72071579               19.48387154                0.57541899               -2.44239830               -0.14174246                1.93698714               -1.32133623               25.06435281                1.82619181
              10.21690372                9.61416632               19.37369698                0.71150000               -1.02266007               -0.49436556                1.79103054               -0.50501480                5.65153036                1.10845397
              11.21247817                9.52105724               19.18392860                0.95055263               -0.28250984               -0.23129190                0.88120521                0.11831520                1.05780155                0.57320280
              12.21125352                9.42977295               18.98197286                1.00000000               -0.12246520                0.09202696               -0.10265184                0.11499067                0.45181169               -0.76013437
               1.25077911                0.60267435               20.45114230                1.00000000               -0.55037478               -0.61014334                2.10881844               -0.11457430               -1.03774692                1.08788941
               2.24527536                0.46884799               20.32669925                1.00000000               -0.46708925               -0.44988566                1.60489471               -0.07333113               -1.06275993               -0.05567526
               3.24143732                0.33464599               20.20179341                0.69422917               -0.25005012               -0.30219136                1.09517766                0.00432397               -0.74356933               -0.96597773
               4.24027436                0.20180073               20.08388019                0.52028193                0.03736563               -0.16579979                0.59735861                0.09437565                1.08520605               -0.10074138
               5.24218464                0.07357863               19.99629769                0.44885470                0.23042531               -0.03343333                0.11507507                0.08482978                4.00446691               -0.09294718
               6.24488286               -0.04893584               19.93838783                0.45234227                0.18834406                0.10651016               -0.37355023                0.02030225                5.34126670                0.01136154
               7.24595152               -0.17025331               19.87877614                0.52470936                0.11760524                0.24678256               -0.85673473                0.05318265                3.83157450                0.09544798
               8.24723497               -0.29518484               19.79021131                0.67427596                0.24525824                0.38466810               -1.34855950                0.05661623                1.20575478                0.14939608
               9.25085668               -0.42366906               19.67690514                0.92468681                0.48679762                0.52769974               -1.86666442               -0.00297463               -0.52557825                0.47556802
              10.25697092               -0.55332916               19.55292456                1.00000000                0.70209401                0.68046181               -2.41444657               -0.06836607               -0.94317737                0.35410119
              11.26489856               -0.68269172               19.43096654                1.00000000                0.79276404                0.84739563               -2.93100823               -0.12775762               -0.83311368               -0.87451960
               1.38345973                1.59657292               20.40670180                1.00000000               -0.49034982               -0.58082509                1.89198913               -0.03980478               -0.04451509                1.38588585
               2.37855623                1.46434913               20.28149983                0.95349084               -0.42277672               -0.41460854                1.39069248               -0.00121818                0.05159181               -0.13836720
               3.37500419                1.33162408               20.15821236                0.24555267               -0.34022172               -0.26176680                0.90901521                0.09352796                1.40777696               -1.47350664
               4.37175179                1.20014273               20.06012571                0.00010000               -0.33014875               -0.13518777                0.47661702                0.34417347                3.84443296               -1.71118514
               5.36840122                1.07324430               19.98508114                0.00010000               -0.23749674                0.08749073                0.04691197                0.63477244                6.66020532                0.56334108
               6.36700186                0.95212926               19.94213209                0.00010000                0.06033126                0.06733927               -0.37641739                0.78246284                8.21536575                0.60482828
               7.36960784                0.83221451               19.89744997                0.00043161                0.37535718                0.04627531               -0.78753571                0.65303503                6.57872349                0.56883910
               8.37450900                0.70866184               19.82241630                0.21754084                0.51456278                0.34043688               -1.20743800                0.32315976                3.85439509                1.91191084
               9.37989910                0.58160794               19.72427590                0.59676325                0.56447947                0.47876735               -1.65166763                0.10815990                1.89306152                1.54189781
              10.38579859                0.45347545               19.61049596                1.00000000                0.65422223                0.62960912               -2.12085270                0.01118379                0.65748737                0.73522599
              11.39298354                0.32578223               19.48759206                1.00000000                0.71849506                0.81234312               -2.65351047               -0.05175466                0.20718548               -0.93353656
               1.51443058                2.59105785               20.36824254                1.00000000               -0.42307461               -0.52128642                1.68986352               -0.04444775                0.18488158                1.62284570
               2.51019984                2.46055582               20.23466307                0.72953253               -0.34581497               -0.34184359                1.14505740               -0.00665772                0.35412677               -0.46331584
               3.50751428                2.32941065               20.10444540                0.08988300               -0.23311146               -0.16859268                0.63302493                0.08832946                2.01647921               -2.54233611
               4.50553761                2.19909697               20.00413607                0.00010000               -0.23103648                0.01345507                0.25504826                0.52606522                7.66706899               -1.22018432
               5.50289355                2.07532844               19.98687201                0.00010000               -0.19878496                0.12535994                0.02805101                0.96044463               11.23653936                0.79694390
               6.50156191                1.95241095               19.95756387                0.00010000               -0.02069581                0.00262954               -0.27820079                1.06794274               10.52133263                1.33057865
               7.50247964                1.83067219               19.92541078                0.00010000                0.13714142               -0.10352092               -0.59381374                1.09729907               10.20927392                1.78979621
               8.50430474                1.71162390               19.88971092                0.08247534                0.28633159                0.04532168               -0.90967931                0.68604085                6.97774117                3.44553450
               9.50820627                1.58590629               19.79285783                0.32663086                0.43577829                0.31075511               -1.29949516                0.09875807                2.90269268                4.00123312
              10.51302030                1.45926302               19.67557238                0.77572871                0.55218190                0.52124160               -1.80524866               -0.01253056                1.11974748                1.46825533
              11.51924991                1.33355514               19.54286462                1.00000000                0.62296050                0.75899716               -2.38227126               -0.06752211                0.35455016               -0.84199763
               1.64357483                3.58614719               20.32858777                1.00000000               -0.35045656               -0.45796328                1.47724745               -0.04529161                0.04463148                1.48151490
               2.64007027                3.45751226               20.18297487                0.68423845               -0.26726039               -0.26520103                0.88294929               -0.00482035                0.14977731               -0.72284322
               3.63822963                3.32825222               20.03943898                0.06778390               -0.18574799               -0.06967576                0.30514707                0.12058157                4.96151201               -3.03277391
               4.63635531                3.20041183               19.99006157                0.00010000               -0.19667439                0.10537407                0.24332644                0.39770539               11.75131318                0.29246693
               5.63429614                3.07575150               19.98238881                0.00010000               -0.16691699                0.02644840                0.01030743                0.64002183               13.95518501                0.62127546
               6.63301697                2.95218185               19.97685277                0.00010000               -0.09776334               -0.03875817               -0.18628257                0.73115715               13.92695635                1.64535511
               7.63234087                2.83014409               19.96837915                0.00010000               -0.00106224               -0.09360259               -0.39963580                0.73735244               13.44816875                2.78590088
               8.63299572                2.70956828               19.95290255                0.08669091                0.09471352               -0.18800177               -0.64691927                0.57180112               10.72415810                4.02667430
               9.63423514                2.58782304               19.88948720                0.32137201                0.24517031                0.11670714               -0.79675380                0.17577221                4.44050328                4.69046229
              10.63789913                2.46390029               19.74774698                0.73984199                0.44068571                0.41082402               -1.43011706               -0.00346574                0.30029328                1.64535402
              11.64304886                2.34096218               19.60107589                1.00000000                0.51497261                0.70432169               -2.09389182               -0.05699261                0.05870112               -0.69121281
               1.77079461                4.58189858               20.28733346                1.00000000               -0.27962128               -0.39024445                1.25869314               -0.04413639                0.02258983                1.37784411
               2.76799839                4.45525180               20.13090349                0.66046057               -0.18841323               -0.18747946                0.62403781               -0.00247601                0.08659872               -0.75124859
               3.76702634                4.32801714               19.97572027                0.05747597               -0.10029759                0.01882190               -0.00120597                0.07518053                7.41499774               -2.91429240
               4.76599244                4.20120445               19.96583487                0.00010000               -0.15511863                0.08674983                0.07962069                0.24834359               15.95726939               -0.45078643
               5.76392397                4.07585741               19.98173690                0.00010000               -0.20999936                0.02084215               -0.00444389                0.36935924               17.34871945                0.73133667
               6.76179245                3.95163578               19.99962922                0.00010000               -0.20418534               -0.06153627               -0.09382461                0.39653560               17.43283693                1.88497571
               7.75984026                3.82880014               20.01700912                0.00010000               -0.18653223               -0.15215752               -0.19801926                0.39951567               17.33874761                3.24099140
               8.75806181                3.70786386               20.03258987                0.09557462               -0.12252793               -0.19795421               -0.33097767                0.30638342               13.53132177                4.97534507
               9.75738970                3.58824043               19.97301714                0.33521857                0.08750203               -0.01032307               -0.37027449                0.13331820                4.96602669                3.63227196
              10.75981185                3.46747950               19.81659778                0.76020289                0.32982834                0.30684653               -1.07698836                0.00283498                0.07350322                1.31208014
              11.76398627                3.34764157               19.65882531                1.00000000                0.41744200                0.62009134               -1.79827111               -0.04585093                0.01000735               -0.80017799
               1.89598568                5.57834230               20.24560507                1.00000000               -0.20834867               -0.32083697                1.03911425               -0.04398721                0.02031872                1.33972030
               2.89390219                5.45376267               20.07858266                0.63744488               -0.11025495               -0.11023884                0.36432274               -0.00041112                0.09074783               -0.77207927
               3.89378058                5.32862866               19.91292971                0.04757715               -0.02101423                0.10372034               -0.30105060               -0.01076216                9.69478210               -2.86124682
               4.89348191                5.20214683               19.93794915                0.00010000               -0.12642916                0.12529684               -0.09916793                0.01736167               20.07918170               -0.72477788
               5.89125199                5.07616834               19.98035309                0.00010000               -0.27384760                0.05692788               -0.04043939                0.05293794               21.03416669                0.61941930
               6.88800495                4.95095113               20.02462164                0.00010000               -0.35744459               -0.05837598                0.00125311                0.03230089               21.19073427                1.97916601
               7.88410310                4.82710094               20.07005755                0.00010000               -0.41609270               -0.18280413                0.02053348                0.00642604               21.29628564                3.48525643
               8.87968310                4.70560919               20.11599637                0.10457973               -0.34086160               -0.27027614                0.00606218                0.01644918               15.74543242                5.18894270
               9.87728587                4.58761658               20.04954116                0.34943197               -0.05642068               -0.11230544                0.02618247                0.04867331                5.11584428                3.10146553
              10.87855469                4.47003722               19.88236175                0.78222837                0.22609073                0.20549854               -0.73587084                0.00134127                0.04926322                1.04524042
              11.88180769                4.35336400               19.71431890                1.00000000                0.32529991                0.52350575               -1.51062317               -0.04411253                0.00979850               -0.98118845
               2.01907412                6.57548184               20.20357347                1.00000000               -0.13703105               -0.25150956                0.81887944               -0.04359774                0.02169651                1.31099650
               3.01770381                6.45304702               20.02602220                0.61449681               -0.03235894               -0.03273517                0.10451108                0.00169180                0.10664696               -0.79362292
               4.01842694                6.33009155               19.85012606                0.03777993                0.05480944                0.18968178               -0.59974772               -0.11161072               11.91996319               -2.86312914
               5.01880000                6.20371039               19.90879161                0.00010000               -0.11242553                0.20480098               -0.28557291               -0.22674038               24.15757343               -0.87586846
               6.01617843                6.07699597               19.97813627                0.00010000               -0.36470639                0.12520541               -0.08065618               -0.27536605               24.80450987                0.49933378
               7.01150587                5.95046826               20.05009475                0.00010000               -0.54338554               -0.02373281                0.09936721               -0.36045687               25.05868224                1.92061025
               8.00531072                5.82514406               20.12460830                0.00010000               -0.68153568               -0.20227173                0.25459478               -0.41848425               25.30985419                3.49110395
               8.99787516                5.70245834               20.20129295                0.11366842               -0.56877865               -0.36239318                0.37600262               -0.30403373               17.71862350                5.27224380
               9.99393515                5.58599432               20.12324990                0.36366152               -0.18919523               -0.21097680                0.41022657               -0.04068153                5.03970046                2.85282619
              10.99409125                5.47158947               19.94605418                0.80419513                0.12576488                0.10580122               -0.40327463               -0.00149111                0.04898947                0.87104461
              11.99645044                5.35811169               19.76801447                1.00000000                0.23591920                0.42604244               -1.22895487               -0.04361915                0.01028519               -1.10830794
               2.13998337                7.57331211               20.16125158                1.00000000               -0.06570452               -0.18326026                0.59877770               -0.04305189                0.02255360                1.28049276
               3.13932632                7.45310797               19.97319471                0.59159765                0.04508119                0.04520966               -0.15474977                0.00414936                0.12590777               -0.81570323
               4.14088499                7.33242230               19.78715708                0.02810838                0.13581752                0.27756639               -0.89708844               -0.21203282               14.07775016               -2.86744777
               5.14204267                7.20624285               19.87807859                0.00010000               -0.09490947                0.30484191               -0.46950973               -0.44772782               28.18489853               -1.00462491
               6.13898680                7.07867245               19.97472306                0.00010000               -0.46974714                0.21704162               -0.12020693               -0.56717648               28.60359378                0.35845836
               7.13264773                6.95047647               20.07455404                0.00010000               -0.76217312                0.04934826                0.20043813               -0.72866281               28.96239197                1.71122656
               8.12374334                6.82305551               20.17871351                0.00010000               -0.99477854               -0.19063450                0.50105299               -0.86821327               29.41256522                3.27286092
               9.11275216                6.69836133               20.28754872                0.12286639               -0.82011139               -0.44255791                0.77928422               -0.65392428               19.61530222                5.21711224
              10.10734111                6.58339704               20.19538652                0.37792321               -0.31723310               -0.30692197                0.78603008               -0.13226415                4.82986019                2.70229626
              11.10640750                6.47215324               20.00845097                0.82608273                0.02748751                0.00773006               -0.07668125               -0.00530312                0.05224993                0.77203742
              12.10789086                6.36188485               19.82061580                1.00000000                0.14833646                0.32935365               -0.95186543               -0.04374173                0.01070362               -1.16928368
               2.25862136                8.57181664               20.11858971                1.00000000                0.00552443               -0.11751360                0.37934094               -0.04228241                0.02930362                1.25293993
               3.25867661                8.45395121               19.92011525                0.56876960                0.12150203                0.12453968               -0.41277823                0.00622786                0.15629917               -0.84912197
               4.26105140                8.33564287               19.72412938                0.01861857                0.24593421                0.36664916               -1.19173088               -0.31324122               16.18770225               -2.78287061
               5.26359529                8.20980723               19.84621556                0.00010000               -0.02250627                0.37428165               -0.64258687               -0.61238836               32.14515908               -0.97803817
               6.26060128                8.08133680               19.96972666                0.00010000               -0.55228686                0.28313409               -0.15704082               -0.70679149               32.33819590                0.22249761
               7.25254955                7.95145523               20.09621206                0.00010000               -1.02698405                0.18509104                0.29793213               -0.92627800               32.80408380                1.31661316
               8.24006160                7.82133137               20.22962535                0.00010000               -1.40472095               -0.06150074                0.74637469               -1.25798132               33.60354329                2.67065036
               9.22445513                7.69360718               20.37266936                0.13222309               -1.12818227               -0.45983452                1.20046252               -1.06788453               21.60770572                4.77240422
              10.21749795                7.57985588               20.26649845                0.39228063               -0.44788775               -0.39790283                1.15467786               -0.24251051                4.63057423                2.51392866
              11.21549738                7.47174407               20.07023062                0.84795110               -0.06927837               -0.08908966                0.24560210               -0.01120225                0.07153771                0.75390420
              12.21611238                7.36469876               19.87281101                1.00000000                0.06150040                0.23477479               -0.67801814               -0.04422677                0.01741188               -1.17853702
               2.37486857                9.57096183               20.07569413                1.00000000                0.07560745               -0.05547407                0.16241116               -0.04123214                0.00716835                1.05691483
               3.37562464                9.45559876               19.86654109                0.54612089                0.19477908                0.20539846               -0.67032496                0.00636621                0.27646301               -0.77386121
               4.37876415                9.33975528               19.66271948                0.00939397                0.42381665                0.44963270               -1.47593659               -0.45301548               18.38262378               -2.10479097
               5.38410098                9.21372848               19.81561554                0.00010000                0.22194117                0.27164730               -0.79475698               -0.55608008               35.97870442               -0.60176946
               6.38320297                9.08433513               19.96330707                0.00010000               -0.49866849                0.29236861               -0.18994223               -0.52904945               35.81671443                0.11069850
               7.37412761                8.95417829               20.11279439                0.00010000               -1.33856076                0.31933279                0.38007357               -0.70279991               36.36281774                0.72706764
               8.35643176                8.82182549               20.27207550                0.00010000               -2.06288270                0.29630208                0.95931043               -1.17927354               37.73475135                1.52615889
               9.33286995                8.68916464               20.45059485                0.14181238               -1.60388723               -0.25459597                1.60003084               -1.24042506               23.89217337                3.13446498
              10.32435401                8.57543899               20.33513547                0.40685046               -0.57646894               -0.46844959                1.50756233               -0.39271529                4.79425778                1.77614713
              11.32134057                8.47037145               20.13229256                0.86994087               -0.16285355               -0.18364546                0.56662815               -0.01956949                0.20444263                0.68615592
              12.32109694                8.36658035               19.92500719                1.00000000               -0.02436306                0.14329103               -0.40703499               -0.04605142               -0.01414660               -0.98771902
               2.48852287               10.57070716               20.02908425                1.00000000                0.14876166               -0.02546794               -0.06058138                0.10063263                0.54606533                0.87284215
               3.49001048               10.45805918               19.81488743                0.76588970                0.26692516                0.24604216               -0.91587657                0.13500282                1.17086403               -0.67375711
               4.49386137               10.34463553               19.61313084                0.50182069                0.89416771                0.48802477               -1.70912188               -0.63122817               20.76707425               -1.50801936
               5.50789384               10.21524018               19.79079366                0.44164883                0.78545526                0.15116943               -0.90835854               -0.49328127               39.27215913               -0.33241638
               6.50957048               10.08718418               19.95569209                0.43352971               -0.34453242                0.28490465               -0.21811050               -0.23316424               38.77936719                0.06396241
               7.50100319                9.95784188               20.12219774                0.45239092               -1.40403491                0.36635920                0.43588418               -0.30877985               39.39254756                0.40806889
               8.48148978                9.82725741               20.29976351                0.49624802               -2.74850263                0.54319161                1.10489899               -0.96052899               41.11299938                0.86395773
               9.44603314                9.68851526               20.50290834                0.57410402               -2.65264718               -0.06493746                1.86410514               -1.52220724               26.42054651                1.93348328
              10.42843683                9.57048689               20.39163283                0.70817794               -1.10342558               -0.49520954                1.79516490               -0.61392298                6.15483486                1.16865628
              11.42396463                9.46807116               20.19271376                0.94195619               -0.28316423               -0.23002860                0.87557156                0.11628989                1.12086776                0.60544260
              12.42277355                9.36756458               19.98085325                1.00000000               -0.11910762                0.09842336               -0.12084412                0.11700292                0.47711453               -0.79894615
               1.36717094                0.65925694               21.47223558                1.00000000               -0.55238004               -0.61136440                2.11044812               -0.11331672               -1.07569242                1.12377270
               2.36164714                0.51453483               21.34276174                1.00000000               -0.47166960               -0.45058102                1.60741674               -0.07197714               -1.10388964               -0.06115261
               3.35773755                0.36939069               21.21276446                0.69150164               -0.27247996               -0.30007878                1.09817742               -0.01213079               -0.78182969               -0.98643358
               4.35619754                0.22513514               21.08987227                0.51991105               -0.02175536               -0.16461777                0.60013417                0.05339997                1.05838183               -0.10354574
               5.35730244                0.08419298               20.99743995                0.44897976                0.15973174               -0.02823164                0.11265869                0.04653905                3.98066240               -0.09525049
               6.35939218               -0.05253867               20.93459396                0.45217425                0.17006422                0.11453889               -0.38566450               -0.00052826                5.31812855                0.01419683
               7.36070373               -0.18828468               20.87010542                0.52369454                0.15984628                0.25509542               -0.87748089                0.02320152                3.81074493                0.10231337
               8.36258910               -0.32655877               20.77660566                0.67154770                0.29549216                0.39238904               -1.37235113                0.02528670                1.17201611                0.15799738
               9.36661357               -0.46728687               20.65812002                0.91846934                0.51455414                0.53331129               -1.88996894               -0.01896629               -0.58517105                0.48954947
              10.37288018               -0.60869021               20.52865764                1.00000000                0.71416177                0.68617784               -2.43852137               -0.06835907               -1.00123543                0.38273378
              11.38089680               -0.74971806               20.40154143                1.00000000                0.80166201                0.85597279               -2.95367852               -0.12692075               -0.87509564               -0.92844992
               1.51075988                1.65314329               21.42562363                1.00000000               -0.48993860               -0.58263627                1.89271841               -0.03911952               -0.03603288                1.42857538
               2.50586049                1.51002902               21.29541758                0.93867709               -0.42218944               -0.41507992                1.39253305               -0.00013715                0.07042623               -0.16018641
               3.50231609                1.36638990               21.16733213                0.24129643               -0.32650475               -0.25908800                0.91404301                0.07119077                1.46101843               -1.53991959
               4.49933040                1.22348896               21.06491616                0.00010000               -0.28556763               -0.13086809                0.48017001                0.25447358                3.92554659               -1.76381260
               5.49660474                1.08391067               20.98554812                0.00010000               -0.18523357                0.03756069                0.04525457                0.45979003                6.75022867                0.58333664
               6.49562572                0.94860672               20.93830722                0.00010000                0.06705290                0.04453982               -0.38928078                0.56817354                8.32308691                0.65596016
               7.49794579                0.81426627               20.88945978                0.00010000                0.33586705                0.05296862               -0.81062976                0.47527789                6.69789337                0.63734181
               8.50234307                0.67736512               20.81020828                0.21380265                0.47719147                0.33601075               -1.23392504                0.22816986                3.96209681                1.99835617
               9.50748962                0.53804624               20.70762609                0.58744324                0.55345609                0.47942829               -1.67799670                0.07561623                1.97749133                1.62576551
              10.51341219                0.39817157               20.58917301                1.00000000                0.65829143                0.63382938               -2.14346404                0.00743787                0.69703525                0.77442281
              11.52065545                0.25884167               20.46094160                1.00000000                0.72432642                0.82273433               -2.67640371               -0.05169271                0.21386358               -0.99058697
               1.65261709                2.64760421               21.38513453                1.00000000               -0.42193043               -0.52340155                1.68887704               -0.04491889                0.19203924                1.66707431
               2.64839778                2.50623324               21.24610502                0.71646739               -0.34578316               -0.34069834                1.14289690               -0.00722350                0.37857611               -0.50930034
               3.64570143                2.36420893               21.11078338                0.08727457               -0.23157668               -0.16285082                0.63345248                0.06189466                2.12647766               -2.68052229
               4.64376625                2.22251778               21.00673198                0.00010000               -0.21604719               -0.02184908                0.26269240                0.34005010                7.91803034               -1.21878794
               5.64138048                2.08494420               20.98713622                0.00010000               -0.16831064                0.04531537                0.02331842                0.63746381               11.53192916                0.83724617
               6.64040004                1.94835213               20.95471482                0.00010000                0.00352022               -0.05135746               -0.29282612                0.73152400               10.78512306                1.42438750
               7.64145089                1.81277469               20.91936171                0.00010000                0.14862477               -0.12066967               -0.61686595                0.79322685               10.48065473                1.91817927
               8.64337253                1.68016144               20.88046932                0.08058528                0.29342761                0.01724883               -0.93862144                0.50659276                7.22804106                3.59021884
               9.64731944                1.54230169               20.77974713                0.32105438                0.44304900                0.27757030               -1.32250751                0.04337465                3.06099635                4.23043541
              10.65223351                1.40398638               20.65741137                0.75991922                0.56016606                0.51608391               -1.82688079               -0.02709862                1.18324726                1.54861736
              11.65852276                1.26673662               20.51892951                1.00000000                0.62892463                0.77916192               -2.40468394               -0.07599438                0.38194544               -0.89333739
               1.79260345                3.64267526               21.34334281                1.00000000               -0.34921523               -0.45902296                1.47417007               -0.04566245                0.04437539                1.51722961
               2.78911130                3.50321506               21.19178010                0.67235929               -0.26670063               -0.26221925                0.87789954               -0.00479696                0.15783099               -0.77443945
               3.78726944                3.36313289               21.04246235                0.06578033               -0.18575826               -0.06144170                0.29884354                0.05093965                5.23906696               -3.18405224
               4.78539613                3.22305198               20.99252689                0.00010000               -0.18748895                0.03978590                0.24765809                0.18477505               12.20563614                0.31416358
               5.78351966                3.08481697               20.98245964                0.00010000               -0.14852131               -0.02420201                0.00203238                0.34770070               14.34948372                0.66025227
               6.78242571                2.94757957               20.97490814                0.00010000               -0.07593221               -0.08959628               -0.20439010                0.42464623               14.34539294                1.73184973
               7.78200102                2.81185288               20.96425505                0.00010000                0.02611064               -0.13865409               -0.42668292                0.44408857               13.85517786                2.91271610
               8.78294792                2.67771009               20.94625926                0.08480111                0.12655802               -0.24003209               -0.68271355                0.36425821               11.18240421                4.17750574
               9.78453218                2.54359764               20.88144682                0.31620831                0.27436800                0.05754249               -0.81170073                0.10552464                4.71757387                4.94902127
              10.78843528                2.40849325               20.73335933                0.72568491                0.45514491                0.39728417               -1.44749320               -0.00760232                0.31721121                1.74197219
              11.79363507                2.27442490               20.58003319                1.00000000                0.51997937                0.73233373               -2.11451235               -0.05942639                0.06035659               -0.72767703
               1.93062425                4.63842375               21.29989711                1.00000000               -0.27800323               -0.39011602                1.25441704               -0.04445268                0.02281691                1.40994650
               2.92784422                4.50098885               21.13710827                0.64901059               -0.18704775               -0.18387361                0.61680849               -0.00175436                0.09146991               -0.80081845
               3.92688330                4.36298010               20.97566076                0.05565457               -0.10332757                0.02683468               -0.01117602               -0.02634506                7.77966305               -3.04903320
               4.92577767                4.22331349               20.96661357                0.00010000               -0.15381959                0.04642061                0.07411138                0.00402611               16.60121861               -0.51427526
               5.92380690                4.08446016               20.98163493                0.00010000               -0.19603057               -0.01973745               -0.01817790                0.07507013               17.91812098                0.75800032
               6.92185706                3.94656020               20.99858604                0.00010000               -0.18023843               -0.10644033               -0.11710799                0.08923343               18.00751051                1.96900954
               7.92020214                3.81000161               21.01487358                0.00010000               -0.14720611               -0.20454949               -0.23133871                0.09428186               17.90775910                3.37565650
               8.91891293                3.67536080               21.02907183                0.09351307               -0.07776800               -0.26502841               -0.37463568                0.08550790               14.16041043                5.15784379
               9.91864678                3.54345254               20.96926293                0.32972862                0.11706367               -0.05951222               -0.38114772                0.05847408                5.32211261                3.82957291
              10.92125421                3.41193206               20.80575748                0.74549129                0.34120730                0.29491168               -1.09123614                0.00153582                0.08178961                1.38846274
              11.92547092                3.28138330               20.64074926                1.00000000                0.42167145                0.64517993               -1.81676782               -0.04533902                0.01096896               -0.83531046
               2.06658420                5.63487294               21.25597034                1.00000000               -0.20643367               -0.32012793                1.03425074               -0.04417294                0.02030688                1.37079883
               3.06451987                5.49953758               21.08218280                0.62640789               -0.10831547               -0.10636879                0.35553518                0.00076486                0.09549820               -0.82144303
               4.06441789                5.36366958               20.90986126                0.04592340               -0.02616333                0.11136881               -0.31328152               -0.13143495               10.13902639               -2.99050078
               5.06399660                5.22398039               20.93690433                0.00010000               -0.13217688                0.10661503               -0.11184005               -0.25041045               20.89726151               -0.79835381
               6.06177436                5.08442222               20.97986193                0.00010000               -0.26638386                0.02954127               -0.06033237               -0.25121816               21.78613655                0.63110825
               7.05866892                4.94545076               21.02450132                0.00010000               -0.33441501               -0.09658725               -0.02817482               -0.29076614               21.94023516                2.06226188
               8.05508606                4.80776189               21.07007364                0.00010000               -0.37308870               -0.23456321               -0.02033953               -0.32377382               22.03641137                3.63132275
               9.05120715                4.67240953               21.11580239                0.10235823               -0.29778307               -0.33599746               -0.04794955               -0.22258433               16.52038946                5.39222521
              10.04913039                4.54240740               21.04976720                0.34362367               -0.03359546               -0.14877632                0.01834717               -0.02943307                5.53107252                3.27238698
              11.05053524                4.41439148               20.87494404                0.76691244                0.23477144                0.19736426               -0.74786201               -0.00018999                0.05629190                1.10911037
              12.05382582                4.28732850               20.69912451                1.00000000                0.32905838                0.54354070               -1.52802245               -0.04365329                0.01029894               -1.02259470
               2.20041151                6.63202119               21.21173511                1.00000000               -0.13486318               -0.25058049                0.81370722               -0.04371466                0.02143112                1.34167002
               3.19906288                6.49886147               21.02701903                0.60391862               -0.02998586               -0.02874702                0.09459654                0.00312843                0.11160661               -0.84225672
               4.19981179                6.36520748               20.84406335                0.03631839                0.04769706                0.19706515               -0.61358331               -0.24239121               12.43980613               -2.98995300
               5.20001682                6.22544580               20.90585803                0.00010000               -0.12498109                0.20299605               -0.30329726               -0.50938623               25.14669073               -0.95109059
               6.19731217                6.08505098               20.97721797                0.00010000               -0.36573746                0.11353135               -0.10587355               -0.59209283               25.74361989                0.50729288
               7.19270207                5.94462846               21.05092764                0.00010000               -0.52721348               -0.05119231                0.06380615               -0.70246050               25.99253403                2.00290847
               8.18676790                5.80531035               21.12692935                0.00010000               -0.64431648               -0.24642379                0.20582627               -0.77466649               26.23534767                3.64642639
               9.17981574                5.66864085               21.20474854                0.11131010               -0.53458709               -0.41757045                0.31094118               -0.55684884               18.62422632                5.50367747
              10.17607616                5.54047701               21.12732948                0.35758593               -0.17432165               -0.23716157                0.40496796               -0.11649271                5.49096127                3.01018279
              11.17632930                5.41587935               20.94197055                0.78835532                0.13238294                0.10071890               -0.41365974               -0.00325843                0.05562122                0.92621880
              12.17872382                5.29225411               20.75563849                1.00000000                0.23945111                0.44200868               -1.24596858               -0.04326892                0.01054774               -1.15466834
               2.33202935                7.62986133               21.16721122                1.00000000               -0.06331950               -0.18220632                0.59337462               -0.04316806                0.02206888                1.31147011
               3.33139615                7.49896264               20.97159473                0.58152327                0.04781999                0.04924998               -0.16557891                0.00566190                0.13130093               -0.86306890
               4.33298575                7.36761089               20.77811516                0.02685378                0.12846076                0.28467819               -0.91220546               -0.34484665               14.67407594               -2.99134459
               5.33396537                7.22804031               20.87328979                0.00010000               -0.11179554                0.31801284               -0.49054266               -0.73089209               29.34459524               -1.07308280
               6.33074984                7.08669285               20.97338970                0.00010000               -0.48025107                0.22134134               -0.14965344               -0.88726915               29.73006174                0.36552616
               7.32436035                6.94442692               21.07637360                0.00010000               -0.75847528                0.03703533                0.15956088               -1.07942565               30.08679173                1.78905416
               8.31558033                6.80283341               21.18346796                0.00010000               -0.97284222               -0.22104169                0.44532361               -1.24012419               30.53892174                3.42947047
               9.30490350                6.66405812               21.29499402                0.12039051               -0.80091453               -0.48175201                0.70467420               -0.91472566               20.64038541                5.47086006
              10.29956204                6.53766417               21.20323643                0.37162055               -0.31052656               -0.32457330                0.78316148               -0.20431061                5.29569396                2.85020267
              11.29869297                6.41640586               21.00763975                0.80979485                0.03244369                0.00509155               -0.08579202               -0.00731331                0.05899356                0.82126498
              12.30021092                6.29616868               20.81101060                1.00000000                0.15179437                0.34191820               -0.96889884               -0.04349440                0.01086503               -1.21946999
               2.46134552                8.62837707               21.12235382                1.00000000                0.00810380               -0.11627931                0.37367751               -0.04244419                0.02887021                1.28544079
               3.46142656                8.49984647               20.91593097                0.55922259                0.12458332                0.12862665               -0.42446226                0.00765775                0.16282975               -0.89535012
               4.46383719                8.37090104               20.71213540                0.01758312                0.24452243                0.37334553               -1.20805826               -0.44109461               16.86520901               -2.89950633
               5.46631701                8.23180605               20.83968530                0.00010000               -0.03285044                0.39541864               -0.66588516               -0.87532866               33.47597750               -1.03187876
               6.46318018                8.08947781               20.96801045                0.00010000               -0.56720087                0.29681110               -0.18965503               -0.99786925               33.64594330                0.22868455
               7.45497299                7.94536916               21.09898826                0.00010000               -1.04229813                0.19299555                0.25296776               -1.24886272               34.11917691                1.37974269
               8.44233422                7.80088951               21.23681056                0.00010000               -1.41412602               -0.06530805                0.68554154               -1.61608935               34.94326104                2.80633395
               9.42669047                7.65900581               21.38429880                0.12964150               -1.13460086               -0.47372911                1.11957343               -1.33429068               22.74904853                5.02266707
              10.41964220                7.53398555               21.27804726                0.38577459               -0.45059701               -0.40828151                1.15426760               -0.31373198                5.09845826                2.64965325
              11.41767853                7.41598118               21.07264812                0.83126642               -0.06569518               -0.08978598                0.23765360               -0.01352894                0.07977037                0.80001357
              12.41832830                7.29909248               20.86594337                1.00000000                0.06497659                0.24436934               -0.69523168               -0.04405923                0.01798399               -1.23183886
               2.58824165                9.62753575               21.07728784                1.00000000                0.07836857               -0.05400003                0.15648418               -0.04140579                0.00440544                1.08758393
               3.58902534                9.50153518               20.85977688                0.53710021                0.19813132                0.20957565               -0.68294279                0.00751059                0.28778325               -0.81355046
               4.59220428                9.37507780               20.64787758                0.00857496                0.44283446                0.45586259               -1.49345044               -0.57516446               19.15137134               -2.18992660
               5.59788203                9.23594869               20.80755597                0.00010000                0.25125318                0.26972234               -0.81965810               -0.74271815               37.47895847               -0.62976528
               6.59722934                9.09262907               20.96125176                0.00010000               -0.49553191                0.30414773               -0.22477787               -0.72135635               37.29221467                0.11383726
               7.58797139                8.94828683               21.11637922                0.00010000               -1.38037217                0.34706778                0.33225436               -0.91403167               37.85446922                0.76220420
               8.56962190                8.80152725               21.28137579                0.00010000               -2.14248677                0.33965646                0.89520628               -1.43682192               39.28929175                1.60777279
               9.54512165                8.65458353               21.46620965                0.13912129               -1.66549329               -0.21236711                1.51651849               -1.46230995               25.15878881                3.30615248
              10.53631203                8.52949854               21.35022472                0.40013776               -0.59030944               -0.47204126                1.50942342               -0.47102988                5.27336949                1.87091208
              11.53331546                8.41461014               21.13792596                0.85284783               -0.16024483               -0.18287439                0.55981886               -0.02229489                0.22058618                0.72544305
              12.53310714                8.30105606               20.92084807                1.00000000               -0.02083283                0.15047154               -0.42447397               -0.04598096               -0.01484555               -1.03493192
               2.71251854               10.62729707               21.02844708                1.00000000                0.15161779               -0.02386789               -0.06677464                0.10178124                0.55875244                0.90041544
               3.71403472               10.50403799               20.80566411                0.76152923                0.27009234                0.25028101               -0.92927591                0.13699962                1.21535047               -0.70711445
               4.71792039               10.38001829               20.59595481                0.50147643                0.99383231                0.49404947               -1.72711729               -0.77026314               21.64019200               -1.56686896
               5.73391137               10.23720050               20.78159561                0.44213451                0.92472590                0.12518137               -0.93388625               -0.61994228               40.93247716               -0.35386047
               6.73641491               10.09556076               20.95334982                0.43373548               -0.30585953                0.29316889               -0.25416695               -0.32594231               40.39986971                0.05996257
               7.72779418                9.95231052               21.12633158                0.45221407               -1.45569173                0.40236896                0.38607202               -0.41162717               41.03084405                0.42207740
               8.70730107                9.80768264               21.31050797                0.49565199               -2.91605952                0.61553877                1.03827567               -1.10968496               42.83043868                0.90450653
               9.66947299                9.65475847               21.52115364                0.57272182               -2.85530395                0.01749343                1.77842615               -1.72176253               27.82171863                2.04295025
              10.65019499                9.52454472               21.40960028                0.70475071               -1.18989395               -0.49538150                1.79749559               -0.73344255                6.70736413                1.23093635
              11.64567511                9.41232369               21.20144003                0.93327441               -0.28390811               -0.22864490                0.86952158                0.11382361                1.18595720                0.63867738
              12.64451683                9.30210191               20.97955597                1.00000000               -0.11582750                0.10458450               -0.13819778                0.11879131                0.50299752               -0.83870899
               1.48821294                0.71837370               22.49335127                1.00000000               -0.55442526               -0.61282254                2.11297832               -0.11221979               -1.11324257                1.15929821
               2.48266868                0.56231326               22.35884759                1.00000000               -0.47613686               -0.45111402                1.60950061               -0.07082904               -1.14462291               -0.06718241
               3.47869020                0.40578198               22.22375696                0.68865384               -0.29510887               -0.29752164                1.09952653               -0.02998264               -0.81988999               -1.00509892
               4.47676651                0.24964204               22.09588288                0.51947572               -0.08070021               -0.16352686                0.60079296                0.01178758                1.02937851               -0.10634034
               5.47707620                0.09545727               21.99855086                0.44908973                0.09067308               -0.02425121                0.10835995                0.00783025                3.95027860               -0.09760362
               6.47857997               -0.05607842               21.93067454                0.45200308                0.15392612                0.12060256               -0.39896515               -0.02145410                5.28691800                0.01690331
               7.48015472               -0.20691576               21.86122653                0.52264900                0.20403630                0.26208202               -0.89856871               -0.00659231                3.78467918                0.10920899
               8.48266069               -0.35923013               21.76276429                0.66872150                0.34732787                0.39954393               -1.39584769               -0.00633010                1.13689032                0.16670707
               9.48710127               -0.51289022               21.63910576                0.91207722                0.54320510                0.53863571               -1.91254100               -0.03546244               -0.64537939                0.50241668
              10.49352480               -0.66670522               21.50415413                1.00000000                0.72638982                0.69154041               -2.46172533               -0.06864265               -1.05958387                0.41358213
              11.50162907               -0.82006106               21.37189297                1.00000000                0.81042753                0.86434783               -2.97558669               -0.12612790               -0.91637678               -0.98295977
               1.64315118                1.71224547               22.44455617                1.00000000               -0.48949234               -0.58467724                1.89404488               -0.03846303               -0.02613808                1.47070072
               2.63825625                1.55780212               22.30935049                0.92354554               -0.42125969               -0.41529841                1.39376467                0.00075554                0.09176701               -0.18425080
               3.63472598                1.40280676               22.17649322                0.23687882               -0.31047591               -0.25559965                0.91744977                0.04656680                1.51556193               -1.60811292
               4.63204673                1.24800677               22.06972911                0.00010000               -0.23556267               -0.12657813                0.48136222                0.15934365                4.00375184               -1.81452964
               5.63001473                1.09521476               21.98598623                0.00010000               -0.12473944               -0.01477117                0.04122292                0.27969642                6.83241021                0.60173503
               6.62955195                0.94512760               21.93434647                0.00010000                0.08249606                0.01880977               -0.40360420                0.34746030                8.42012336                0.70659332
               7.63166465                0.79570506               21.88123738                0.00010000                0.30163386                0.05781318               -0.83406184                0.29106095                6.81036325                0.70688273
               8.63558462                0.64476530               21.79773780                0.20990955                0.44097721                0.33037127               -1.26002131                0.13052589                4.06861534                2.08498858
               9.64048419                0.49249613               21.69071596                0.57786070                0.54195824                0.47922478               -1.70375465                0.04138726                2.06439931                1.71170701
              10.64642379                0.34021018               21.56762668                1.00000000                0.66197179                0.63771351               -2.16546611                0.00321786                0.73875004                0.81553321
              11.65372363                0.18858242               21.43406398                1.00000000                0.72998424                0.83289349               -2.69880990               -0.05160295                0.22062705               -1.04794120
               1.79633038                2.70668015               22.40202008                1.00000000               -0.42078763               -0.52581349                1.68849740               -0.04545624                0.19885489                1.71027205
               2.79212250                2.55400729               22.25752101                0.70322887               -0.34567488               -0.33909471                1.13993097               -0.00795369                0.40463559               -0.55855981
               3.78941688                2.40066999               22.11711445                0.08458097               -0.22885621               -0.15564785                0.63191277                0.03206860                2.24249681               -2.82491614
               4.78754538                2.24711048               22.00938991                0.00010000               -0.19337953               -0.05966300                0.26782744                0.14579371                8.16771023               -1.21833777
               5.78554929                2.09516185               21.98733838                0.00010000               -0.12532502               -0.03784672                0.01565072                0.30385648               11.81774666                0.87424450
               6.78503888                1.94429777               21.95170735                0.00010000                0.03944711               -0.10899866               -0.30987397                0.38280597               11.04142146                1.51647282
               7.78633823                1.79424050               21.91307346                0.00010000                0.17206277               -0.14092580               -0.64155572                0.47540868               10.74676430                2.04635760
               8.78848013                1.64737729               21.87093849                0.07858722                0.30729543               -0.01247140               -0.96762323                0.31605962                7.48016727                3.73255337
               9.79248414                1.49669427               21.76640768                0.31531100                0.45113669                0.23957663               -1.34520463               -0.01629406                3.22464083                4.46696592
              10.79750287                1.34604905               21.63903476                0.74399979                0.56841983                0.50917216               -1.84828584               -0.04321326                1.24871180                1.63223908
              11.80385254                1.19659681               21.49477094                1.00000000                0.63496710                0.80032358               -2.42680456               -0.08599180                0.41022896               -0.94405615
               1.94758777                3.70172920               22.35807117                1.00000000               -0.34804277               -0.46050823                1.47182007               -0.04598553                0.04386098                1.55224639
               2.94410735                3.55102022               22.20053286                0.66032482               -0.26618026               -0.25872815                0.87239904               -0.00468791                0.16608322               -0.82839385
               3.94226417                3.39969380               22.04541585                0.06370142               -0.18183008               -0.05162082                0.29106461               -0.02546467                5.52283402               -3.34117540
               4.94047074                3.24681351               21.99501473                0.00010000               -0.16798022               -0.02844809                0.24765557               -0.03693593               12.66156796                0.32827364
               5.93890456                3.09445783               21.98242946                0.00010000               -0.11706640               -0.07733582               -0.00984966                0.04493723               14.73563653                0.69490414
               6.93812942                2.94294763               21.97276497                0.00010000               -0.04056290               -0.14374887               -0.22587859                0.10469246               14.75732514                1.81514886
               7.93809331                2.79288654               21.95984549                0.00010000                0.06613137               -0.18729064               -0.45652830                0.13698316               14.25622058                3.03633684
               8.93945204                2.64451588               21.93924828                0.08281619                0.16966252               -0.29498362               -0.72020891                0.14008299               11.64934520                4.32341192
               9.94148656                2.49728767               21.87325319                0.31088961                0.31024709               -0.00913833               -0.82736161                0.02699590                5.00691650                5.21484776
              10.94565699                2.35039363               21.71879712                0.71143311                0.47108574                0.38074971               -1.46493671               -0.01201641                0.33432930                1.84254284
              11.95090827                2.20458889               21.55878564                1.00000000                0.52512856                0.76236167               -2.13467689               -0.06199616                0.06180642               -0.76283704
               2.09682862                4.69746999               22.31242180                1.00000000               -0.27644807               -0.39044648                1.25086682               -0.04476973                0.02289180                1.44213363
               3.09406414                4.54883273               22.14323966                0.63743014               -0.18571601               -0.17985908                0.60926062               -0.00092666                0.09639374               -0.85221614
               4.09311430                4.39963757               21.97549675                0.05376930               -0.10107517                0.03611229               -0.02232413               -0.13579030                8.14765920               -3.18755583
               5.09204264                4.24654152               21.96731710                0.00010000               -0.14001920                0.00608882                0.06442022               -0.25333546               17.24653903               -0.58641698
               6.09031392                4.09361513               21.98137334                0.00010000               -0.16693118               -0.06251785               -0.03629751               -0.23227755               18.48251767                0.77941487
               7.08870402                3.94142280               21.99728706                0.00010000               -0.14021341               -0.15464312               -0.14480647               -0.23259574               18.57621266                2.04877743
               8.08750965                3.79049469               22.01238235                0.00010000               -0.09116732               -0.26074561               -0.26886612               -0.22541092               18.47025986                3.50557920
               9.08688067                3.64147762               22.02509716                0.09136557               -0.01816689               -0.33694454               -0.42192722               -0.15189510               14.80458894                5.33402988
              10.08714631                3.49651151               21.96539419                0.32411277                0.15403240               -0.11449464               -0.39323239               -0.02672318                5.69754060                4.03163034
              11.08996132                3.35366404               21.79477306                0.73073562                0.35378872                0.28063614               -1.10575986               -0.00006150                0.09044890                1.46756971
              12.09422209                3.21184404               21.62248996                1.00000000                0.42607703                0.67169918               -1.83478989               -0.04477720                0.01186463               -0.86979863
               2.24396690                5.69392027               22.26629009                1.00000000               -0.20456665               -0.31978131                1.03000377               -0.04440933                0.02023622                1.40237691
               3.24192123                5.54742304               22.08569336                0.61527111               -0.10636613               -0.10213882                0.34635124                0.00196681                0.10046582               -0.87214960
               4.24183957                5.40041605               21.90666408                0.04421963               -0.02473804                0.12005075               -0.32685739               -0.26089969               10.58478712               -3.12254712
               5.24142647                5.24693529               21.93571235                0.00010000               -0.12309207                0.08808021               -0.12864361               -0.53360111               21.71547424               -0.87788397
               6.23937773                5.09320747               21.97914644                0.00010000               -0.24142607               -0.00005387               -0.08520252               -0.57066081               22.53423980                0.63796842
               7.23659795                4.93985477               22.02405814                0.00010000               -0.29237344               -0.13843225               -0.06310480               -0.62973459               22.68378728                2.14088217
               8.23353026                4.78767163               22.06965076                0.00010000               -0.31003126               -0.29082132               -0.06695321               -0.66953330               22.76866627                3.77209527
               9.23039732                4.63777699               22.11503738                0.10005518               -0.23822978               -0.40686809               -0.10772518               -0.47974841               17.31713295                5.58799713
              10.22876567                4.49499777               22.04990810                0.33770680               -0.00370527               -0.18913772                0.00913513               -0.11922943                5.97363616                3.44736013
              11.23032322                4.35600635               21.86740451                0.75158843                0.24435281                0.18770480               -0.76024266               -0.00207795                0.06391956                1.17486744
              12.23365272                4.21802287               21.68375845                1.00000000                0.33295073                0.56440911               -1.54492613               -0.04317620                0.01077437               -1.06442962
               2.38893489                6.69107436               22.21984762                1.00000000               -0.13271940               -0.24987371                0.80904136               -0.04389955                0.02118397                1.37294826
               3.38760770                6.54678995               22.02791413                0.59324263               -0.02754146               -0.02441959                0.08414785                0.00456949                0.11701234               -0.89187197
               4.38838406                6.40203858               21.83785439                0.03480270                0.04857490                0.20536504               -0.62897671               -0.38274767               12.96005653               -3.11891686
               5.38857920                6.24830312               21.90272567                0.00010000               -0.12014204                0.20093197               -0.32528023               -0.80954776               26.13471169               -1.03016442
               6.38598122                6.09361406               21.97601880                0.00010000               -0.34670159                0.09915087               -0.13666546               -0.92612405               26.67887546                0.51159789
               7.38164517                5.93865415               22.05137088                0.00010000               -0.48922288               -0.08289209                0.02166359               -1.06142204               26.91978918                2.08137495
               8.37619677                5.78467826               22.12872482                0.00010000               -0.58428050               -0.29539611                0.14975298               -1.14714009               27.15122438                3.79698921
               9.36995956                5.63334026               22.20751178                0.10886527               -0.48322017               -0.47743584                0.23789861               -0.82777173               19.55838606                5.72838728
              10.36653236                5.49272875               22.13134925                0.35139739               -0.15324487               -0.26572306                0.39821106               -0.20392609                5.97767215                3.17134613
              11.36689466                5.35741814               21.93778098                0.77250952                0.13965750                0.09473116               -0.42449542               -0.00532756                0.06302155                0.98279782
              12.36932551                5.22313223               21.74309510                1.00000000                0.24308541                0.45838516               -1.26248720               -0.04290541                0.01084422               -1.20213012
               2.53165772                7.68892280               22.17311907                1.00000000               -0.06093271               -0.18127644                0.58839443               -0.04333595                0.02164176                1.34299390
               3.53104840                7.54693465               21.96988313                0.57133159                0.05068641                0.05360513               -0.17705062                0.00722363                0.13732303               -0.91121496
               4.53267145                7.40452335               21.76891297                0.02554600                0.13058221                0.29258704               -0.92904549               -0.48817658               15.27029122               -3.11703162
               5.53366004                7.25095393               21.86826773                0.00010000               -0.10836156                0.33001732               -0.51600939               -1.03361325               30.50221511               -1.14393499
               6.53050422                7.09519049               21.97172999                0.00010000               -0.46773690                0.22171875               -0.18526343               -1.22605252               30.85216771                0.37012192
               7.52430530                6.93819693               22.07774525                0.00010000               -0.73014327                0.01951541                0.11108753               -1.44694841               31.20383856                1.86424971
               8.51590136                6.78176371               22.18761998                0.00010000               -0.92569527               -0.25640240                0.38075881               -1.62745717               31.65430441                3.58293378
               9.50579140                6.62822827               22.30164220                0.11782174               -0.76460455               -0.52476793                0.62005075               -1.19202730               21.70035671                5.72052338
              10.50060927                6.48968331               22.21104975                0.36518422               -0.29891030               -0.34340494                0.77877297               -0.28709312                5.80417527                3.00193769
              11.49981319                6.35790097               22.00673513                0.79347920                0.03785887                0.00199931               -0.09538340               -0.00953587                0.06664338                0.87172600
              12.50136644                6.22719058               21.80123783                1.00000000                0.15532505                0.35461481               -0.98545888               -0.04323702                0.01109039               -1.27105427
               2.67204447                8.68744883               22.12606326                1.00000000                0.01071513               -0.11512705                0.36836533               -0.04263476                0.02849658                1.31840121
               3.67215162                8.54786205               21.91162600                0.54953768                0.12783949                0.13299788               -0.43685444                0.00918288                0.17009536               -0.94232415
               4.67460126                8.40789032               21.69996822                0.01647809                0.25440891                0.38069936               -1.22616927               -0.58087767               17.54244358               -3.01775375
               5.67723980                8.25490347               21.83289786                0.00010000               -0.01920408                0.41344678               -0.69378046               -1.15979826               34.80413178               -1.08734339
               6.67421717                8.09804843               21.96593356                0.00010000               -0.55534087                0.30410053               -0.22892495               -1.30696065               34.94885831                0.23334623
               7.66613298                7.93904446               22.10127142                0.00010000               -1.03004481                0.19410656                0.19955057               -1.58552821               35.42656614                1.44157069
               8.65361628                7.77955021               22.24333618                0.00010000               -1.39667876               -0.07400863                0.61457515               -1.98568724               36.27178165                2.94094149
               9.63819940                7.62284490               22.39506083                0.12695551               -1.12492403               -0.48977118                1.02690276               -1.61420813               23.93079493                5.27235678
              10.63111780                7.48586065               22.28958380                0.37911393               -0.45013635               -0.41895488                1.15229900               -0.39454759                5.61443277                2.78918066
              11.62919668                7.35745812               22.07498370                0.81451457               -0.06181185               -0.09062863                0.22922128               -0.01601850                0.08893843                0.84733944
              12.62988156                7.23022452               21.85890638                1.00000000                0.06848844                0.25392656               -0.71195611               -0.04389146                0.01861683               -1.28657791
               2.80997859                9.68662026               22.07882381                1.00000000                0.08119770               -0.05259241                0.15081238               -0.04159567                0.00158420                1.11866293
               3.81079056                9.54959461               21.85288224                0.52790682                0.20169509                0.21401906               -0.69631226                0.00876119                0.29992889               -0.85396626
               4.81401249                9.41213734               21.63285047                0.00768195                0.47577034                0.46266823               -1.51274573               -0.71196439               19.92002090               -2.27630363
               5.82030597                9.25922286               21.79922238                0.00010000                0.31057645                0.25901141               -0.84926645               -0.94781324               38.97632598               -0.65883774
               6.82022402                9.10127250               21.95881152                0.00010000               -0.46065054                0.30694338               -0.26664522               -0.92645424               38.76247070                0.11619568
               7.81109296                8.94207906               22.11943947                0.00010000               -1.39184221                0.36671269                0.27537214               -1.13300113               39.33833070                0.79696644
               8.79238717                8.78028353               22.28997963                0.00010000               -2.19480812                0.37664805                0.82010767               -1.69929991               40.83375039                1.68974099
               9.76719680                8.61843285               22.48092522                0.13631317               -1.71410426               -0.16793138                1.41992979               -1.69017560               26.47049409                3.47930863
              10.75810509                8.48130421               22.36532393                0.39324289               -0.60339215               -0.47530675                1.50969667               -0.55822564                5.80406509                1.96845259
              11.75512895                8.35608840               22.14348894                0.83564192               -0.15746336               -0.18207753                0.55258808               -0.02518559                0.23776101                0.76578721
              12.75495582                8.23226911               21.91651771                1.00000000               -0.01731335                0.15750355               -0.44134738               -0.04592649               -0.01553155               -1.08335067
               2.94526385               10.68639698               22.02774876                1.00000000                0.15459110               -0.02232726               -0.07286259                0.10307146                0.57146197                0.92839934
               3.94680976               10.55214244               21.79630192                0.75708660                0.27349332                0.25478264               -0.94352570                0.13925498                1.26115330               -0.74119356
               4.95073371               10.41714369               21.57858850                0.50109122                1.11693062                0.50063504               -1.74699048               -0.93081428               22.51384684               -1.62674758
               5.96914837               10.26008369               21.77211594                0.44259551                1.10490907                0.08608316               -0.96435477               -0.76357921               42.58935043               -0.37609101
               6.97283190               10.10418730               21.95060875                0.43393610               -0.23432256                0.29148010               -0.29757401               -0.42446109               42.01403947                0.05534614
               7.96446192                9.94637871               22.12991918                0.45203233               -1.47777024                0.42996557                0.32685827               -0.51831002               42.66035044                0.43573007
               8.94327649                9.78708317               22.32052902                0.49503207               -3.05433551                0.67996401                0.96031324               -1.25569015               44.53794105                0.94523453
               9.90337521                9.61948627               22.53847686                0.57127537               -3.04893797                0.10534247                1.67933929               -1.91859136               29.27146084                2.15396473
              10.88229773                9.47635452               22.42758274                0.70122629               -1.28235694               -0.49496974                1.79837542               -0.86422027                7.31434525                1.29504594
              11.87772807                9.35381657               22.21010419                0.92452590               -0.28480598               -0.22718245                0.86323466                0.11091563                1.25315642                0.67277342
              12.87660161                9.23337459               21.97808929                1.00000000               -0.11264591                0.11054846               -0.15477584                0.12038115                0.52946874               -0.87945162
               1.61391345                0.78003309               23.51449514                1.00000000               -0.55644625               -0.61445976                2.11597692               -0.11126907               -1.15055589                1.19447371
               2.60834899                0.61218538               23.37495175                1.00000000               -0.48044972               -0.45147961                1.61105509               -0.06986643               -1.18522041               -0.07391935
               3.60430446                0.44381619               23.23475499                0.68570279               -0.31788913               -0.29460295                1.09931400               -0.04904991               -0.85784536               -1.02212774
               4.60199121                0.27531587               23.10188813                0.51898307               -0.13940520               -0.16245420                0.59904535               -0.03017914                0.99873511               -0.10926490
               5.60151635                0.10737017               22.99960715                0.44917827                0.02318331               -0.02123163                0.10154991               -0.03109513                3.91456127               -0.10004936
               6.60245487               -0.05954447               22.92661466                0.45182566                0.13956004                0.12502458               -0.41408160               -0.04240115                5.24892339                0.01947461
               7.60430755               -0.22612220               22.85213404                0.52156601                0.24963993                0.26791937               -0.92052546               -0.03594046                3.75439349                0.11606179
               8.60744767               -0.39317164               22.74868870                0.66580860                0.40042919                0.40623268               -1.41945270               -0.03792539                1.10123630                0.17546205
               9.61231614               -0.56045894               22.61986920                0.90551850                0.57268133                0.54374056               -1.93461284               -0.05234260               -0.70550384                0.51402009
              10.61890130               -0.72736366               22.47942314                1.00000000                0.73877289                0.69652696               -2.48407062               -0.06923012               -1.11775558                0.44669321
              11.62709160               -0.89371928               22.34202970                1.00000000                0.81902975                0.87241546               -2.99658317               -0.12538246               -0.95658762               -1.03762091
               1.78064848                1.77388850               23.46350453                1.00000000               -0.48896991               -0.58692183                1.89580272               -0.03784804               -0.01493541                1.51229104
               2.77575878                1.60767058               23.32329287                0.90811600               -0.41998836               -0.41528538                1.39442826                0.00143993                0.11562672               -0.21071561
               3.77224871                1.44087016               23.18568113                0.23231422               -0.29231778               -0.25141030                0.91947229                0.01993765                1.57163529               -1.67833665
               4.76991242                1.27369133               23.07454340                0.00010000               -0.18065679               -0.12252370                0.48048272                0.05965106                4.07960343               -1.86366911
               5.76863557                1.10715785               22.98637258                0.00010000               -0.05676875               -0.06921570                0.03497737                0.09580351                6.90781683                0.61817202
               6.76877705                0.94170577               22.93023513                0.00010000                0.10630796               -0.00962231               -0.41943526                0.12188224                8.50791320                0.75635843
               7.77076173                0.77655699               22.87277854                0.00010000                0.27298695                0.06079666               -0.85799814                0.10161936                6.91731063                0.77685647
               8.77423679                0.61089069               22.78500785                0.20587473                0.40634941                0.32368305               -1.28591774                0.03077340                4.17455534                2.17149793
               9.77888872                0.44497847               22.67355100                0.56803204                0.53011902                0.47813631               -1.72902268                0.00553864                2.15402810                1.79958025
              10.78483917                0.27960161               22.54586369                1.00000000                0.66523347                0.64121936               -2.18674619               -0.00152018                0.78271310                0.85855603
              11.79219339                0.11500487               22.40696540                1.00000000                0.73542241                0.84265604               -2.72042343               -0.05150421                0.22746136               -1.10514501
               1.94559232                2.76829466               23.41890448                1.00000000               -0.41961942               -0.52850145                1.68859766               -0.04605827                0.20514798                1.75260320
               2.94139613                2.60387967               23.26890364                0.68982383               -0.34549301               -0.33710264                1.13624877               -0.00885880                0.43227464               -0.61101378
               3.93868246                2.43878798               23.12342164                0.08180611               -0.22497984               -0.14715367                0.62878178               -0.00093649                2.36492206               -2.97558676
               4.93689653                2.27286540               23.01208853                0.00010000               -0.16322400               -0.10005318                0.27102901               -0.05503307                8.41671365               -1.22020781
               5.93541798                2.10598586               22.98744923                0.00010000               -0.07015746               -0.12388809                0.00519157               -0.03778724               12.09455735                0.90732889
               6.93549338                1.94026308               22.94851734                0.00010000                0.08685241               -0.17014704               -0.32918377                0.02435051               11.29119445                1.60590836
               7.93715503                1.77509373               22.90653059                0.00010000                0.20741429               -0.16431293               -0.66767257                0.14596613               11.00876314                2.17307532
               8.93964167                1.61330202               22.86111685                0.07648609                0.32804797               -0.04355115               -0.99668677                0.11501982                7.73485335                3.87147448
               9.94371599                1.44910379               22.75284304                0.30940366                0.46014100                0.19648113               -1.36749995               -0.08041716                3.39364168                4.71024620
              10.94884449                1.28546073               22.62044565                0.72799237                0.57694970                0.50020992               -1.86922379               -0.06098525                1.31590112                1.71905128
              11.95525498                1.12313384               22.47039342                1.00000000                0.64104959                0.82221364               -2.44819742               -0.09765076                0.43921476               -0.99355440
               2.10855729                3.76331847               23.37277921                1.00000000               -0.34690085               -0.46235764                1.47005434               -0.04629170                0.04313912                1.58669593
               3.10508828                3.60092853               23.20922808                0.64814055               -0.26565180               -0.25478215                0.86637037               -0.00451801                0.17461345               -0.88447266
               4.10324425                3.43792708               23.04828365                0.06155121               -0.17371970               -0.04036115                0.28169787               -0.10808382                5.81193916               -3.50381212
               5.10161388                3.27169027               22.99748000                0.00010000               -0.13810522               -0.09889324                0.24317634               -0.26558321               13.11888730                0.33383740
               6.10048215                3.10468009               22.98226265                0.00010000               -0.07288504               -0.13271900               -0.02516035               -0.26590609               15.11475099                0.72451299
               7.10015618                2.93830283               22.97039057                0.00010000                0.00799855               -0.20102497               -0.25041173               -0.22652192               15.16343495                1.89421495
               8.10064212                2.77327073               22.95512449                0.00010000                0.11854725               -0.23929028               -0.48868420               -0.18204813               14.65210517                3.15534700
               9.10252713                2.61001966               22.93185509                0.08073182                0.22397776               -0.35248601               -0.75878118               -0.10057200               12.12556534                4.46256635
              10.10512167                2.44890809               22.86489958                0.30541775                0.35311398               -0.08367760               -0.84362576               -0.06040767                5.30863384                5.48704758
              11.10958941                2.28960581               22.70406059                0.69708075                0.48862384                0.36076685               -1.48219650               -0.01680057                0.35165443                1.94686415
              12.11489415                2.13144915               22.53733965                1.00000000                0.53047411                0.79403386               -2.15392450               -0.06469418                0.06304458               -0.79628027
               2.26944636                4.75904750               23.32491444                1.00000000               -0.27492144               -0.39119003                1.24796105               -0.04509297                0.02286165                1.47439258
               3.26669715                4.59878403               23.14929348                0.62572711               -0.18436595               -0.17542005                0.60123518                0.00000845                0.10147410               -0.90536317
               4.26575904                4.43798076               22.97521427                0.05181656               -0.09326468                0.04669566               -0.03494676               -0.25230479                8.51811937               -3.32971267
               5.26483186                4.27088753               22.96790197                0.00010000               -0.11358761               -0.03380623                0.05040947               -0.52197203               17.89242975               -0.66696436
               6.26348729                4.10333148               22.98090898                0.00010000               -0.12297772               -0.10719808               -0.05860213               -0.55068689               19.04241428                0.79484866
               7.26237230                3.93624258               22.99568991                0.00010000               -0.08450285               -0.20591185               -0.17645783               -0.56696933               19.13928970                2.12308798
               8.26179724                3.77030793               23.00949626                0.00010000               -0.01897149               -0.32047067               -0.30992409               -0.55761287               19.02654187                3.62907227
               9.26199287                3.60625230               23.02063329                0.08912800                0.05622274               -0.41324058               -0.47195206               -0.40561776               15.46463080                5.50167357
              10.26292169                3.44743023               22.96139828                0.31835525                0.19872722               -0.17542766               -0.40649123               -0.12309615                6.09299291                4.23793322
              11.26596742                3.29267606               22.78364228                0.71591762                0.36763649                0.26375489               -1.12041653               -0.00209247                0.09955621                1.54910546
              12.27027442                3.13901452               22.60405346                1.00000000                0.43070041                0.69928122               -1.85204234               -0.04419081                0.01267400               -0.90363634
               2.42818238                5.75549467               23.27657041                1.00000000               -0.20271890               -0.31981651                1.02633510               -0.04466407                0.02011998                1.43438796
               3.42615519                5.59742013               23.08910982                0.60400882               -0.10438677               -0.09748813                0.33665461                0.00327650                0.10571273               -0.92420836
               4.42609465                5.43886100               22.90332411                0.04245543               -0.01657347                0.12997432               -0.34192167               -0.39818240               11.03126009               -3.25741370
               5.42582372                5.27101414               22.93433145                0.00010000               -0.09906434                0.06997950               -0.14959192               -0.83050405               22.53285229               -0.96326268
               6.42411336                5.10253613               22.97815788                0.00010000               -0.19916879               -0.03160455               -0.11477084               -0.90361847               23.27837853                0.63935901
               7.42184035                4.93418460               23.02323922                0.00010000               -0.23166092               -0.18368694               -0.10300860               -0.98276420               23.42122599                2.21377700
               8.41948014                4.76686132               23.06873457                0.00010000               -0.22739415               -0.35135109               -0.11859699               -1.02877476               23.49273956                3.90576255
               9.41729247                4.60175485               23.11364788                0.09766793               -0.16220778               -0.48242618               -0.17225204               -0.75478157               18.13696367                5.77384454
              10.41623599                4.44539953               23.04994990                0.33166531                0.03354052               -0.23339760               -0.00149227               -0.22176225                6.44508384                3.62606970
              11.41796328                4.29488091               22.85973918                0.73622852                0.25487199                0.17643124               -0.77298717               -0.00441425                0.07214923                1.24220753
              12.42133343                4.14543477               22.66822598                1.00000000                0.33701502                0.58588107               -1.56124189               -0.04271044                0.01119770               -1.10690443
               2.58470216                6.75265117               23.22791594                1.00000000               -0.13058117               -0.24945501                0.80484472               -0.04410680                0.02094855                1.40480566
               3.58339635                6.59683426               23.02870199                0.58244666               -0.02503897               -0.01968286                0.07311338                0.00612968                0.12288136               -0.94245349
               4.58420138                6.44058024               22.83148382                0.03323217                0.05751456                0.21477139               -0.64594506               -0.53174070               13.47991851               -3.25004416
               5.58454664                6.27228712               22.89935243                0.00010000               -0.09784557                0.19876395               -0.35135436               -1.12559650               27.12041533               -1.11308396
               6.58224447                6.10269939               22.97448466                0.00010000               -0.30774056                0.08221985               -0.17266382               -1.27579848               27.60964739                0.51164801
               7.57839183                5.93256884               23.05136091                0.00010000               -0.42964925               -0.11866130               -0.02650772               -1.43558522               27.83971976                2.15481087
               8.57365148                5.76328090               23.12992441                0.00010000               -0.50164016               -0.34902928                0.08698866               -1.53378671               28.05651451                3.94096111
               9.56835903                5.59660378               23.20950651                0.10633529               -0.41455464               -0.54176601                0.15788182               -1.11651109               20.52312942                5.94397404
              10.56536039                5.44276228               23.13529370                0.34508234               -0.12575655               -0.29655782                0.38997219               -0.30412281                6.50246332                3.33608640
              11.56584389                5.29620469               22.93348064                0.75663713                0.14760439                0.08783819               -0.43580988               -0.00778257                0.07122466                1.04049714
              12.56831248                5.15073214               22.73038875                1.00000000                0.24685850                0.47507684               -1.27858402               -0.04255990                0.01114605               -1.25100440
               2.73893407                7.75050557               23.17897911                1.00000000               -0.05853500               -0.18054110                0.58378245               -0.04351934                0.02126214                1.37508276
               3.73834872                7.59702647               22.96805372                0.56101880                0.05364529                0.05833114               -0.18914538                0.00890096                0.14396455               -0.96003796
               4.74000697                7.44315642               22.75953425                0.02417031                0.14219675                0.30141122               -0.94746033               -0.64121126               15.86556339               -3.24432454
               5.74119265                7.27498942               22.86296960                0.00010000               -0.08456508                0.34087058               -0.54559303               -1.35441174               31.65632428               -1.21713938
               6.73831567                7.10418053               22.96968443                0.00010000               -0.43227630                0.21819102               -0.22657369               -1.58193673               31.96879086                0.37175254
               7.73254713                6.93181137               23.07859535                0.00010000               -0.67730983               -0.00312439                0.05556226               -1.82949628               32.31223584                1.93577760
               8.72476947                6.75988073               23.19108314                0.00010000               -0.85331299               -0.29661045                0.30787424               -2.02814421               32.75707383                3.73157194
               9.71548087                6.59091953               23.30739503                0.11516229               -0.71084280               -0.57169241                0.52588135               -1.48563172               22.79788720                5.96384016
              10.71055262                6.43946838               23.21881189                0.35862317               -0.28215491               -0.36336505                0.77293439               -0.38171333                6.35904345                3.15727751
              11.70983777                6.29663767               23.00573208                0.77712472                0.04373548               -0.00152647               -0.10548140               -0.01206232                0.07519482                0.92315089
              12.71142733                6.15493631               22.79130143                1.00000000                0.15895601                0.36744480               -1.00169539               -0.04299662                0.01135262               -1.32435535
               2.89078997                8.74904035               23.12972113                1.00000000                0.01335435               -0.11410282                0.36333456               -0.04282541                0.02817524                1.35184406
               3.89092351                8.59800089               22.90719388                0.53970706                0.13121192                0.13767354               -0.44984648                0.01083311                0.17809223               -0.98986164
               4.89341420                8.44660847               22.68761202                0.01530980                0.27553958                0.38875102               -1.24574017               -0.73193858               18.21849167               -3.13728767
               5.89643430                8.27910454               22.82580969                0.00010000                0.01847912                0.42822165               -0.72578655               -1.46452084               36.12791275               -1.14427941
               6.89378379                8.10706321               22.96343195                0.00010000               -0.51663018                0.30486336               -0.27431858               -1.63260944               36.24538757                0.23619205
               7.88610170                7.93250636               23.10297928                0.00010000               -0.99016740                0.18835119                0.13819716               -1.93458743               36.72445468                1.50133433
               8.87398044                7.75734870               23.24910206                0.00010000               -1.35214748               -0.08757542                0.53385041               -2.36473685               37.58685259                3.07321937
               9.85905875                7.58516993               23.40483686                0.12416651               -1.09862255               -0.50829293                0.92237257               -1.90736752               25.15620710                5.51955031
              10.85200799                7.43549498               23.30109324                0.37230552               -0.44620144               -0.42998652                1.14892113               -0.48593875                6.18329521                2.93219372
              11.85013472                7.29617416               23.07723255                0.79768973               -0.05763590               -0.09161392                0.22033133               -0.01874027                0.09909437                0.89565254
              12.85085527                7.15808103               22.85170425                1.00000000                0.07205509                0.26349133               -0.72837454               -0.04373085                0.01932514               -1.34302868
               3.04015649                9.74822351               23.08030409                1.00000000                0.08407732               -0.05125899                0.14531028               -0.04178201               -0.00129091                1.15013631
               4.04099726                9.59977994               22.84585064                0.51856416                0.20540314                0.21869371               -0.71022519                0.01012362                0.31287333               -0.89492610
               5.04426455                9.45093144               22.61762267                0.00671545                0.52251172                0.46994058               -1.53334385               -0.86284916               20.68753030               -2.36365269
               6.05144750                9.28355385               22.79057064                0.00010000                0.39985551                0.23935178               -0.88298189               -1.17049146               40.46882790               -0.68878840
               7.05226166                9.11027780               22.95591886                0.00010000               -0.39388041                0.30050032               -0.31495251               -1.14333985               40.22561599                0.11767441
               8.04356989                8.93557839               23.12188667                0.00010000               -1.37252488                0.37796745                0.20991926               -1.35846767               40.81231193                0.83096630
               9.02481116                8.75812923               23.29777795                0.00010000               -2.21913294                0.40699237                0.73423559               -1.96514725               42.36544541                1.77138325
               9.99918723                8.58075367               23.49460824                0.13339077               -1.74907757               -0.12177293                1.30993522               -1.92354193               27.83124275                3.65278855
              10.98982961                8.43086865               23.38041866                0.38618309               -0.61551605               -0.47834752                1.50868702               -0.65508494                6.39195663                2.06855881
              11.98687691                8.29480539               23.14897772                0.81834849               -0.15453266               -0.18127531                0.54503450               -0.02827745                0.25606659                0.80705012
              12.98673896                8.16020613               22.91202112                1.00000000               -0.01379491                0.16443373               -0.45782929               -0.04588894               -0.01618731               -1.13314024
               3.18684146               10.74801517               23.02698983                1.00000000                0.15765832               -0.02083376               -0.07892394                0.10445627                0.58415825                0.95674443
               4.18841805               10.60237476               22.78679360                0.75255897                0.27709219                0.25948199               -0.95835076                0.14168381                1.30812874               -0.77584680
               5.19238331               10.45600728               22.56101500                0.50067060                1.26300371                0.50758351               -1.76819744               -1.11228394               23.38679399               -1.68745011
               6.21367812               10.28389157               22.76230851                0.44303352                1.32545717                0.03377166               -0.99913146               -0.92364094               44.24069419               -0.39890591
               7.21889245               10.11307321               22.94739834                0.43413521               -0.12986036                0.27954174               -0.34769734               -0.52821449               43.61998806                0.05013287
               8.21108091                9.94006570               23.13286875                0.45184535               -1.46951179                0.44873107                0.25876156               -0.62813103               44.27904045                0.44889825
               9.18950221                9.76548854               23.32971424                0.49438826               -3.16162131                0.73593165                0.87120583               -1.39745669               46.23287438                0.98584941
              10.14784849                9.58273447               23.55474043                0.56977347               -3.23238217                0.19807971                1.56642714               -2.11189985               30.77404507                2.26581318
              11.12485457                9.42592803               23.44556778                0.69761536               -1.38084021               -0.49406174                1.79817444               -1.00679502                7.98171825                1.36086708
              12.12023168                9.29254865               23.21870472                0.91572889               -0.28592840               -0.22567378                0.85686526                0.10756137                1.32257769                0.70765071
              13.11913600                9.16136971               22.97646046                1.00000000               -0.10956799                0.11635746               -0.17071877                0.12180998                0.55654840               -0.92124056
               1.74428860                0.84424440               24.53567081                1.00000000               -0.55841762               -0.61624437                2.11930999               -0.11045894               -1.18780399                1.22938766
               2.73870443                0.66415263               24.39106869                1.00000000               -0.48458447               -0.45167176                1.61204336               -0.06908632               -1.22591448               -0.08142767
               3.73459691                0.48348715               24.24574324                0.68264041               -0.34076878               -0.29137723                1.09758258               -0.06919739               -0.89591055               -1.03753637
               4.73188905                0.30214620               24.10786378                0.51843115               -0.19780104               -0.16132054                0.59492225               -0.07225701                0.96659197               -0.11239878
               5.73064089                0.11992542               24.00058186                0.44925481               -0.04287553               -0.01893026                0.09197511               -0.06996054                3.87425442               -0.10266982
               6.73103154               -0.06292989               23.92239290                0.45164080                0.12638230                0.12819740               -0.43157028               -0.06317588                5.20519409                0.02183569
               7.73316854               -0.24588352               23.84281602                0.52046054                0.29593634                0.27291545               -0.94406197               -0.06450470                3.72085156                0.12280883
               8.73695027               -0.42835919               23.73437524                0.66281479                0.45441125                0.41263055               -1.44383259               -0.06919546                1.06587454                0.18420530
               9.74225676               -0.60997343               23.60041351                0.89881848                0.60294564                0.54873255               -1.95663467               -0.06944773               -0.76480754                0.52421787
              10.74900918               -0.79065246               23.45447272                1.00000000                0.75137152                0.70112451               -2.50573954               -0.07012664               -1.17519557                0.48213688
              11.75728420               -0.97068489               23.31196131                1.00000000                0.82750141                0.88006883               -3.01666913               -0.12472004               -0.99526489               -1.09188571
               1.92327578                1.83808196               24.48247223                1.00000000               -0.48835945               -0.58934358                1.89789072               -0.03728394               -0.00246735                1.55344906
               2.91839219                1.65963592               24.33723906                0.89241270               -0.41838125               -0.41504122                1.39451258                0.00189152                0.14202732               -0.23970151
               3.91490816                1.48057338               24.19488267                0.22761105               -0.27224201               -0.24657117                0.92017185               -0.00846981                1.62939487               -1.75076093
               4.91294735                1.30053299               24.07933876                0.00010000               -0.12144132               -0.11882406                0.47759095               -0.04371278                4.15363311               -1.91134712
               5.91247933                1.11973612               23.98668578                0.00010000                0.01784521               -0.12535297                0.02662761               -0.09050891                6.97742565                0.63208622
               6.91330425                0.93835209               23.92595777                0.00010000                0.13794064               -0.04048035               -0.43673265               -0.10703085                8.58761676                0.80468955
               7.91523814                0.75684564               23.86407741                0.00010000                0.24995083                0.06197887               -0.88254720               -0.09197636                7.01956905                0.84663403
               8.91830327                0.57576711               23.77201944                0.20170318                0.37353883                0.31593698               -1.31180998               -0.07086256                4.28026169                2.25762402
               9.92270892                0.39551390               23.65613551                0.55798892                0.51801876                0.47620203               -1.75386865               -0.03184584                2.24654341                1.88923345
              10.92866364                0.21635878               23.52389176                1.00000000                0.66802515                0.64428143               -2.20716083               -0.00683836                0.82901948                0.90352893
              11.93606942                0.03811580               23.37965551                1.00000000                0.74057798                0.85181841               -2.74086962               -0.05144304                0.23437695               -1.16162483
               2.10043501                2.83245753               24.43579203                1.00000000               -0.41841752               -0.53144023                1.68911640               -0.04671987                0.21078588                1.79422942
               3.09625083                2.65585181               24.28024599                0.67626875               -0.34522845               -0.33474913                1.13187091               -0.00994035                0.46150791               -0.66668185
               4.09353044                2.47855573               24.12969008                0.07896111               -0.21993876               -0.13742269                0.62416403               -0.03696130                2.49422350               -3.13276958
               5.09185206                2.29976972               24.01481049                0.00010000               -0.12594090               -0.14280906                0.27257717               -0.26076145                8.66556245               -1.22601952
               6.09101162                2.11741836               23.98744221                0.00010000               -0.00353261               -0.21238903               -0.00774414               -0.38497634               12.36287674                0.93557230
               7.09178141                1.93626050               23.94512367                0.00010000                0.14511810               -0.23463623               -0.35038612               -0.34151398               11.53541526                1.69156654
               8.09391399                1.75535606               23.89972001                0.00010000                0.25416750               -0.19089103               -0.69484792               -0.19341047               11.26765159                2.29704714
               9.09686476                1.57795955               23.85100476                0.07428435                0.35570955               -0.07581718               -1.02563096               -0.09602327                7.99250218                4.00604971
              10.10102818                1.39955061               23.73905768                0.30335039                0.47028768                0.14797387               -1.38904799               -0.14907872                3.56777996                4.95948231
              11.10627051                1.22223317               23.60165028                0.71190756                0.58565656                0.48877496               -1.88924938               -0.08063833                1.38454753                1.80890866
              12.11274131                1.04635148               23.44580699                1.00000000                0.64707961                0.84437226               -2.46816211               -0.11108759                0.46866506               -1.04125658
               2.27555283                3.82745315               24.38747225                1.00000000               -0.34576471               -0.46454449                1.46880168               -0.04658344                0.04223874                1.62071656
               3.27209518                3.65294093               24.21786027                0.63580311               -0.26509024               -0.25040437                0.85977925               -0.00426335                0.18345328               -0.94260516
               4.27025102                3.47782493               24.05104981                0.05931829               -0.16128467               -0.02764404                0.27072286               -0.19631822                6.10550829               -3.67200734
               5.26886949                3.29767681               23.99987826                0.00010000               -0.09810029               -0.17094695                0.23430392               -0.49960616               13.57763240                0.32953712
               6.26828902                3.11548834               23.98192625                0.00010000               -0.01666059               -0.19007412               -0.04353876               -0.58274031               15.48820029                0.74810403
               7.26853628                2.93365936               23.96775674                0.00010000                0.06909374               -0.26123017               -0.27744592               -0.56696991               15.56459133                1.96784365
               8.26967089                2.75302782               23.95007180                0.00010000                0.18259878               -0.29450053               -0.52246454               -0.51127338               15.04375967                3.26829513
               9.27218825                2.57425077               23.92407266                0.07854935                0.28914165               -0.41206266               -0.79752240               -0.35739694               12.61130379                4.59323116
              10.27545373                2.39847337               23.85638067                0.29979018                0.40308792               -0.16653800               -0.86016552               -0.15737403                5.62239444                5.76444425
              11.28025001                2.22613428               23.68915319                0.68263395                0.50786635                0.33671956               -1.49883780               -0.02216874                0.36913771                2.05446619
              12.28561105                2.05500324               23.51570715                1.00000000                0.53610423                0.82667503               -2.17156474               -0.06750911                0.06403429               -0.82795295
               2.44852778                4.82316664               24.33738102                1.00000000               -0.27339884               -0.39233082                1.24562311               -0.04540933                0.02275641                1.50674322
               3.44579379                4.65084372               24.15526437                0.61387615               -0.18297920               -0.17052837                0.59264028                0.00114060                0.10679098               -0.96027332
               4.44486820                4.47800285               23.97479781                0.04979365               -0.07986337                0.05866532               -0.04916346               -0.37504127                8.89029203               -3.47550829
               5.44419653                4.29635078               23.96832529                0.00010000               -0.07469651               -0.07286165                0.03215441               -0.80028535               18.53858355               -0.75577425
               6.44337427                4.11361688               23.98020130                0.00010000               -0.06469972               -0.15346810               -0.08471825               -0.87831805               19.59867869                0.80346222
               7.44290253                3.93103590               23.99375791                0.00010000               -0.01385794               -0.26000263               -0.21140550               -0.91206673               19.69739790                2.19064190
               8.44309711                3.74946605               24.00618386                0.00010000                0.06843645               -0.38345432               -0.35360556               -0.90060515               19.57715738                3.74434545
               9.44427126                3.56971829               24.01565812                0.08679747                0.14500359               -0.49350596               -0.52352907               -0.67565931               16.14088246                5.65846492
              10.44599718                3.39621985               23.95726436                0.31246306                0.25130023               -0.24248100               -0.42070201               -0.23142090                6.50856802                4.44768995
              11.44929727                3.22896756               23.77236473                0.70103406                0.38280126                0.24389250               -1.13492557               -0.00473806                0.10907453                1.63246630
              12.45365321                3.06288498               23.58544911                1.00000000                0.43559404                0.72731251               -1.86807459               -0.04365677                0.01333427               -0.93730691
               2.61929048                5.81960654               24.28681679                1.00000000               -0.20086955               -0.32024306                1.02317660               -0.04491839                0.01998340                1.46674195
               3.61728178                5.64953037               24.09242645                0.59262499               -0.10236692               -0.09233679                0.32633015                0.00476749                0.11132140               -0.97764367
               4.61724314                5.47899823               23.89982564                0.04062125               -0.00160165                0.14123557               -0.35861636               -0.54234939               11.47779185               -3.39511344
               5.61724975                5.29621958               23.93272051                0.00010000               -0.06028037                0.05262593               -0.17461019               -1.13945600               23.34879880               -1.05434892
               6.61603753                5.11241898               23.97685102                0.00010000               -0.14019892               -0.06482078               -0.14860078               -1.24844237               24.01883872                0.63463218
               7.61444577                4.92845931               24.02199797                0.00010000               -0.15305687               -0.23208309               -0.14717051               -1.34814858               24.15269859                2.27961949
               8.61297640                4.74535873               24.06727882                0.00010000               -0.12622549               -0.41585647               -0.17428126               -1.39971589               24.20862143                4.03032126
               9.61192126                4.56438065               24.11159234                0.09519334               -0.07001774               -0.56228547               -0.24032953               -1.04766907               18.98059997                5.94715084
              10.61157604                4.39362375               24.04987825                0.32549098                0.07844288               -0.28156779               -0.01344245               -0.33790981                6.94635701                3.80807858
              11.61349012                4.23101213               23.85194477                0.72081669                0.26635181                0.16338146               -0.78597466               -0.00737126                0.08099942                1.31061120
              12.61690308                4.06954949               23.65253362                1.00000000                0.34129576                0.60758578               -1.57681681               -0.04231338                0.01152896               -1.15065825
               2.78778176                6.81676178               24.23594451                1.00000000               -0.12843105               -0.24936378                0.80105064               -0.04431595                0.02073860                1.43713313
               3.78649745                6.64899699               24.02937640                0.57152324               -0.02248800               -0.01441825                0.06139710                0.00782699                0.12926440               -0.99396110
               4.78733200                6.48082756               23.82493549                0.03159513                0.07446089                0.22552123               -0.66457330               -0.68849961               13.99878255               -3.38321243
               5.78798666                6.29740330               23.89569858                0.00010000               -0.05831530                0.19671506               -0.38132308               -1.45602496               28.10298543               -1.19973531
               6.78616569                6.11232046               23.97256552                0.00010000               -0.24934285                0.06296348               -0.21339105               -1.63961534               28.53561647                0.50687417
               7.78299981                5.92639424               24.05084072                0.00010000               -0.34921209               -0.15825995               -0.07998088               -1.82330020               28.75185190                2.22195216
               8.77918145                5.74114892               24.13046459                0.00010000               -0.39734760               -0.40706188                0.01847285               -1.93274509               28.95058609                4.07639271
               9.77505286                5.55847258               24.21066941                0.10371939               -0.32869743               -0.61029606                0.07191825               -1.42306489               21.51977307                6.14743967
              10.77260750                5.39058849               24.13914870                0.33864084               -0.09143780               -0.32972170                0.38039982               -0.41801734                7.06738175                3.50415928
              11.77322410                5.23223519               23.92906479                0.74072292                0.15623591                0.07999758               -0.44757390               -0.01071862                0.08022502                1.09891814
              12.77573222                5.07503669               23.71752341                1.00000000                0.25081194                0.49192384               -1.29432891               -0.04226362                0.01141768               -1.30192650
               2.95393375                7.81461926               24.18479472                1.00000000               -0.05612054               -0.18005227                0.57947155               -0.04369080                0.02093517                1.40765074
               3.95337254                7.64924200               23.96610023                0.55056838                0.05665450                0.06354563               -0.20189893                0.01072610                0.15126467               -1.00936667
               4.95506684                7.48350866               23.74996376                0.02273004                0.16319034                0.31142966               -0.96742054               -0.80324167               16.45919707               -3.37290208
               5.95663635                7.30015388               23.85735587                0.00010000               -0.04062766                0.35067673               -0.57897408               -1.69194784               32.80569847               -1.29249590
               6.95425429                7.11367825               23.96719852                0.00010000               -0.37425178                0.21086913               -0.27306361               -1.95350621               33.07902858                0.36998649
               7.94915131                6.92529411               24.07885650                0.00010000               -0.60055676               -0.03072048               -0.00633627               -2.22543018               33.41089832                2.00252523
               8.94224315                6.73721749               24.19377747                0.00010000               -0.75654624               -0.34145645                0.22749625               -2.44025404               33.84577224                3.87364354
               9.93402039                6.55217473               24.31215983                0.11240224               -0.63950293               -0.62249438                0.42286401               -1.79543303               23.93538463                6.19782963
              10.92945309                6.38702932               24.22650844                0.35191693               -0.25964203               -0.38453693                0.76578968               -0.48910649                6.96392693                3.31604393
              11.92882755                6.23261209               24.00462550                0.76072229                0.05008514               -0.00548303               -0.11607408               -0.01489456                0.08471950                0.97524667
              12.93045479                6.07938797               23.78120392                1.00000000                0.16272455                0.38037798               -1.01780378               -0.04278959                0.01164796               -1.37991829
               3.11766246                8.81316073               24.13332995                1.00000000                0.01601084               -0.11324887                0.35852753               -0.04298793                0.02790746                1.38568408
               4.11782257                8.65026790               23.90262907                0.52974309                0.13464105                0.14271849               -0.46336380                0.01261612                0.18682713               -1.03765792
               5.12035528                8.48705615               23.67505341                0.01406985                0.30777746                0.39763208               -1.26655461               -0.89374090               18.89248740               -3.25751946
               6.12397812                8.30441683               23.81838213                0.00010000                0.08000267                0.43971943               -0.76145434               -1.78841585               37.44569226               -1.20234071
               7.12195534                8.11653785               23.96044719                0.00010000               -0.45130814                0.29906732               -0.32527159               -1.97354867               37.53405719                0.23698234
               8.11495196                7.92577983               24.10403536                0.00010000               -0.92297945                0.17573999                0.06952544               -2.29446319               38.01116512                1.55819393
               9.10349575                7.73431979               24.25401319                0.00010000               -1.28097954               -0.10592345                0.44396858               -2.75128886               38.88623040                3.20169034
              10.08933237                7.54602270               24.41350828                0.12127340               -1.05538672               -0.52948426                0.80629437               -2.21307422               26.42885396                5.76198141
              11.08238801                7.38289776               24.31256222                0.36534581               -0.43824054               -0.44142352                1.14443582               -0.58877619                6.81012715                3.07863196
              12.08056756                7.23212553               24.07939032                0.78080920               -0.05316784               -0.09274313                0.21102450               -0.02166146                0.11035098                0.94475400
              13.08132466                7.08264425               23.84433889                1.00000000                0.07571009                0.27310619               -0.74474088               -0.04360312                0.02009544               -1.40159458
               3.27885966                9.81235428               24.08173002                1.00000000                0.08697843               -0.05001716                0.13993003               -0.04194107               -0.00420252                1.18188840
               4.27972945                9.65209637               23.83867773                0.50906964                0.20917132                0.22358407               -0.72445515                0.01158007                0.32659306               -0.93611464
               5.28304309                9.49146130               23.60218359                0.00567383                0.58284476                0.47769320               -1.55474744               -1.02743535               21.45276634               -2.45130882
               6.29138634                9.30894827               23.78156274                0.00010000                0.51886131                0.21065033               -0.92023143               -1.41004569               41.95440057               -0.71929831
               7.29342031                9.11965959               23.95251247                0.00010000               -0.29531168                0.28465672               -0.36908664               -1.37116377               41.67976433                0.11820796
               8.28548011                8.92880891               24.12363786                0.00010000               -1.32229039                0.38063413                0.13648212               -1.58928470               42.27429628                0.86376078
               9.26697451                8.73509902               24.30466434                0.00010000               -2.21495842                0.43038921                0.63797991               -2.23286580               43.88155755                1.85177165
              10.24118094                8.54158504               24.50712392                0.13036505               -1.76998846               -0.07422706                1.18640891               -2.16139866               29.24517332                3.82534157
              11.23157474                8.37820085               24.39549768                0.37896665               -0.62665584               -0.48120742                1.50677018               -0.76240153                7.04309418                2.17119162
              12.22864782                8.23075722               24.15438963                0.80097879               -0.15147286               -0.18049690                0.53724991               -0.03156796                0.27564208                0.84912138
              13.22854528                8.08485009               23.90736112                1.00000000               -0.01025422                0.17134272               -0.47417488               -0.04589015               -0.01680885               -1.18451277
               3.43733947               10.81216039               24.02617028                1.00000000                0.16076878               -0.01938933               -0.08498363                0.10589972                0.59675560                0.98530835
               4.43894716               10.65473958               23.77713490                0.74795281                0.28076050                0.26432092               -0.97342655                0.14425254                1.35610540               -0.81081092
               5.44295468               10.49661002               23.54322455                0.50021199                1.43158793                0.51487178               -1.79020673               -1.31432788               24.25753206               -1.74837516
               6.46757892               10.30862984               23.75213331                0.44344981                1.58583713               -0.03184305               -1.03758967               -1.09969436               45.88425739               -0.42208502
               7.47467142               10.12223098               23.94365481                0.43432616                0.00739591                0.25713887               -0.40386179               -0.63675544               45.21584509                0.04434578
               8.46772683                9.93339251               24.13509441                0.45165573               -1.43045620                0.45836033                0.18241601               -0.74049763               45.88479809                0.46139627
               9.44606230                9.74292757               24.33795314                0.49372408               -3.23621330                0.78285515                0.77131702               -1.53393862               47.91240103                1.02592907
              10.40300257                9.54453816               24.56980541                0.56821579               -3.40472468                0.29531118                1.43940124               -2.30053534               32.33368933                2.37765245
              11.37796780                9.37327361               24.46354623                0.69392660               -1.48578082               -0.49272406                1.79728454               -1.16182148                8.71591853                1.42833035
              12.37328695                9.22851559               24.22724150                0.90689622               -0.28733461               -0.22416331                0.85056110                0.10378803                1.39444502                0.74324658
              13.37222111                9.08607111               23.97467492                1.00000000               -0.10658394                0.12210142               -0.18626275                0.12313512                0.58430335               -0.96417333
               1.87936161                0.91101801               25.55688134                1.00000000               -0.56033425               -0.61817563                2.12297613               -0.10980548               -1.22514064                1.26414993
               2.87375827                0.71821609               25.40719262                1.00000000               -0.48852289               -0.45168379                1.61243914               -0.06850882               -1.26689155               -0.08974647
               3.86959115                0.52478660               25.25670664                0.67948993               -0.36369210               -0.28785063                1.09429212               -0.09033204               -0.93422201               -1.05130760
               4.86648442                0.33011794               25.11378657                0.51783301               -0.25594145               -0.16002657                0.58845607               -0.11412805                0.93296278               -0.11577593
               5.86447232                0.13310894               25.00144665                0.44931183               -0.10799119               -0.01697031                0.07960880               -0.10849516                3.82959267               -0.10550068
               6.86432460               -0.06623748               24.91798325                0.45145401                0.11349655                0.13062766               -0.45185689               -0.08357285                5.15613267                0.02388560
               7.86674225               -0.26618882               24.83325280                0.51932063                0.34215371                0.27744975               -0.97009646               -0.09200422                3.68459264                0.12934691
               8.87116767               -0.46477594               24.71981205                0.65974126                0.50901252                0.41895875               -1.47003618               -0.09986322                1.03154242                0.19287952
               9.87692250               -0.66141859               24.58073650                0.89197570                0.63409555                0.55375518               -1.97943760               -0.08667577               -0.82248910                0.53287676
              10.88384959               -0.85655900               24.42930835                1.00000000                0.76433121                0.70536207               -2.52723651               -0.07134434               -1.23132197                0.51999330
              11.89220913               -1.05094541               24.28169632                1.00000000                0.83595420                0.88721019               -3.03611711               -0.12421194               -1.03194147               -1.14502507
               2.07106547                1.90483625               25.50146234                1.00000000               -0.48765905               -0.59193952                1.90031858               -0.03677398                0.01121577                1.59430454
               3.06618888                1.71369925               25.35118312                0.87645075               -0.41642845               -0.41456341                1.39399178                0.00209048                0.17098829               -0.27129407
               4.06273690                1.52190809               25.20408456                0.22278102               -0.25034536               -0.24105757                0.91947126               -0.03851496                1.68900607               -1.82549767
               5.06118197                1.32851768               25.08409522                0.00010000               -0.05859101               -0.11562149                0.47265030               -0.14988125                4.22638452               -1.95751372
               6.06156508                1.13293923               24.98690513                0.00010000                0.09778880               -0.18260543                0.01638559               -0.27794341                7.04234006                0.64299500
               7.06313775                0.93506880               24.92150048                0.00010000                0.17631788               -0.07335394               -0.45521337               -0.33771374                8.66022575                0.85083915
               8.06509144                0.73658568               24.85512760                0.00010000                0.23230884                0.06145512               -0.90767975               -0.28852121                7.11754117                0.91544100
               9.06778393                0.53941365               24.75877165                0.19740494                0.34279163                0.30728682               -1.33785626               -0.17401723                4.38582198                2.34297727
              10.07194727                0.34411896               24.63847363                0.54773402                0.50578124                0.47334294               -1.77837643               -0.07077321                2.34203330                1.98061313
              11.07789955                0.15049462               24.50172047                1.00000000                0.67030736                0.64682334               -2.22653073               -0.01278659                0.87771767                0.95050282
              12.08535342               -0.04207331               24.35214801                1.00000000                0.74538682                0.86012381               -2.75968532               -0.05150585                0.24134054               -1.21664852
               2.26090013                2.89917922               25.45268681                1.00000000               -0.41718956               -0.53462216                1.69007571               -0.04741137                0.21562925                1.83530525
               3.25672823                2.70992482               25.29154106                0.66256049               -0.34488520               -0.33206027                1.12680224               -0.01114307                0.49233811               -0.72559492
               4.25400242                2.51996545               25.13590492                0.07604426               -0.21362877               -0.12644413                0.61802675               -0.07598902                2.63092788               -3.29671298
               5.25245566                2.32780551               25.01754007                0.00010000               -0.08200440               -0.18757311                0.27259683               -0.47002521                8.91491139               -1.23726964
               6.25236234                2.12945683               24.98729435                0.00010000                0.07341122               -0.30280750               -0.02270857               -0.73537434               12.62332726                0.95794512
               7.25392388                1.93229544               24.94150962                0.00010000                0.21323205               -0.30216616               -0.37294149               -0.71259177               11.77509730                1.77205321
               8.25662698                1.73504028               24.89263364                0.00010000                0.31150817               -0.22064477               -0.72251517               -0.54078474               11.52418501                2.41679446
               9.26015404                1.54136980               24.84060423                0.07198558                0.38995417               -0.10913613               -1.05394560               -0.31658001                8.25334752                4.13533776
              10.26442606                1.34804827               24.72506208                0.29714581                0.48160390                0.09356618               -1.40919381               -0.22252815                3.74685327                5.21374523
              11.26978612                1.15637747               24.58266067                0.69576368                0.59444057                0.47430315               -1.90754761               -0.10225376                1.45420668                1.90142912
              12.27631487                0.96625707               24.42103018                1.00000000                0.65287489                0.86606376               -2.48558048               -0.12636616                0.49824001               -1.08673527
               2.44862604                3.89414381               25.40215525                1.00000000               -0.34462481               -0.46706923                1.46806437               -0.04684241                0.04118026                1.65440747
               3.44517979                3.70705804               25.22642366                0.62331883               -0.26448037               -0.24562233                0.85261326               -0.00383237                0.19262438               -1.00279657
               4.44333643                3.51937921               25.05369810                0.05701613               -0.14448498               -0.01353451                0.25812599               -0.28951443                6.40273610               -3.84593222
               5.44229009                3.32476622               25.00216608                0.00010000               -0.04843797               -0.24378603                0.22124005               -0.73758703               14.03799514                0.31393837
               6.44236767                3.12688308               24.98139187                0.00010000                0.05061859               -0.24904369               -0.06448066               -0.90374161               15.85764466                0.76452231
               7.44330246                2.92902547               24.96484165                0.00010000                0.14168602               -0.32406252               -0.30628665               -0.91482458               15.96185264                2.03461014
               8.44520139                2.73217278               24.94467520                0.00010000                0.25709397               -0.35262304               -0.55699782               -0.84906770               15.43232655                3.37357063
               9.44844434                2.53723092               24.91590464                0.07626801                0.36438222               -0.47339381               -0.83529333               -0.63032588               13.10663147                4.71375423
              10.45248903                2.34599029               24.84769627                0.29401390                0.46006695               -0.25809106               -0.87635379               -0.26449267                5.94743739                6.04543861
              11.45764568                2.15998069               24.67408384                0.66808734                0.52889339                0.30781691               -1.51413261               -0.02821404                0.38658696                2.16438206
              12.46306690                1.97524797               24.49390835                0.99285973                0.54212231                0.85924246               -2.18659744               -0.07039825                0.06466983               -0.85840957
               2.63413480                4.88983783               25.34982691                1.00000000               -0.27186224               -0.39388948                1.24381084               -0.04571133                0.02261219                1.53916508
               3.63141618                4.70501237               25.16114629                0.60189745               -0.18154195               -0.16514104                0.58341068                0.00249531                0.11242887               -1.01704692
               4.63050396                4.51969476               24.97423101                0.04770043               -0.06080696                0.07209200               -0.06503779               -0.50312914                9.26352253               -3.62503237
               5.63020004                4.32292979               24.96854506                0.00010000               -0.02378588               -0.11061721                0.00981642               -1.08672835               19.18491772               -0.85280369
               6.63002825                4.12447596               24.97921462                0.00010000                0.00688245               -0.20092686               -0.11408799               -1.21352980               20.15253444                0.80426574
               7.63033769                3.92581419               24.99146180                0.00010000                0.07059619               -0.31656500               -0.24886273               -1.26620346               20.25155436                2.24998237
               8.63144017                3.72798782               25.00242415                0.00010000                0.16961659               -0.44928842               -0.39884089               -1.25277296               20.12307965                3.84952697
               9.63373002                3.53190192               25.01016271                0.08436861                0.24731361               -0.57721744               -0.57516533               -0.96203421               16.83351282                5.80199250
              10.63638644                3.34288645               24.95298424                0.30642894                0.31170685               -0.31567585               -0.43548803               -0.35232230                6.94378226                4.65975386
              11.63996416                3.16253381               24.76094377                0.68606785                0.39929506                0.22061910               -1.14889612               -0.00811540                0.11894138                1.71656750
              12.64437234                2.98344192               24.56669197                1.00000000                0.44081842                0.75496656               -1.88237246               -0.04321876                0.01377726               -0.97207486
               2.81736273                5.88626602               25.29703394                1.00000000               -0.19899575               -0.32109640                1.02044718               -0.04516149                0.01985968                1.49930747
               3.81537277                5.70375522               25.09563642                0.58110076               -0.10031497               -0.08655520                0.31526294                0.00647554                0.11740134               -1.03254540
               4.81535643                5.52082105               24.89615179                0.03872485                0.02007777                0.15415586               -0.37706653               -0.69252349               11.92386933               -3.53567830
               5.81577432                5.32255387               24.93083925                0.00010000               -0.00718747                0.03636319               -0.20353107               -1.45901158               24.16301884               -1.15103935
               6.81521268                5.12286455               24.97518586                0.00010000               -0.06538999               -0.09932909               -0.18613499               -1.60366438               24.75631981                0.62303556
               7.81446652                4.92269417               25.02029581                0.00010000               -0.05772382               -0.28324161               -0.19474539               -1.72427142               24.87882883                2.33694990
               8.81405820                4.72318701               25.06524895                0.00010000               -0.00807475               -0.48388573               -0.23282002               -1.78066267               24.91682773                4.14369157
               9.81430503                4.52568658               25.10884129                0.09262185                0.03762488               -0.64584180               -0.31045859               -1.35849420               19.84887210                6.10519195
              10.81481070                4.33967677               25.04968105                0.31918106                0.13114369               -0.33355850               -0.02638998               -0.46836476                7.47791030                3.99276598
              11.81692790                4.16439307               24.84401969                0.70534750                0.27878058                0.14842550               -0.79903551               -0.01099757                0.09045323                1.37921655
              12.82038631                3.99034730               24.63668965                1.00000000                0.34584074                0.62906944               -1.59154895               -0.04201523                0.01171784               -1.19700598
               2.99825316                6.88341590               25.24393695                1.00000000               -0.12625013               -0.24964388                0.79755503               -0.04451138                0.02057850                1.46975678
               3.99699066                6.70328127               25.02992993                0.56047762               -0.01991563               -0.00843828                0.04886062                0.00970858                0.13626154               -1.04636673
               4.99785485                6.52277787               24.81819235                0.02988933                0.09928272                0.23797029               -0.68498092               -0.85226860               14.51621326               -3.51822527
               5.99897631                6.32365706               24.89172597                0.00010000               -0.00200945                0.19510424               -0.41500843               -1.79954776               29.08189028               -1.28995225
               6.99781466                6.12248937               24.97021684                0.00010000               -0.17232589                0.04170225               -0.25829221               -2.01623802               29.45687904                0.49661308
               7.99552980                5.92014936               25.04976129                0.00010000               -0.24900723               -0.20134688               -0.13792096               -2.22298241               29.65624280                2.28137501
               8.99283451                5.71831011               25.13029387                0.00010000               -0.27297060               -0.46910000               -0.05455368               -2.34204415               29.83325998                4.20110931
               9.99007038                5.51898508               25.21094488                0.10100556               -0.22609307               -0.68246589               -0.01885794               -1.74711366               22.55008171                6.33587971
              10.98831265                5.33621528               25.14290169                0.33206724               -0.04983525               -0.36505180                0.36967085               -0.54639895                7.67428854                3.67531099
              11.98907368                5.16550232               24.92452916                0.72475972                0.16554629                0.07119983               -0.45973607               -0.01415967                0.09003903                1.15749637
              12.99162358                4.99602331               24.70450217                1.00000000                0.25499002                0.50875847               -1.30988319               -0.04204422                0.01163547               -1.35596632
               3.17674177                7.88127314               25.19056854                1.00000000               -0.05367977               -0.17985836                0.57536070               -0.04383269                0.02068387                1.44053255
               4.17620497                7.70358646               24.96401574                0.53998828                0.05967503                0.06944749               -0.21542210                0.01266231                0.15929419               -1.05896155
               5.17793527                7.52558046               24.74018584                0.02122154                0.19334504                0.32301896               -0.98899166               -0.97372261               17.05067561               -3.50216234
               6.18007187                7.32645596               24.85139012                0.00010000                0.02301746                0.35968965               -0.61590906               -2.04519030               33.94947031               -1.36973234
               7.17839562                7.12369859               24.96422316                0.00010000               -0.29428641                0.19997653               -0.32420400               -2.33958416               34.18231857                0.36432079
               8.17418614                6.91866723               25.07846863                0.00010000               -0.50070123               -0.06302420               -0.07383260               -2.63321848               34.49919978                2.06320046
               9.16838159                6.71380501               25.19563306                0.00010000               -0.63642785               -0.39072400                0.14060132               -2.86161819               34.91937340                4.00699684
              10.16145758                6.51203726               25.31585231                0.10954378               -0.55080541               -0.67698104                0.31238831               -2.12064365               25.11579733                6.41955465
              11.15736548                6.33237573               25.23412768                0.34507465               -0.23104511               -0.40684461                0.75767515               -0.61021778                7.62233606                3.47821955
              12.15683668                6.16581707               25.00341060                0.74427045                0.05689839               -0.00986040               -0.12713650               -0.01809355                0.09530190                1.02766732
              13.15850345                6.00052247               24.77094535                1.00000000                0.16667691                0.39343152               -1.03409758               -0.04263612                0.01197202               -1.43850953
               3.35274987                8.87981874               25.13689168                1.00000000                0.01867197               -0.11260938                0.35388110               -0.04308946                0.02771270                1.41974344
               4.35293659                8.70467022               24.89792661                0.51963082                0.13805145                0.14826819               -0.47739299                0.01450513                0.19634109               -1.08524002
               5.35551090                8.52923825               24.66228093                0.01275862                0.35088914                0.40768395               -1.28851241               -1.06598840               19.56364950               -3.37746111
               6.35995437                8.33085085               24.81058060                0.00010000                0.16503998                0.44803774               -0.80045749               -2.13072937               38.75601861               -1.26106655
               7.35881170                8.12648890               24.95692652                0.00010000               -0.35976839                0.28678733               -0.38127080               -2.32878803               38.81364000                0.23543981
               8.35275900                7.91888887               25.10436978                0.00010000               -0.82897849                0.15636615               -0.00578458               -2.66377395               39.28532918                1.61115109
               9.34223213                7.71049563               25.25798143                0.00010000               -1.18361062               -0.12901556                0.34566274               -3.14343739               40.16796537                3.32449702
              10.32908679                7.50544546               25.42096275                0.11827924               -0.99518199               -0.55369389                0.67961571               -2.53087312               27.75263974                5.99697959
              11.32232849                7.32807839               25.32398196                0.35824374               -0.42608595               -0.45336311                1.13919138               -0.70400224                7.50006000                3.22854689
              12.32056507                7.16530511               25.08145304                0.76386521               -0.04842187               -0.09402108                0.20133967               -0.02484157                0.12280346                0.99444335
              13.32136005                7.00389194               24.83680943                1.00000000                0.07949784                0.28286895               -0.76141732               -0.04350055                0.02095548               -1.46278420
               3.52617701                9.87902095               25.08310269                1.00000000                0.08985423               -0.04889555                0.13465247               -0.04204003               -0.00711672                1.21370575
               4.52707555                9.70655182               24.83136154                0.49942995                0.21289286                0.22869950               -0.73874334                0.01312388                0.34107996               -0.97701636
               5.53043487                9.53373414               24.58652772                0.00456241                0.65655392                0.48598035               -1.57657786               -1.20552336               22.21449361               -2.53836980
               6.54020663                9.33541671               24.77216602                0.00010000                0.66734819                0.17289481               -0.96056857               -1.66605785               43.43094367               -0.74988068
               7.54378183                9.12943434               24.94853712                0.00010000               -0.16513468                0.25932729               -0.42851079               -1.60928034               43.12317520                0.11770536
               8.53690394                8.92179456               25.12461631                0.00010000               -1.24127889                0.37458245                0.05568791               -1.82450498               43.72238073                0.89479710
               9.51895625                8.71122470               25.31053754                0.00010000               -2.18232877                0.44669486                0.53193744               -2.50120311               45.37926716                1.92980846
              10.49325736                8.50096338               25.51833642                0.12723400               -1.77652324               -0.02604564                1.04947341               -2.40369186               30.71679120                3.99521232
              11.48342579                8.32330847               25.41055406                0.37160421               -0.63655309               -0.48404290                1.50434498               -0.88091858                7.76399798                2.27632108
              12.48052630                8.16393665               25.15972272                0.78354479               -0.14830001               -0.17976323                0.52931367               -0.03509005                0.29666215                0.89193165
              13.48045979                8.00617985               24.90253762                1.00000000               -0.00665117                0.17833592               -0.49074594               -0.04592082               -0.01736071               -1.23775504
               3.69684733               10.87884083               25.02529015                1.00000000                0.16385551               -0.01801267               -0.09099100                0.10737008                0.60909542                1.01385746
               4.69848588               10.70924421               24.76732507                0.74327651                0.28441070                0.26923871               -0.98831929                0.14688475                1.40463601               -0.84567556
               5.70253554               10.53895786               24.52521087                0.49971806                1.62235638                0.52237259               -1.81255596               -1.53670580               25.12426016               -1.80885094
               6.73093301               10.33430875               24.74155672                0.44384539                1.88563511               -0.11079648               -1.07918603               -1.29148267               47.51785475               -0.44529461
               7.74024824               10.13167545               24.93932111                0.43451633                0.17727645                0.22411111               -0.46543517               -0.74976999               46.79988258                0.03798019
               8.73447854                9.92638052               25.13651707                0.45146310               -1.36045004                0.45859649                0.09852489               -0.85483611               47.47570998                0.47295558
               9.71303924                9.71942953               25.34514058                0.49303689               -3.27746770                0.82048218                0.66125022               -1.66449971               49.57349318                1.06493530
              10.66892919                9.50492455               25.58352846                0.56660702               -3.56511964                0.39611703                1.29809466               -2.48441753               33.95518224                2.48832769
              11.64173685                9.31839753               25.48151347                0.69016006               -1.59686455               -0.49109429                1.79613713               -1.32962905                9.52407916                1.49738877
              12.63699189                9.16170985               25.23571595                0.89803010               -0.28908117               -0.22267984                0.84444298                0.09961566                1.46904277                0.77956559
              13.63595523                9.00745866               24.97273520                1.00000000               -0.10366674                0.12788065               -0.20174299                0.12442463                0.61279631               -1.00841011
               2.01916324                0.98036540               26.57813033                1.00000000               -0.56219449               -0.62028154                2.12707865               -0.10934085               -1.26270135                1.29884946
               3.01354130                0.77437670               26.42331747                1.00000000               -0.49223613               -0.45151041                1.61216365               -0.06816840               -1.30828424               -0.09888389
               4.00931852                0.56770516               26.26762908                0.67624060               -0.38664983               -0.28400099                1.08926326               -0.11239911               -0.97274975               -1.06333482
               5.00580830                0.35921339               26.11963290                0.51718131               -0.31412241               -0.15841645                0.57971919               -0.15571914                0.89804261               -0.11933466
               6.00303607                0.14689844               26.00217404                0.44935865               -0.17301291               -0.01501221                0.06472172               -0.14652136                3.78043137               -0.10850255
               7.00234804               -0.06948664               25.91335577                0.45125851                0.09977601                0.13291391               -0.47516907               -0.10340377                5.10122421                0.02546342
               8.00503159               -0.28704616               25.82341409                0.51816246                0.38746884                0.28197871               -0.99967016               -0.11808776                3.64540015                0.13549061
               9.01009742               -0.50242081               25.70497451                0.65658600                0.56395486                0.42552808               -1.49956414               -0.12957318                0.99869346                0.20141344
              10.01631069               -0.71479014               25.56082475                0.88500676                0.66627543                0.55907251               -2.00440012               -0.10379389               -0.87772781                0.53987064
              11.02342293               -0.92507684               25.40392799                1.00000000                0.77793686                0.70933655               -2.54955903               -0.07286352               -1.28543443                0.56040781
              12.03186943               -1.13448878               25.25123896                1.00000000                0.84464981                0.89377512               -3.05564810               -0.12402099               -1.06600905               -1.19611295
               2.22405854                1.97416259               26.52047860                1.00000000               -0.48688062               -0.59473360                1.90322368               -0.03630734                0.02604020                1.63495488
               3.21918973                1.76986159               26.36511889                0.86025235               -0.41411787               -0.41386629                1.39282336                0.00203750                0.20249323               -0.30553001
               4.21577618                1.56486515               26.21327209                0.21783050               -0.22676323               -0.23486154                0.91714916               -0.07004487                1.75068392               -1.90250526
               5.21465447                1.35762922               26.08879177                0.00010000                0.00723445               -0.11299635                0.46567335               -0.25821373                4.29881702               -2.00194267
               6.21592087                1.14674832               25.98701349                0.00010000                0.18159189               -0.24039583                0.00488920               -0.46570885                7.10411514                0.65039706
               7.21828631                0.93184250               25.91685350                0.00010000                0.21984627               -0.10764809               -0.47424366               -0.56893348                8.72673446                0.89369095
               8.22031780                0.71577362               25.84592382                0.00010000                0.21936855                0.05952548               -0.93310604               -0.48682728                7.21117122                0.98208955
               9.22267368                0.50183448               25.74526232                0.19298185                0.31414864                0.29770615               -1.36406120               -0.27835986                4.49082839                2.42704630
              10.22660077                0.29080058               25.62056798                0.53729122                0.49349673                0.46965053               -1.80259662               -0.11099172                2.44040885                2.07361991
              11.23254361                0.08201652               25.47936114                1.00000000                0.67201922                0.64876150               -2.24460257               -0.01939971                0.92887820                0.99959859
              12.24004115               -0.12555103               25.32446181                1.00000000                0.74975416                0.86726075               -2.77630075               -0.05187206                0.24835337               -1.26931402
               2.42703908                2.96847073               26.46959355                1.00000000               -0.41596023               -0.53806925                1.69161473               -0.04808279                0.21955196                1.87593378
               3.42287948                2.76609937               26.30278203                0.64872599               -0.34445472               -0.32909082                1.12106851               -0.01238603                0.52475372               -0.78776132
               4.42014999                2.56300793               26.14205062                0.07305615               -0.20593124               -0.11424767                0.61025274               -0.11793833                2.77561555               -3.46744190
               5.41876086                2.35695346               26.02026243                0.00010000               -0.03206863               -0.23393184                0.27134384               -0.68181263                9.16554606               -1.25507390
               6.41950862                2.14209053               25.98698804                0.00010000                0.15916051               -0.39449013               -0.03908701               -1.08737954               12.87677939                0.97314134
               7.42194407                1.92836040               25.93766484                0.00010000                0.28972260               -0.37215581               -0.39616614               -1.08712394               12.01124478                1.84553152
               8.42530307                1.71414435               25.88526971                0.00010000                0.37795984               -0.25324547               -0.75003177               -0.89452204               11.77911202                2.53037608
               9.42950326                1.50353332               25.82992585                0.06958961                0.43028696               -0.14335468               -1.08084646               -0.54576772                8.51753630                4.25807594
              10.43390881                1.29460287               25.71087380                0.29081188                0.49416411                0.03296993               -1.42671456               -0.30062137                3.93048982                5.47156283
              11.43938655                1.08789839               25.56349933                0.67957236                0.60291401                0.45611525               -1.92270752               -0.12601884                1.52443025                1.99574480
              12.44596709                0.88285643               25.39609538                1.00000000                0.65805422                0.88621464               -2.49871457               -0.14348214                0.52752169               -1.13000500
               2.62783960                3.96340120               26.41683354                1.00000000               -0.34347916               -0.46997427                1.46791674               -0.04703364                0.04000200                1.68778346
               3.62440481                3.76327978               26.23491253                0.61069505               -0.26381396               -0.24046742                0.84489974               -0.00311073                0.20218067               -1.06510605
               4.62256333                3.56258020               26.05621233                0.05464157               -0.12345954                0.00202949                0.24396379               -0.38696528                6.70299159               -4.02567704
               5.62193562                3.35295059               26.00430306                0.00010000                0.01015089               -0.31659622                0.20441903               -0.97856348               14.50057310                0.28553183
               6.62276634                3.13885852               25.98063664                0.00010000                0.12771921               -0.30911594               -0.08735859               -1.22758014               16.22498672                0.77238789
               7.62449001                2.92439938               25.96163101                0.00010000                0.22440472               -0.38895061               -0.33618590               -1.26848910               16.35647816                2.09277299
               8.62725444                2.71070872               25.93893185                0.00010000                0.34048985               -0.41307547               -0.59138239               -1.19386385               15.81918800                3.46921111
               9.63129980                2.49896738               25.90736679                0.07389413                0.44844187               -0.53559134               -0.87083167               -0.91852886               13.61156337                4.82215964
              10.63622327                2.29145998               25.83885359                0.28809177                0.52349339               -0.35863600               -0.89121438               -0.38227998                6.28269194                6.32763206
              11.64176967                2.09113883               25.65887053                0.65345813                0.55160713                0.27323349               -1.52695439               -0.03524486                0.40373038                2.27459533
              12.64725542                1.89217326               25.47197520                0.98156168                0.54857463                0.89028771               -2.19767377               -0.07329337                0.06477055               -0.88949176
               2.82634127                4.95907125               26.36225724                1.00000000               -0.27029930               -0.39592800                1.24250105               -0.04596676                0.02245944                1.57155091
               3.82363827                4.76129002               26.16693258                0.58977254               -0.18006956               -0.15919825                0.57350387                0.00422163                0.11849647               -1.07586068
               4.82273987                4.56304852               25.97349706                0.04554379               -0.03635015                0.08715619               -0.08255834               -0.63570549                9.63732725               -3.77843522
               5.82291127                4.35062154               25.96852162                0.00010000                0.03841723               -0.14663502               -0.01618277               -1.37999416               19.83153049               -0.95817470
               6.82350822                4.13590821               25.97791954                0.00010000                0.09064094               -0.24905244               -0.14610503               -1.55495625               20.70553561                0.79609168
               7.82472409                3.92058139               25.98878065                0.00010000                0.16747881               -0.37502842               -0.28799838               -1.62780552               20.80311386                2.29944727
               8.82685779                3.70588284               25.99820705                0.00010000                0.28286671               -0.51729368               -0.44453667               -1.61234298               20.66578205                3.94251542
               9.83038142                3.49282149               26.00415481                0.08185014                0.36169857               -0.66325328               -0.62524745               -1.26429486               17.54235937                5.92957439
              10.83409177                3.28743015               25.94855460                0.30024735                0.37934735               -0.39491796               -0.45023557               -0.48629314                7.39751282                4.87259756
              11.83796837                3.09336306               25.74938681                0.67102888                0.41702923                0.19361209               -1.16186404               -0.01235203                0.12896922                1.79951504
              12.84243235                2.90066219               25.54780166                0.99227492                0.44639814                0.78129543               -1.89447000               -0.04298169                0.01383702               -1.01042501
               3.02248272                5.95548264               26.30722573                1.00000000               -0.19707454               -0.32244620                1.01804355               -0.04537834                0.01977521                1.53188831
               4.02051197                5.76009581               26.09873171                0.56945181               -0.09825073               -0.07998427                0.30334327                0.00848420                0.12406868               -1.08906721
               5.02051770                5.56432332               25.89228431                0.03676220                0.04820416                0.16902394               -0.39736621               -0.84787847               12.36919269               -3.67922233
               6.02147605                5.35001789               25.92864989                0.00010000                0.05948337                0.02159246               -0.23600380               -1.78785685               24.97557566               -1.25336113
               7.02170737                5.13387747               25.97312832                0.00010000                0.02416058               -0.13463889               -0.22679187               -1.96796711               25.49193288                0.60362296
               8.02195926                4.91689882               26.01810306                0.00010000                0.05300528               -0.33662300               -0.24485375               -2.10955412               25.60072118                2.38413352
               9.02276747                4.70036284               26.06262242                0.00010000                0.12536658               -0.55479237               -0.29298765               -2.16956169               25.61854068                4.24367652
              10.02446660                4.48570232               26.10538317                0.08995631                0.15941871               -0.73211677               -0.38067415               -1.68679904               20.74227255                6.24477859
              11.02595585                4.28356162               26.04935045                0.31273465                0.19119977               -0.38910296               -0.03994381               -0.61370144                8.03955638                4.17945537
              12.02829059                4.09501107               25.83596406                0.68981666                0.29208366                0.13155786               -0.81204071               -0.01532090                0.10041604                1.44679350
              13.03179752                3.90779917               25.62070264                1.00000000                0.35069294                0.64997395               -1.60557622               -0.04186159                0.01168751               -1.24802096
               3.21620736                6.95262232               26.25189561                1.00000000               -0.12400848               -0.25037292                0.79421569               -0.04468292                0.02050107                1.50245829
               4.21496728                6.75969034               26.03035361                0.54928673               -0.01735662               -0.00148573                0.03533662                0.01179156                0.14401063               -1.09971293
               5.21586023                6.56642900               25.81123587                0.02811978                0.13163546                0.25267571               -0.70733278               -1.02243401               15.03200831               -3.65500833
               6.21759999                6.35105339               25.88739841                0.00010000                0.07038594                0.19433561               -0.45216837               -2.15505921               30.05701191               -1.38369432
               7.21726795                6.13321543               25.96739968                0.00010000               -0.07761766                0.01887554               -0.30682871               -2.40448403               30.37401578                0.48002039
               8.21604763                5.91384893               26.04808230                0.00010000               -0.13024441               -0.24745955               -0.19945150               -2.63311483               30.55354467                2.33145746
               9.21466306                5.69478699               26.12937352                0.00010000               -0.13004852               -0.53464910               -0.13082827               -2.75951576               30.70502014                4.31260715
              10.21344666                5.47817916               26.21029225                0.09819354               -0.10770367               -0.75771799               -0.11232039               -2.08818919               23.61574710                6.50610849
              11.21250899                5.27964809               26.14654212                0.32534747               -0.00111296               -0.40240874                0.35815660               -0.68996298                8.32467484                3.84941776
              12.21342440                5.09599421               25.91987007                0.70873366                0.17549639                0.06152470               -0.47228126               -0.01805493                0.10079182                1.21553379
              13.21601891                4.91366167               25.69132575                1.00000000                0.25945114                0.52556755               -1.32569591               -0.04189467                0.01181468               -1.41461458
               3.40745303                7.95047518               26.19630194                1.00000000               -0.05119031               -0.18004337                0.57129466               -0.04393371                0.02055191                1.47349098
               4.40694112                7.76006610               25.96179178                0.52926538                0.06264726                0.07634814               -0.22991767                0.01472604                0.16820847               -1.10858122
               5.40870597                7.56937684               25.73018393                0.01964949                0.23236584                0.33680265               -1.01244168               -1.15237236               17.63972267               -3.63162033
               6.41158844                7.35390460               25.84503769                0.00010000                0.10580878                0.36831074               -0.65624344               -2.41344702               35.08715224               -1.44864926
               7.41082215                7.13425498               25.96071444                0.00010000               -0.19315166                0.18586240               -0.37952909               -2.73919845               35.27861939                0.35404510
               8.40772541                6.91194962               26.07737985                0.00010000               -0.37876086               -0.09968792               -0.14612419               -3.05145639               35.57704032                2.11626292
               9.40324693                6.68966986               26.19658949                0.00010000               -0.49418460               -0.44408719                0.04838960               -3.29013159               35.97766976                4.12905208
              10.39784171                6.47054796               26.31840759                0.10659776               -0.44526990               -0.73504859                0.19621826               -2.46092181               26.34148042                6.62547844
              11.39434153                6.27551345               26.24166194                0.33809956               -0.19628993               -0.43028872                0.74898202               -0.74582289                8.33722684                3.64381957
              12.39391592                6.09624156               26.00208277                0.72776155                0.06415951               -0.01459719               -0.13866516               -0.02155880                0.10707703                1.08003564
              13.39562472                5.91831052               25.76052197                1.00000000                0.17088057                0.40673168               -1.05111203               -0.04250097                0.01236268               -1.50110791
               3.59614686                8.94902145               26.14040757                1.00000000                0.02132830               -0.11226302                0.34929391               -0.04308534                0.02763736                1.45375219
               4.59636015                8.76121730               25.89308121                0.50937924                0.14137086                0.15457427               -0.49202772                0.01642429                0.20672381               -1.13194053
               5.59897428                8.57316505               25.64928317                0.01138285                0.40463785                0.41935629               -1.31183179               -1.24875955               20.23131961               -3.49598056
               6.60445290                8.35841960               25.80237298                0.00010000                0.27323370                0.45349683               -0.84271179               -2.49125021               40.05779107               -1.32001586
               7.60443895                8.13693268               25.95282177                0.00010000               -0.24246391                0.26820648               -0.44194774               -2.69765276               40.08338583                0.23109248
               8.59960362                7.91185517               26.10391967                0.00010000               -0.70884290                0.13039711               -0.08704860               -3.04127684               40.54609087                1.65893497
               9.59026210                7.68590525               26.26092644                0.00010000               -1.06094924               -0.15669066                0.23991604               -3.53920878               41.43072074                3.43956947
              10.57838464                7.46347818               26.42710059                0.11518504               -0.91815859               -0.58121881                0.54359345               -2.86022015               29.13099979                6.22071545
              11.57189892                7.27104231               26.33534605                0.35099794               -0.40942434               -0.46588464                1.13356121               -0.83245267                8.25805488                3.38189400
              12.57019615                7.09570227               26.08341712                0.74688076               -0.04339739               -0.09543073                0.19129734               -0.02822140                0.13668285                1.04451770
              13.57103098                6.92179630               25.82911054                1.00000000                0.08348236                0.29293509               -0.77890412               -0.04341991                0.02192396               -1.52717170
               3.78219963                9.94822992               26.08442307                1.00000000                0.09263823               -0.04794245                0.12950534               -0.04199978               -0.00995901                1.24523121
               4.78312601                9.76315758               25.82390287                0.48963761                0.21644256                0.23408527               -0.75281902                0.01465274                0.35620990               -1.01678912
               5.78652848                9.57776396               25.57065203                0.00338672                0.74349006                0.49508248               -1.59874374               -1.39745484               22.97125768               -2.62344430
               6.79799581                9.36297454               25.76235137                0.00010000                0.84525227                0.12614682               -1.00392628               -1.93859920               44.89644640               -0.78001175
               7.80343352                9.13961911               25.94394225                0.00010000               -0.00342556                0.22449689               -0.49291353               -1.85735992               44.55454669                0.11594906
               8.79792730                8.91455757               26.12475162                0.00010000               -1.12968929                0.35974676               -0.03184575               -2.06325628               45.15516940                0.92334447
               9.78083974                8.68653605               26.31530309                0.00010000               -2.12135279                0.45574806                0.41688479               -2.76876529               46.85610571                2.00422424
              10.75550024                8.45892358               26.52811339                0.12400286               -1.76856726                0.02212274                0.89968442               -2.64958070               32.25105774                4.15996998
              11.74546839                8.26619575               26.42558457                0.36409296               -0.64513707               -0.48698778                1.50187256               -1.01138300                8.56154255                2.38398673
              12.74259750                8.09433295               26.16497590                0.76606971               -0.14500653               -0.17909060                0.52125992               -0.03883022                0.31938135                0.93539257
              13.74256826                7.92416922               25.89754621                1.00000000               -0.00292402                0.18557251               -0.50800090               -0.04599502               -0.01784046               -1.29312364
               3.96545155               10.94806260               26.02435046                1.00000000                0.16676116               -0.01673190               -0.09682428                0.10883228                0.62087554                1.04196309
               4.96711916               10.76589901               25.75736851                0.73852657                0.28783395                0.27414229               -1.00232113                0.14952006                1.45297205               -0.87965952
               5.97120823               10.58306670               25.50697343                0.49918836                1.83533048                0.53027402               -1.83493758               -1.77984833               25.98448132               -1.86753473
               7.00382577               10.36094254               25.73054959                0.44421786                2.22502474               -0.20319980               -1.12369000               -1.49920835               49.13925939               -0.46816889
               8.01570872               10.14142261               25.93434610                0.43470277                0.37978947                0.18035057               -0.53200138               -0.86710170               48.37088393                0.03093888
               9.01142156                9.91905010               26.13706491                0.45126784               -1.25939741                0.44925372                0.00782125               -0.97069427               49.05032284                0.48320366
               9.99052078                9.69502021               26.35117815                0.49232818               -3.28441213                0.84841611                0.54179902               -1.78836953               51.21332070                1.10213545
              10.94573332                9.46392064               26.59576730                0.56494609               -3.71294392                0.49970580                1.14279802               -2.66257508               35.64369496                2.59632578
              11.91626190                9.26130256               26.49946897                0.68632599               -1.71436196               -0.48931954                1.79526435               -1.51065869               10.41386739                1.56807705
              12.91144608                9.09212046               26.24413036                0.88914267               -0.29116866               -0.22124904                0.83855820                0.09511715                1.54671691                0.81657485
              13.91043852                8.92550775               25.97064006                1.00000000               -0.10075548                0.13385265               -0.21759267                0.12575542                0.64207437               -1.05405167
               2.16373330                1.05229846               27.59942292                1.00000000               -0.56394695               -0.62263280                2.13203787               -0.10904954               -1.30052962                1.33341310
               3.15809383                0.83263557               27.43943589                1.00000000               -0.49562879               -0.45114820                1.61097819               -0.06808687               -1.35019753               -0.10882673
               4.15382072                0.61223388               27.27849191                0.67290494               -0.40967537               -0.27974277                1.08198899               -0.13540373               -1.01101348               -1.07350516
               5.14990032                0.38941353               27.12538096                0.51647843               -0.37313166               -0.15642286                0.56907405               -0.19703530                0.86249449               -0.12283298
               6.14635809                0.16125998               27.00274109                0.44939207               -0.23956426               -0.01267994                0.04818880               -0.18410362                3.72599388               -0.11168550
               7.14510903               -0.07272368               26.90847987                0.45106499                0.08367103                0.13572133               -0.50113820               -0.12261454                5.03856116                0.02635834
               8.14803151               -0.30849847               26.81325940                0.51696734                0.43109217                0.28703185               -1.03353446               -0.14252606                3.60167714                0.14094453
               9.15373088               -0.54132328               26.68982077                0.65335880                0.61914802                0.43265165               -1.53423942               -0.15791235                0.96706353                0.20961438
              10.16041447               -0.77010763               26.54064850                0.87791181                0.69979035                0.56499429               -2.03360586               -0.12047815               -0.92977723                0.54506217
              11.16772668               -0.99621714               26.37831717                1.00000000                0.79262652                0.71323997               -2.57440841               -0.07462588               -1.33680154                0.60355956
              12.17626700               -1.22131335               26.22058335                1.00000000                0.85403142                0.89973490               -3.07668155               -0.12440463               -1.09683848               -1.24401607
               2.38230569                2.04607213               27.53952682                1.00000000               -0.48604403               -0.59777551                1.90693383               -0.03575921                0.04182011                1.67530356
               3.37744525                1.82812409               27.37903959                0.84381523               -0.41139918               -0.41298090                1.39086446                0.00183634                0.23641829               -0.34232417
               4.37407771                1.60943645               27.22242755                0.21275179               -0.20141659               -0.22787517                0.91265630               -0.10305869                1.81500956               -1.98141137
               5.37341692                1.38784930               27.09340869                0.00010000                0.07539742               -0.11103907                0.45728701               -0.36872141                4.37280329               -2.04427665
               6.37558565                1.16113318               26.98700292                0.00010000                0.26725981               -0.29817357               -0.00650764               -0.65391697                7.16456533                0.65346198
               7.37876211                0.92863354               26.91201561                0.00010000                0.26601968               -0.14238801               -0.49285753               -0.80016296                8.78767480                0.93150567
               8.38090605                0.69437185               26.83646547                0.00010000                0.20971106                0.05691222               -0.95845773               -0.68567942                7.29988038                1.04454671
               9.38295633                0.46300324               26.73149043                0.18844787                0.28752870                0.28750562               -1.39027120               -0.38298670                4.59429569                2.50855294
              10.38665662                0.23554232               26.60242169                0.52665602                0.48134770                0.46507701               -1.82645624               -0.15200419                2.54125896                2.16815096
              11.39258329                0.01091526               26.45682842                1.00000000                0.67312694                0.65000598               -2.26100765               -0.02659276                0.98252341                1.05098367
              12.40011916               -0.21231600               26.29662200                1.00000000                0.75358722                0.87284608               -2.78997170               -0.05281532                0.25533895               -1.31856029
               2.59891420                3.04034295               27.48651910                1.00000000               -0.41479619               -0.54181733                1.69395739               -0.04857922                0.22242148                1.91603632
               3.59476623                2.82437595               27.31396243                0.63476959               -0.34399294               -0.32593563                1.11484074               -0.01336043                0.55870285               -0.85314087
               4.59203434                2.60767637               27.14810998                0.07000937               -0.19685354               -0.10086079                0.60101698               -0.16275874                2.92908096               -3.64455270
               5.59082916                2.38719275               27.02296695                0.00010000                0.02305869               -0.28158163                0.26968835               -0.89597725                9.41912054               -1.28093940
               6.59249551                2.15529651               26.98651261                0.00010000                0.25189710               -0.48669185               -0.05602632               -1.44051909               13.12422776                0.97944681
               7.59586710                1.92442856               26.93358630                0.00010000                0.37263527               -0.44342070               -0.41940774               -1.46410138               12.24474145                1.90951406
               8.59994822                1.69263978               26.87763300                0.00010000                0.45167869               -0.28760915               -0.77704846               -1.25292059               12.03295224                2.63517067
               9.60490068                1.46442684               26.81898731                0.06710773                0.47570769               -0.17790460               -1.10556538               -0.78241677                8.78527394                4.37177481
              10.60946237                1.23919391               26.69652779                0.28434770                0.50762343               -0.03400941               -1.43991241               -0.38306755                4.11863308                5.73046799
              11.61505315                1.01678298               26.54420652                0.66333357                0.61054196                0.43349327               -1.93237336               -0.15174774                1.59473585                2.09004556
              12.62167321                0.79614357               26.37105588                0.99322323                0.66200617                0.90339287               -2.50493302               -0.16224991                0.55593078               -1.17214121
               2.81326809                4.03523578               27.43151358                1.00000000               -0.34234816               -0.47331451                1.46844309               -0.04708499                0.03876801                1.72068676
               3.80984461                3.82160538               27.24332166                0.59793496               -0.26311790               -0.23499860                0.83674439               -0.00182433                0.21225333               -1.12965182
               4.80800574                3.60741923               27.05857738                0.05219318               -0.09836869                0.01888478                0.22858729               -0.48802860                7.00593363               -4.21130387
               5.80787724                3.38221767               27.00625446                0.00010000                0.07668591               -0.38866403                0.18452310               -1.22204418               14.96605037                0.24256608
               6.80953945                3.15139934               26.97964470                0.00010000                0.21297888               -0.36951987               -0.11145987               -1.55340656               16.59218128                0.77001232
               7.81213682                2.91976512               26.95811793                0.00010000                0.31549536               -0.45487422               -0.36649790               -1.62671608               16.74984679                2.14032805
               8.81584936                2.68861967               26.93284755                0.00010000                0.43085224               -0.47461065               -0.62494394               -1.54432692               16.20613137                3.55300609
               9.82075386                2.45944515               26.89848800                0.07142502                0.53948846               -0.59749021               -0.90313423               -1.22142815               14.12642046                4.91610671
              10.82663913                2.23486213               26.82987199                0.28202296                0.59224070               -0.46761859               -0.90343837               -0.51088449                6.62702543                6.60714081
              11.83259868                2.01958512               26.64354475                0.63874953                0.57569207                0.23238057               -1.53597425               -0.04334664                0.42022644                2.38136459
              12.83815297                1.80575185               26.44995488                0.97026782                0.55542972                0.91812078               -2.20336795               -0.07601822                0.06408485               -0.92515563
               3.02523331                5.03087666               27.37467693                1.00000000               -0.26870147               -0.39851853                1.24162200               -0.04615868                0.02234522                1.60369412
               4.02254630                4.81967598               27.17261636                0.57751637               -0.17859181               -0.15262618                0.56289601                0.00641812                0.12516500               -1.13693582
               5.02166147                4.60805407               26.97257984                0.04330923               -0.00690621                0.10392776               -0.10162750               -0.77200746               10.01154339               -3.93607926
               6.02240817                4.37941947               26.96822141                0.00010000                0.11092244               -0.18039067               -0.04528250               -1.67916849               20.47909057               -1.07225483
               7.02387992                4.14790611               26.97629252                0.00010000                0.18521435               -0.29712393               -0.18015929               -1.90148390               21.25945543                0.77751727
               8.02611246                3.91533108               26.98570183                0.00010000                0.27508643               -0.43449647               -0.32806507               -1.99542560               21.35384190                2.33723081
               9.02938165                3.68314756               26.99353341                0.00010000                0.40585985               -0.58627982               -0.48966963               -1.97772502               21.20736632                4.02109327
              10.03422966                3.45247703               26.99765776                0.07924006                0.48615280               -0.75002216               -0.67243242               -1.58187202               18.26743963                6.03852539
              11.03910471                3.22984154               26.94397953                0.29393144                0.45334155               -0.47918815               -0.46420894               -0.63323203                7.86831723                5.08392140
              12.04329649                3.02143059               26.73770649                0.65591069                0.43573346                0.16302791               -1.17352553               -0.01750946                0.13888457                1.87833203
              13.04781938                2.81450599               26.52880257                0.98072606                0.45228902                0.80554673               -1.90442024               -0.04296363                0.01334476               -1.05657282
               3.23474627                6.02726541               27.31739482                1.00000000               -0.19507121               -0.32438950                1.01581144               -0.04556223                0.01975748                1.56428256
               4.23279556                5.81855285               27.10170329                0.55767187               -0.09620862               -0.07245201                0.29047069                0.01083474                0.13145848               -1.14738039
               5.23282210                5.60949779               26.88820446                0.03472721                0.08231335                0.18620104               -0.41952430               -1.00771314               12.81371721               -3.82599055
               6.23444183                5.37860985               26.92611917                0.00010000                0.13880305                0.00879520               -0.27164519               -2.12481775               25.78704427               -1.36161142
               7.23559816                5.14545686               26.97065002                0.00010000                0.12725110               -0.17012218               -0.27000128               -2.34017487               26.22719651                0.57528283
               8.23698685                4.91107519               27.01539874                0.00010000                0.17753723               -0.39146789               -0.29666470               -2.50242020               26.32005966                2.41939399
               9.23914891                4.67689407               27.05938919                0.00010000                0.27177957               -0.62761943               -0.35352255               -2.56435873               26.31581549                4.32790629
              10.24242244                4.44444471               27.10122781                0.08719929                0.29360140               -0.81971022               -0.44903288               -2.03143149               21.66118315                6.36286616
              11.24502094                4.22527836               27.04888218                0.30615532                0.25807990               -0.44746985               -0.05362700               -0.77376975                8.63054585                4.36719956
              12.24758404                4.02284568               26.82777888                0.67422631                0.30609833                0.11318477               -0.82505317               -0.02030906                0.11089748                1.51175485
              13.25114290                3.82186279               26.60457812                0.99219760                0.35588616                0.67028495               -1.61969283               -0.04183263                0.01143177               -1.30665295
               3.44174719                7.02438887               27.25982126                1.00000000               -0.12165731               -0.25172074                0.79084669               -0.04485081                0.02050036                1.53503729
               4.44053061                6.81822694               27.03063667                0.53798217               -0.01484879                0.00671883                0.02068933                0.01404022                0.15263235               -1.15408298
               5.44145021                6.61177809               26.80404570                0.02627918                0.17110646                0.27014819               -0.73179646               -1.19849302               15.54620264               -3.79358583
               6.44395274                6.37959537               26.88268260                0.00010000                0.15804373                0.19492760               -0.49256548               -2.52159225               31.02879331               -1.48122694
               7.44461109                6.14450367               26.96408026                0.00010000                0.03370524               -0.00497315               -0.35849639               -2.80329818               31.28815030                0.45602524
               8.44462685                5.90750172               27.04577226                0.00010000                0.00569398               -0.29600342               -0.26371274               -3.05217267               31.44509430                2.37036755
               9.44472496                5.67059517               27.12767730                0.00010000                0.02949423               -0.60304665               -0.20904378               -3.18302799               31.56755704                4.40834778
              10.44521673                5.43608283               27.20869847                0.09528805                0.02516870               -0.83531098               -0.20583345               -2.44553656               24.71814977                6.65430614
              11.44522834                5.22089214               27.15006483                0.31850021                0.05445738               -0.44150860                0.34642150               -0.84873192                9.01924038                4.02618060
              12.44630588                5.02369428               26.91508354                0.69265821                0.18600823                0.05125247               -0.48526939               -0.02231492                0.11265454                1.27228153
              13.44894850                4.82791168               26.67798825                1.00000000                0.26426238                0.54263657               -1.34264600               -0.04178929                0.01198453               -1.47958961
               3.64617311                8.02223100               27.20199443                1.00000000               -0.04859689               -0.18081094                0.56712111               -0.04396953                0.02060256                1.50631056
               4.64568714                7.81868723               26.95941738                0.51841751                0.06553500                0.08466926               -0.24563858                0.01673071                0.17813510               -1.15813150
               5.64748381                7.61490075               26.71993701                0.01801210                0.27986328                0.35362256               -1.03811062               -1.33917541               18.22631618               -3.76094266
               6.65128441                7.38250840               26.83826525                0.00010000                0.20710179                0.37707411               -0.69994549               -2.79622545               36.21892114               -1.52946573
               7.65162585                7.14535740               26.95663258                0.00010000               -0.07162595                0.16896373               -0.43866522               -3.15158209               36.36854027                0.33811667
               8.64985189                6.90515512               27.07554614                0.00010000               -0.23593037               -0.14029598               -0.22242223               -3.47874779               36.64522567                2.15986472
               9.64690724                6.66483314               27.19660085                0.00010000               -0.33185740               -0.50108762               -0.04773992               -3.72379928               37.02146015                4.23703647
              10.64321474                6.42773849               27.31977668                0.10354990               -0.32361990               -0.79644265                0.07633248               -2.81572493               27.61553572                6.81140870
              11.64043484                6.21644819               27.24910732                0.33099150               -0.15482704               -0.45492531                0.74008079               -0.89615160                9.11140136                3.81274252
              12.64011820                6.02387073               27.00063729                0.71120576                0.07187346               -0.01959743               -0.15069250               -0.02521567                0.12030333                1.13195627
              13.64187231                5.83271552               26.74992311                1.00000000                0.17541109                0.42062892               -1.06960781               -0.04236184                0.01284450               -1.56861447
               3.84795533                9.02077265               27.14387756                1.00000000                0.02401384               -0.11241520                0.34461075               -0.04297610                0.02782777                1.48717078
               4.84819547                8.81992033               26.88808605                0.49899683                0.14450963                0.16207559               -0.50760694                0.01807692                0.21808840               -1.17690350
               5.85084553                8.61885054               26.63604429                0.00994642                0.46880572                0.43371170               -1.33717214               -1.44278847               20.89510944               -3.61198850
               6.85757159                8.38713685               26.79372636                0.00010000                0.40435984                0.45657323               -0.88849801               -2.87033339               41.35058849               -1.37924762
               7.85893272                8.14788294               26.94808756                0.00010000               -0.09977160                0.24357956               -0.50712559               -3.07971892               41.34337616                0.22303381
               8.85557615                7.90469580               27.10262881                0.00010000               -0.56335525                0.09805401               -0.17359031               -3.42574615               41.79354251                1.69993199
               9.84766562                7.66057342               27.26277976                0.00010000               -0.91444879               -0.18878271                0.12790445               -3.93662347               42.67408302                3.54426590
              10.83728718                7.42015397               27.43183461                0.11199444               -0.82462771               -0.61212055                0.39986575               -3.19987462               30.56836689                6.42895960
              11.83117306                7.21179364               27.34665318                0.34362186               -0.38764709               -0.47914544                1.12802489               -0.97461775                9.08906333                3.53864444
              12.82953424                7.02330233               27.08527898                0.72983459               -0.03806911               -0.09697359                0.18088295               -0.03176390                0.15228996                1.09474047
              13.83041168                6.83632426               26.82123135                1.00000000                0.08774446                0.30361687               -0.79786071               -0.04330411                0.02307544               -1.59522602
               4.04701824               10.01998269               27.08569279                1.00000000                0.09525520               -0.04736675                0.12445688               -0.04172580               -0.01253678                1.27569861
               5.04797079                9.82192874               26.81630516                0.47972028                0.21966403                0.23996995               -0.76629668                0.01595871                0.37167100               -1.05391747
               6.05141152                9.62357499               26.55455285                0.00213764                0.84372772                0.50569167               -1.62217150               -1.60451499               23.72109229               -2.70496536
               7.06484534                9.39163987               26.75208749                0.00010000                1.05305018                0.07060452               -1.05104975               -2.22860284               46.34961245               -0.80952782
               8.07247252                9.15022899               26.93867885                0.00010000                0.19005717                0.18017919               -0.56224871               -2.11528953               45.97362400                0.11233117
               9.06864649                8.90711621               27.12397939                0.00010000               -0.98779614                0.33611036               -0.12551436               -2.30473548               46.57217682                0.94843988
              10.05271660                8.66105748               27.31887524                0.00010000               -2.03247263                0.45743516                0.29375553               -3.03412388               48.31018446                2.07331909
              11.02799703                8.41549607               27.53633011                0.12067004               -1.74612344                0.06946355                0.73817153               -2.89835601               33.85327479                4.31660911
              12.01779413                8.20686528               27.44059151                0.35644780               -0.65223681               -0.49016810                1.49974889               -1.15433702                9.44276210                2.49420084
              13.01495230                8.02193126               27.17014792                0.74854121               -0.14158788               -0.17849503                0.51309117               -0.04282575                0.34409527                0.97939853
              14.01496237                7.83878786               26.89237761                1.00000000                0.00100740                0.19328264               -0.52652418               -0.04605838               -0.01815487               -1.35086338
               4.24322872               11.01982531               27.02335367                1.00000000                0.16936288               -0.01573802               -0.10208119                0.11048983                0.63165658                1.06881124
               5.24492235               10.82471972               26.74727864                0.73370736                0.29076870                0.27909839               -1.01404055                0.15210951                1.49889183               -0.91160248
               6.24904410               10.62896438               26.48851212                0.49862783                2.07115865                0.53893880               -1.85797501               -2.04528105               26.83420177               -1.92231808
               7.28634553               10.38854894               26.71908292                0.44456464                2.60532497               -0.30909274               -1.17193479               -1.72387429               50.74733158               -0.49072209
               8.30115060               10.15148652               26.92868108                0.43488968                0.61537140                0.12575327               -0.60333593               -0.98873904               49.92864007                0.02291275
               9.29865295                9.91141801               27.13667349                0.45107067               -1.12736631                0.43018031               -0.08897269               -1.08757329               50.60806200                0.49164188
              10.27860327                9.66972212               27.35597656                0.49160145               -3.25703474                0.86646414                0.41397008               -1.90507083               52.82937865                1.13660407
              11.23351226                9.42154325               27.60638442                0.56323358               -3.84760646                0.60471709                0.97439390               -2.83506999               37.40461948                2.69958338
              12.20165114                9.20199028               27.51741876                0.68241899               -1.83785558               -0.48750079                1.79513494               -1.70483939               11.39320038                1.64044079
              13.19675515                9.01973243               27.25248711                0.88022460               -0.29369153               -0.21988236                0.83293135                0.09026697                1.62779593                0.85424357
              14.19577731                8.84018992               26.96838335                1.00000000               -0.09778361                0.14020576               -0.23435004                0.12724220                0.67224091               -1.10123259
               2.31312670                1.12682587               28.62077109                1.00000000               -0.56583456               -0.62533905                2.13888258               -0.10904042               -1.33847918                1.36708731
               3.30746835                0.89299277               28.45553703                1.00000000               -0.49867582               -0.45041964                1.60886493               -0.06820276               -1.39235240               -0.11917111
               4.30315318                0.65836378               28.28926886                0.66949149               -0.43296703               -0.27449239                1.07125782               -0.15916551               -1.04774788               -1.08071205
               5.29880901                0.42070127               28.13101439                0.51573236               -0.43480732               -0.15435676                0.55813135               -0.23852074                0.82649921               -0.12620293
               6.29445704                0.17614107               28.00313781                0.44941612               -0.31040317               -0.00950318                0.03162755               -0.22178925                3.66460958               -0.11527326
               7.29260095               -0.07603095               27.90333300                0.45086866                0.06335984                0.13971375               -0.52847704               -0.14139470                4.96506030                0.02650589
               8.29572423               -0.33063942               27.80274340                0.51575399                0.47243204                0.29303786               -1.07112806               -0.16520941                3.54980716                0.14542175
               9.30204959               -0.58156784               27.67428972                0.65006327                0.67472566                0.44068364               -1.57522501               -0.18441539                0.93457686                0.21711785
              10.30921875               -0.82743529               27.52015264                0.87069547                0.73512257                0.57196021               -2.06996903               -0.13609520               -0.97866119                0.54802156
              11.31675204               -1.07002816               27.35243982                1.00000000                0.80907656                0.71750059               -2.60465059               -0.07638158               -1.38479459                0.64986475
              12.32540028               -1.31144639               27.18970533                1.00000000                0.86482363                0.90516223               -3.10158177               -0.12577268               -1.12371546               -1.28717965
               2.54586940                2.12057248               28.55861727                1.00000000               -0.48520270               -0.60105872                1.91209214               -0.03468291                0.05815066                1.71473162
               3.54101737                1.88848857               28.39293618                0.82717194               -0.40810597               -0.41191401                1.38780806                0.00203467                0.27219360               -0.38147988
               4.53770728                1.65561886               28.23152522                0.20756587               -0.17411023               -0.21983690                0.90508066               -0.13784776                1.88290925               -2.06086456
               5.53753516                1.41915770               28.09793751                0.00010000                0.14489899               -0.11061871                0.45007605               -0.48206015                4.45061396               -2.08441730
               6.54060526                1.17604604               27.98688334                0.00010000                0.35210413               -0.35516944               -0.01608014               -0.84373662                7.22427822                0.65047829
               7.54457725                0.92536619               27.90699635                0.00010000                0.31176637               -0.17603465               -0.51037473               -1.03187596                8.84250972                0.96219043
               8.54684058                0.67229096               27.82675466                0.00010000                0.20130628                0.05525527               -0.98364424               -0.88451580                7.38276059                1.10022884
               9.54860337                0.42283900               27.71745689                0.18379319                0.26236871                0.27695385               -1.41683255               -0.48711404                4.69505031                2.58518583
              10.55208796                0.17828431               27.58403885                0.51586085                0.46952027                0.45986115               -1.84987848               -0.19243216                2.64398860                2.26337153
              11.55799378               -0.06285316               27.43414099                1.00000000                0.67364106                0.65055652               -2.27506276               -0.03389787                1.03857622                1.10489085
              12.56556078               -0.30239477               27.26866237                1.00000000                0.75670015                0.87635588               -2.79976643               -0.05482656                0.26235587               -1.36327916
               2.77660085                3.11480469               28.50347269                1.00000000               -0.41381885               -0.54576822                1.69714746               -0.04854959                0.22428333                1.95522649
               3.77246266                2.88475449               28.32507885                0.62069581               -0.34368790               -0.32278815                1.10875515               -0.01344670                0.59434617               -0.92172577
               4.76972710                2.65396704               28.15407096                0.06690172               -0.18610155               -0.08673005                0.59187817               -0.21118374                3.09259852               -3.82771115
               5.76874063                2.41848890               28.02565620                0.00010000                0.08233635               -0.33051272                0.26915580               -1.11376110                9.67696589               -1.31705317
               6.77137382                2.16903768               27.98586751                0.00010000                0.34889364               -0.57835891               -0.07259263               -1.79496493               13.36604859                0.97438467
               7.77571851                1.92044836               27.92927669                0.00010000                0.45936419               -0.51378881               -0.44225800               -1.84325717               12.47593650                1.96116969
               8.78056111                1.67046569               27.86972874                0.00010000                0.52977249               -0.32112687               -0.80394920               -1.61553535               12.28606893                2.72843108
               9.78631396                1.42397124               27.80781454                0.06453470                0.52505767               -0.21099671               -1.12937056               -1.02516753                9.05770460                4.47290822
              10.79106226                1.18176193               27.68207555                0.27775097                0.52196050               -0.10666308               -1.44719271               -0.46845951                4.31253106                5.98659262
              11.79675317                0.94298297               27.52485187                0.64706836                0.61623547                0.40596526               -1.93307452               -0.17918379                1.66504609                2.18034914
              12.80338697                0.70608073               27.34599672                0.98068584                0.66338023                0.91591170               -2.50024290               -0.18242009                0.58323872               -1.21632699
               3.00499881                4.10965711               28.44620240                1.00000000               -0.34127332               -0.47703983                1.46956056               -0.04700831                0.03762584                1.75283179
               4.00158608                3.88203281               28.25164742                0.58505556               -0.26248120               -0.22924059                0.82828331                0.00015711                0.22322195               -1.19670244
               4.99974919                3.65388426               28.06078408                0.04967904               -0.06983869                0.03664049                0.21265822               -0.59233767                7.31143774               -4.40349080
               6.00018931                3.41254745               28.00799352                0.00010000                0.14986539               -0.45885837                0.16243718               -1.46828157               15.43497289                0.18261683
               7.00274650                3.16447886               27.97840744                0.00010000                0.30473934               -0.42922243               -0.13619480               -1.88069801               16.96100884                0.75545155
               8.00628409                2.91509041               27.95430105                0.00010000                0.41302473               -0.52015786               -0.39686168               -1.98844571               17.14334183                2.17537568
               9.01100699                2.66586842               27.92643297                0.00010000                0.52598394               -0.53513140               -0.65756359               -1.89916285               16.59535704                3.62315546
              10.01680377                2.41861906               27.88930411                0.06885975                0.63500227               -0.65595217               -0.93188532               -1.53736145               14.65247297                4.99323216
              11.02370704                2.17615105               27.82078483                0.27581409                0.66437675               -0.58317755               -0.91209788               -0.65028965                6.98000072                6.87932090
              12.03009131                1.94526615               27.62815105                0.62396922                0.60049092                0.18563000               -1.54023453               -0.05288635                0.43551294                2.47817539
              13.03571686                1.71592347               27.42790785                0.95898555                0.56255483                0.94133780               -2.20301941               -0.07826244                0.06203440               -0.97328533
               3.23090930                5.10526390               28.38708968                1.00000000               -0.26706352               -0.40165772                1.24095300               -0.04631691                0.02232141                1.63541256
               4.22823866                4.88016967               28.17819050                0.56514506               -0.17717980               -0.14524526                0.55153965                0.00906854                0.13263527               -1.20044516
               5.22736570                4.65469985               27.97146451                0.04101241                0.02708711                0.12266983               -0.12212318               -0.91154887               10.38613310               -4.09836878
               6.22878040                4.40931173               27.96761597                0.00010000                0.19256007               -0.21114919               -0.07703023               -1.98322779               21.12826273               -1.19571400
               7.23121690                4.16045323               27.97431635                0.00010000                0.28898123               -0.34417386               -0.21573266               -2.25206476               21.81620061                0.74703208
               8.23456003                3.91004520               27.98221935                0.00010000                0.39161469               -0.49370717               -0.36854484               -2.36764890               21.90595515                2.36166564
               9.23904919                3.65976306               27.98841365                0.00010000                0.53620351               -0.65456708               -0.53354671               -2.34726415               21.75076159                4.08341730
              10.24528410                3.41085220               27.99070617                0.07653903                0.61800937               -0.83500691               -0.71563292               -1.91355879               19.00965680                6.12675624
              11.25140938                3.17009838               27.93927042                0.28747910                0.53194638               -0.56653671               -0.47680702               -0.79239856                8.35492932                5.29121400
              12.25592303                2.94669557               27.72591629                0.64073091                0.45488507                0.13014815               -1.18428417               -0.02348068                0.14833319                1.94919861
              13.26050708                2.72490748               27.50971325                0.96918998                0.45840583                0.82784791               -1.91415032               -0.04326812                0.01219714               -1.11655963
               3.45426092                6.10162396               28.32754196                1.00000000               -0.19294247               -0.32702217                1.01350364               -0.04574203                0.01980397                1.59644850
               4.45233149                5.87912790               28.10454113                0.54575851               -0.09423797               -0.06375462                0.27655564                0.01352645                0.13970012               -1.20749919
               5.45237616                5.65633765               27.88389383                0.03262982                0.12199415                0.20624412               -0.44354407               -1.17153942               13.25751366               -3.97619152
               6.45477138                5.40832447               27.92321699                0.00010000                0.22977879               -0.00144775               -0.31014205               -2.46906955               26.59820896               -1.47625379
               7.45697173                5.15759538               27.96772830                0.00010000                0.24249559               -0.20499243               -0.31527783               -2.71919039               26.96401601                0.53678491
               8.45962129                4.90521627               28.01216977                0.00010000                0.31414894               -0.44681622               -0.34948090               -2.90129242               27.03923846                2.44098156
               9.46325471                4.65277708               28.05555197                0.00010000                0.42879925               -0.70103861               -0.41330144               -2.96292732               27.01182801                4.39409602
              10.46819727                4.40191893               28.09640251                0.08435242                0.43804910               -0.90678942               -0.51385677               -2.39093641               22.60677691                6.45707797
              11.47201570                4.16482032               28.04827791                0.29943552                0.33076611               -0.50759133               -0.06681215               -0.94752353                9.25024131                4.55522174
              12.47481260                3.94786911               27.81946299                0.65856854                0.32059838                0.09429303               -0.83848019               -0.02544262                0.12213621                1.57275185
              13.47842766                3.73248042               27.58830878                0.98033217                0.36150674                0.69087014               -1.63581032               -0.04176401                0.01103099               -1.37587845
               3.67498657                7.09872345               28.26771255                1.00000000               -0.11910733               -0.25394271                0.78726523               -0.04497432                0.02060381                1.56756940
               4.67379549                6.87889458               28.03076740                0.52653632               -0.01241086                0.01630894                0.00479566                0.01655199                0.16218818               -1.20947266
               5.67473835                6.65882474               27.79659994                0.02438445                0.21728969                0.29108667               -0.75847753               -1.38017678               16.05891120               -3.93417965
               6.67814129                6.40928277               27.87754710                0.00010000                0.26014720                0.19735266               -0.53599392               -2.89857184               31.99801745               -1.58309001
               7.67994129                6.15635338               27.96022975                0.00010000                0.16055962               -0.02926844               -0.41285831               -3.21167888               32.20098725                0.42329945
               8.68135248                5.90110887               28.04280805                0.00010000                0.15733485               -0.34629500               -0.32991480               -3.47853702               32.33307578                2.39613166
               9.68308799                5.64574229               28.12519265                0.00010000                0.20348270               -0.67344730               -0.28780181               -3.61007927               32.42393096                4.48562266
              10.68542213                5.39271641               28.20617559                0.09229808                0.17103686               -0.91394686               -0.29726133               -2.81735218               25.85904666                6.77670345
              11.68650873                5.15994656               28.15347055                0.31151779                0.11659671               -0.48201884                0.33502608               -1.02208642                9.75835181                4.20530563
              12.68775407                4.94858143               27.91016468                0.67652810                0.19702252                0.04080665               -0.49883861               -0.02640367                0.12602555                1.32714155
              13.69044918                4.73872489               27.66447283                0.99155111                0.26951102                0.56073558               -1.36208730               -0.04153864                0.01228896               -1.55215755
               3.89301917                8.09654510               28.20764436                1.00000000               -0.04579228               -0.18284722                0.56263161               -0.04410908                0.02067015                1.53897453
               4.89256125                7.87945408               27.95687901                0.50743984                0.06826299                0.09484381               -0.26257114                0.01869861                0.18908981               -1.20756085
               5.89438443                7.66215939               27.70942172                0.01629878                0.33550233                0.37423539               -1.06640081               -1.53423778               18.81065186               -3.89047222
               6.89927129                7.41227152               27.83103878                0.00010000                0.32638133                0.38648157               -0.74705982               -3.19346310               37.34551254               -1.61303156
               7.90091206                7.15701001               27.95194113                0.00010000                0.06951741                0.14968473               -0.50131804               -3.57592075               37.45352842                0.31501416
               8.90066164                6.89829037               28.07293140                0.00010000               -0.07332312               -0.18441588               -0.30193085               -3.91360368               37.70556243                2.19185927
               9.89944560                6.63930813               28.19563470                0.00010000               -0.15078419               -0.56130548               -0.14645100               -4.16002063               38.05283441                4.32785381
              10.89764596                6.38363999               28.31993424                0.10041295               -0.18683247               -0.86062297               -0.04472464               -3.18358877               28.94101678                6.97241127
              11.89570895                6.15517994               28.25646356                0.32374265               -0.10698830               -0.48077728                0.73150412               -1.06138243                9.94727547                3.98476714
              12.89550619                5.94868524               27.99906892                0.69459830                0.08005141               -0.02474892               -0.16329815               -0.02875435                0.13549986                1.18303305
              13.89730997                5.74369514               27.73912981                1.00000000                0.18037808                0.43561991               -1.09055063               -0.04208205                0.01353629               -1.64162225
               4.10828643                9.09506651               28.14729979                1.00000000                0.02687513               -0.11386590                0.34018074               -0.04225507                0.02847631                1.51980759
               5.10855518                8.88079146               27.88292908                0.48847464                0.14748635                0.17162796               -0.52494773                0.01905333                0.23065196               -1.21964325
               6.11123616                8.66630944               27.62253972                0.00843395                0.54331105                0.45187204               -1.36539671               -1.64977469               21.55495065               -3.72596157
               7.11942140                8.41701241               27.78460302                0.00010000                0.55839370                0.45779528               -0.93846673               -3.26858048               42.63518653               -1.44005283
               8.12240403                8.15934708               27.94267926                0.00010000                0.06804405                0.21311018               -0.57672625               -3.47449033               42.59495045                0.20975145
               9.12078228                7.89742056               28.10044786                0.00010000               -0.39330372                0.05956580               -0.26470668               -3.81590466               43.02889796                1.73216706
              10.11453795                7.63451618               28.26348453                0.00010000               -0.74518653               -0.22512556                0.01091353               -4.33347450               43.89884498                3.63550284
              11.10587855                7.37550395               28.43509791                0.10871382               -0.71510662               -0.64670136                0.25051053               -3.54908291               32.06911080                6.61662854
              12.10023582                7.15033101               28.35790655                0.33611805               -0.36073829               -0.49328751                1.12293807               -1.13103105                9.99767259                3.69857529
              13.09866378                6.94808645               28.08703478                0.71274739               -0.03240351               -0.09862266                0.17003334               -0.03533023                0.17002623                1.14485217
              14.09958775                6.74743728               27.81315333                1.00000000                0.09239670                0.31524096               -0.81907197               -0.04312544                0.02445839               -1.66727508
               4.32072417               10.09426778               28.08691221                1.00000000                0.09752098               -0.04747138                0.11861665               -0.04069946               -0.01394405                1.30330313
               5.32169938                9.88288664               27.80857693                0.46964647                0.22219108                0.24642592               -0.77856308                0.01562070                0.38720397               -1.08616574
               6.32516799                9.67119683               27.53820860                0.00082343                0.95813379                0.51961764               -1.65054392               -1.83036910               24.46308045               -2.78323381
               7.34086205                9.42142742               27.74133038                0.00010000                1.29230556                0.00624151               -1.10309096               -2.53712867               47.79165611               -0.83993565
               8.35101410                9.16127221               27.93269728                0.00010000                0.41561977                0.12646689               -0.63660965               -2.38294096               47.38195234                0.10592956
               9.34917445                8.89948168               28.12224133                0.00010000               -0.81606933                0.30370923               -0.22467551               -2.54807762               47.97407827                0.96883500
              10.33469271                8.63480562               28.32117820                0.00010000               -1.91624911                0.45167353                0.16374913               -3.29581238               49.74055668                2.13510538
              11.31084947                8.37070596               28.54287682                0.11724337               -1.70934456                0.11498720                0.56648046               -3.14932382               35.52852355                4.46136057
              12.30050582                8.14531419               28.45557955                0.34867056               -0.65780755               -0.49370670                1.49826530               -1.31028907               10.41451128                2.60672058
              13.29769332                7.94671279               28.17523772                0.73097338               -0.13800135               -0.17797493                0.50474151               -0.04703053                0.37125114                1.02382443
              14.29774580                7.74999995               27.88701572                1.00000000                0.00524799                0.20171633               -0.54697741               -0.04612799               -0.01829684               -1.41111789
               4.53023473               11.09411708               28.02230883                0.99606136                0.17038205               -0.01507050               -0.10524880                0.11134582                0.63868212                1.09087284
               5.53193855               10.88571998               27.73708770                0.72881509                0.29266300                0.28333370               -1.02286710                0.15315308                1.53852476               -0.93613386
               6.53608799               10.67670180               27.46981393                0.49803228                2.33324454                0.55049690               -1.88724383               -2.33713707               27.67386907               -1.97459826
               7.57860344               10.41713724               27.70711089                0.44489569                3.03014811               -0.42901877               -1.22484906               -1.96713049               52.34338963               -0.51381122
               8.59669095               10.16187641               27.92227938                0.43506714                0.88419400                0.06041990               -0.67942379               -1.11443969               51.47496947                0.01348522
               9.59628732                9.90349474               28.13528546                0.45087065               -0.96467616                0.40130585               -0.19108782               -1.20505119               52.14941621                0.49761745
              10.57739743                9.64354965               28.35945755                0.49085141               -3.19519068                0.87440239                0.27901161               -2.01408106               54.41992538                1.16729746
              11.53238351                9.37780369               28.61525518                0.56147929               -3.96871083                0.70977302                0.79432596               -3.00123449               39.24326411                2.79552420
              12.49802321                9.14045688               28.53537167                0.67844928               -1.96730483               -0.48573137                1.79602917               -1.91209815               12.46984879                1.71439720
              13.49303741                8.94452695               28.26078898                0.87129481               -0.29661741               -0.21858397                0.82751243                0.08514613                1.71273202                0.89252419
              14.49209086                8.75147161               27.96595306                1.00000000               -0.09465470                0.14716558               -0.25262619                0.12897276                0.70334049               -1.15000076
               2.46743182                1.20394783               29.64220057                1.00000000               -0.56828132               -0.62826742                2.14764986               -0.10948970               -1.37880279                1.39947241
               3.46174900                0.95545386               29.47161319                0.99733937               -0.50217023               -0.45011791                1.61050358               -0.06882834               -1.43729606               -0.12991589
               4.45738841                0.70610692               29.29991707                0.66599246               -0.45938257               -0.26898582                1.06068737               -0.18591628               -1.08391407               -1.08394822
               5.45256135                0.45304323               29.13654358                0.51493893               -0.50283742               -0.15240865                0.54974644               -0.28120037                0.78889602               -0.13045585
               6.44733166                0.19146346               29.00337364                0.44942809               -0.38783478               -0.00504119                0.01655493               -0.26010244                3.59456980               -0.11926343
               7.44480466               -0.07952025               28.89791033                0.45066221                0.03696328                0.14539076               -0.55483138               -0.16016871                4.87853798                0.02613424
               8.44807093               -0.35361257               28.79183684                0.51451477                0.51042606                0.30036517               -1.10962947               -0.18677144                3.48544367                0.14900084
               9.45501318               -0.62331525               28.65831627                0.64670914                0.73101090                0.44973958               -1.62088304               -0.20935621                0.89552826                0.22347068
              10.46269115               -0.88691963               28.49924912                0.86337557                0.77324591                0.58064635               -2.11469091               -0.14923190               -1.02749435                0.54832124
              11.47047810               -1.14662218               28.32622415                1.00000000                0.82852610                0.72232145               -2.64544256               -0.07724963               -1.43062238                0.69931307
              12.47926167               -1.40497102               28.15855172                1.00000000                0.87835732                0.90980506               -3.13572799               -0.12869952               -1.14619672               -1.32459532
               2.71483089                2.19766515               29.57776866                1.00000000               -0.48497162               -0.60427400                1.91898894               -0.03346057                0.07310943                1.75283514
               3.70998117                1.95095268               29.40679575                0.81032988               -0.40481634               -0.41118301                1.38546084                0.00288982                0.30778255               -0.42320665
               4.70673456                1.70341706               29.24052916                0.20228027               -0.14550485               -0.21218117                0.89746902               -0.17564957                1.95549274               -2.14035263
               5.70707108                1.45151914               29.10241021                0.00010000                0.21389070               -0.11237783                0.44731495               -0.59967158                4.53289595               -2.12450523
               6.71101238                1.19141305               28.98668132                0.00010000                0.43349530               -0.41016829               -0.02334181               -1.03605775                7.28091663                0.63915665
               7.71574098                0.92193366               28.90180811                0.00010000                0.35441691               -0.20662468               -0.52682592               -1.26510074                8.89013925                0.98458381
               8.71810072                0.64939109               28.81679259                0.00010000                0.19160835                0.05713284               -1.00905699               -1.08453483                7.45936405                1.14752484
               9.71957315                0.38118214               28.70315378                0.17903419                0.23757893                0.26765175               -1.44530925               -0.59047383                4.79249419                2.65354067
              10.72285229                0.11888683               28.56542412                0.50489180                0.45790722                0.45497132               -1.87514724               -0.22982985                2.74887010                2.35684574
              11.72873129               -0.13939897               28.41132716                1.00000000                0.67356094                0.65010414               -2.28529421               -0.04024986                1.09867907                1.16168911
              12.73632351               -0.39587297               28.24062667                1.00000000                0.75922187                0.87712901               -2.80276188               -0.05807008                0.26857742               -1.40222511
               2.96018756                3.19186235               29.52046205                1.00000000               -0.41326645               -0.54948599                1.70086621               -0.04823070                0.22583636                1.99320587
               3.95605489                2.94723020               29.33613753                0.60652909               -0.34392997               -0.31965023                1.10356593               -0.01264230                0.63282676               -0.99349027
               4.95330896                2.70186330               29.15994754                0.06373017               -0.17414802               -0.07305943                0.58504992               -0.26403479                3.26764573               -4.01815540
               5.95257193                2.45079567               29.02835006                0.00010000                0.14435172               -0.38044536                0.27121911               -1.33604739                9.93854835               -1.36791486
               6.95619599                2.18326010               28.98506076                0.00010000                0.44763369               -0.66767591               -0.08835053               -2.15043442               13.60165972                0.95523628
               7.96152460                1.91634726               28.92474114                0.00010000                0.54678774               -0.58018423               -0.46482143               -2.22464297               12.70463762                1.99859308
               8.96713175                1.64753009               28.86155402                0.00010000                0.60916762               -0.34966129               -0.83116144               -1.98283734               12.53765511                2.80874952
               9.97370796                1.38203778               28.79639989                0.06188104                0.57719589               -0.23819900               -1.15699410               -1.27359921                9.33513585                4.55896726
              10.97867566                1.12217979               28.66758393                0.27104228                0.53624717               -0.18165780               -1.45234071               -0.55589873                4.51724441                6.23355492
              11.98443290                0.86637990               28.50554503                0.63079043                0.61863048                0.37415842               -1.91912095               -0.20768074                1.73818197                2.25956451
              12.99104827                0.61257156               28.32105103                0.96818855                0.66153724                0.92212930               -2.47815422               -0.20300639                0.60686687               -1.27204499
               3.20313058                4.18667543               29.46090479                1.00000000               -0.34031986               -0.48084995                1.47085565               -0.04704906                0.03671699                1.78427659
               4.19972738                3.94455967               29.25988732                0.57203757               -0.26210924               -0.22284127                0.81953907                0.00248615                0.23560262               -1.26666598
               5.19788839                3.70195587               29.06283054                0.04709701               -0.03870253                0.05568233                0.19634017               -0.69998626                7.61939130               -4.60414502
               6.19895333                3.44391023               29.00950321                0.00010000                0.22818547               -0.52569766                0.13872746               -1.71733454               15.90781188                0.10263898
               7.20245210                3.17805953               28.97692080                0.00010000                0.40123994               -0.48670982               -0.16131341               -2.20878505               17.33294983                0.72687284
               8.20697813                2.91032997               28.95018070                0.00010000                0.51506696               -0.58257927               -0.42725836               -2.35260092               17.53839422                2.19669666
               9.21275344                2.64239786               28.91969628                0.00010000                0.62366683               -0.59165897               -0.68976670               -2.25667426               16.98943969                3.67939135
              10.21945146                2.37641816               28.87985030                0.06620675                0.73193811               -0.70620141               -0.95767706               -1.86430607               15.19233587                5.05366146
              11.22739220                2.11525367               28.81163003                0.26946869                0.73672253               -0.70035300               -0.91730510               -0.80082324                7.34204451                7.13980484
              12.23418591                1.86808420               28.61274006                0.60911043                0.62439321                0.13613578               -1.54065445               -0.06483215                0.44862476                2.55574743
              13.23988007                1.62256961               28.40589449                0.94770228                0.56941536                0.96011510               -2.20216964               -0.08040222                0.05872674               -1.04660376
               3.44347810                5.18224535               29.39949599                1.00000000               -0.26539202               -0.40519581                1.24008368               -0.04652520                0.02239810                1.66690245
               4.44082418                4.94277337               29.18364716                0.55263632               -0.17597125               -0.13668495                0.53935798                0.01209575                0.14105196               -1.26634009
               5.43995867                4.70297694               28.97013737                0.03864531                0.06487027                0.14413256               -0.14392850               -1.05417657               10.76109484               -4.26611033
               6.44212158                4.44028172               28.96668080                0.00010000                0.28209397               -0.23782965               -0.11111077               -2.29164153               21.77974185               -1.32929459
               7.44560055                4.17352590               28.97197786                0.00010000                0.40063384               -0.38901858               -0.25261601               -2.60562232               22.37783972                0.70335689
               8.45013426                3.90469567               28.97833093                0.00010000                0.51547598               -0.55119224               -0.40925396               -2.74295823               22.46211641                2.37164937
               9.45591007                3.63569691               28.98286248                0.00010000                0.67158824               -0.72004308               -0.57596878               -2.71913162               22.30002979                4.12865595
              10.46356602                3.36791376               28.98334510                0.07374479                0.75415472               -0.91506602               -0.75425896               -2.25718051               19.77105329                6.19327409
              11.47099316                3.10817273               28.93444339                0.28088958                0.61271478               -0.65354989               -0.48774149               -0.96190335                8.85731326                5.49301961
              12.47582032                2.86910261               28.71402080                0.62549223                0.47381178                0.09840669               -1.19607717               -0.02944443                0.15781824                2.00971748
              13.48046940                2.63177386               28.49051956                0.95766377                0.46490815                0.85080153               -1.92879187               -0.04328136                0.01041326               -1.19583161
               3.68114403                6.17857152               29.33766489                1.00000000               -0.19063284               -0.33037447                1.01078547               -0.04598102                0.01992456                1.62877892
               4.67923770                5.94182597               29.10723440                0.53372439               -0.09237567               -0.05368850                0.26148311                0.01649061                0.14884206               -1.26915789
               5.67929652                5.70483852               28.87933358                0.03045924                0.16669203                0.22948318               -0.46949507               -1.33911384               13.70066396               -4.13002715
               6.68257154                5.43915364               28.91991633                0.00010000                0.33145935               -0.00849718               -0.35122100               -2.81988319               27.41003311               -1.59771639
               7.68592570                5.17027916               28.96434447                0.00010000                0.36882046               -0.23845407               -0.36234712               -3.10390882               27.70465019                0.48699040
               8.68994795                4.89930613               29.00840912                0.00010000                0.46135116               -0.50164762               -0.40285252               -3.30454751               27.76142404                2.44744155
               9.69515273                4.62799700               29.05112316                0.00010000                0.59420414               -0.77360075               -0.47155441               -3.36316545               27.71111731                4.44059631
              10.70183203                4.35811684               29.09095067                0.08141481                0.59062761               -0.99142954               -0.57368881               -2.76302899               23.58128596                6.52540859
              11.70696528                4.10218268               29.04754594                0.29259560                0.40819332               -0.56800617               -0.07891768               -1.13256965                9.89859460                4.74284214
              12.70999590                3.87005233               28.81100927                0.64285287                0.33533369                0.07642865               -0.85269165               -0.02966225                0.13483272                1.62916055
              13.71367195                3.63958564               28.57186192                0.96849880                0.36760520                0.71368220               -1.65657536               -0.04123996                0.01092299               -1.45682620
               3.91604956                7.17563786               29.27556657                1.00000000               -0.11625804               -0.25741362                0.78318265               -0.04516668                0.02068656                1.60057170
               4.91488698                6.94169960               29.03073258                0.51496494               -0.01004172                0.02741787               -0.01237966                0.01913131                0.17262100               -1.26537685
               5.91584873                6.70756661               28.78887614                0.02241828                0.26981497                0.31565010               -0.78746127               -1.56736313               16.57027141               -4.07714206
               6.92028328                6.44011177               28.87196272                0.00010000                0.37605793                0.20191086               -0.58227366               -3.28530410               32.96581729               -1.69003003
               7.92336989                6.16875682               28.95582309                0.00010000                0.30210941               -0.05354934               -0.46961243               -3.62854806               33.11477873                0.38039845
               8.92632547                5.89466272               29.03917396                0.00010000                0.32330798               -0.39768175               -0.39739952               -3.91051480               33.22070778                2.40682179
               9.92983605                5.62022490               29.12192126                0.00010000                0.38971482               -0.74493345               -0.36586195               -4.03845955               33.27856338                4.54175161
              10.93411977                5.34808516               29.20275325                0.08921703                0.32851185               -0.99262284               -0.38478204               -3.20190539               27.04135547                6.86997043
              11.93640628                5.09681261               29.15676535                0.30441322                0.18521698               -0.52375714                0.32450995               -1.20867900               10.54271224                4.38607582
              12.93782410                4.87063119               28.90510677                0.66035097                0.20858475                0.03044796               -0.51320321               -0.02995283                0.14164379                1.37969225
              13.94057798                4.64604750               28.65074651                0.97939219                0.27538725                0.58084678               -1.38558469               -0.04090312                0.01285032               -1.63240227
               4.14811721                8.17342324               29.21324706                1.00000000               -0.04256312               -0.18684532                0.55798073               -0.04405519                0.02110705                1.57257618
               5.14769158                7.94237433               28.95416596                0.49633388                0.07099345                0.10649688               -0.28106380                0.02049377                0.20084099               -1.25681204
               6.14953708                7.71115153               28.69860899                0.01452889                0.39918336                0.39889105               -1.09746496               -1.73803021               19.39264954               -4.02112438
               7.15567525                7.44319186               28.82332405                0.00010000                0.46333579                0.39662126               -0.79768455               -3.60454269               38.46829578               -1.70094861
               8.15880380                7.16920817               28.94660621                0.00010000                0.22971642                0.12825039               -0.56726347               -4.01111815               38.53589088                0.28287837
               9.16026958                6.89135249               29.06950753                0.00010000                0.10786466               -0.23167529               -0.38389602               -4.35432333               38.76096269                2.20993219
              10.16096109                6.61309833               29.19367183                0.00010000                0.04683189               -0.62424621               -0.24625017               -4.59658401               39.07545558                4.39817014
              11.16120621                6.33826439               29.31888219                0.09718657               -0.03577072               -0.92705982               -0.16473389               -3.56315921               30.32105555                7.10328544
              12.16024567                6.09170753               29.26373740                0.31636853               -0.05221319               -0.50817291                0.72370409               -1.24098640               10.84674465                4.15917753
              13.16016195                5.87066129               28.99737133                0.67794289                0.08877916               -0.03003075               -0.17662237               -0.03205386                0.15324006                1.23279155
              14.16202126                5.65120258               28.72811210                0.99033960                0.18593087                0.45226732               -1.11498847               -0.04158269                0.01452181               -1.72014366
               4.37726628                9.17190095               29.15068117                1.00000000                0.03022911               -0.11917665                0.33490850               -0.04250680                0.02755723                1.55195227
               5.37756858                8.94382954               28.87758710                0.47784259                0.15021559                0.18362334               -0.54252931                0.01851832                0.24345333               -1.25861793
               6.38027060                8.71554443               28.60873636                0.00685468                0.62836017                0.47422903               -1.39821095               -1.87013690               22.21151436               -3.84187435
               7.39013578                8.44804420               28.77495703                0.00010000                0.73581453                0.45707137               -0.99318976               -3.68540282               43.91367170               -1.50478434
               8.39498689                8.17132183               28.93655304                0.00010000                0.26065334                0.17696438               -0.65065588               -3.88090839               43.84083065                0.18927816
               9.39534885                7.89002921               29.09733468                0.00010000               -0.19972076                0.01514086               -0.35964334               -4.21021507               44.25462550                1.75338460
              10.39099247                7.60773997               29.26299803                0.00010000               -0.55507342               -0.26558785               -0.10954761               -4.72770458               45.10712250                3.71004638
              11.38424738                7.32954397               29.43684482                0.10533776               -0.59014111               -0.68491839                0.09776299               -3.90654407               33.63761007                6.77768106
              12.37918965                7.08664915               29.36911194                0.32847444               -0.32796982               -0.50864816                1.11851018               -1.30178102               10.98805853                3.86118440
              13.37768798                6.87003057               29.08867965                0.69562584               -0.02629510               -0.10038770                0.15858379               -0.03885500                0.19047272                1.19447416
              14.37866375                6.65509285               28.80484991                1.00000000                0.09757664                0.32815949               -0.84332324               -0.04281321                0.02612050               -1.74334519
               4.60340990               10.17103971               29.08806513                0.99161040                0.10085693               -0.05257170                0.11326820               -0.04037435               -0.00807682                1.33373186
               5.60441847                9.94604680               28.80073389                0.45946354                0.22548896                0.25729842               -0.79504136                0.01077853                0.40289067               -1.11389381
               6.60791968                9.72063611               28.52154197                0.00010000                1.08856599                0.53586659               -1.68670356               -2.07429085               25.19969910               -2.86512086
               7.62618979                9.45233329               28.73002567                0.00010000                1.56404660               -0.06662532               -1.16102591               -2.86382808               49.22776124               -0.87296253
               8.63920061                9.17274746               28.92594666                0.00010000                0.67286675                0.06350941               -0.71598454               -2.65947217               48.78266621                0.09540220
               9.63964713                8.89165531               29.11948588                0.00010000               -0.61541855                0.26264448               -0.32860634               -2.79233100               49.36289188                0.98311043
              10.62689224                8.60778657               29.32215022                0.00010000               -1.77404866                0.43847045                0.02829627               -3.55248519               51.14740147                2.18730371
              11.60416615                8.32456602               29.54765972                0.11372130               -1.65843964                0.15765238                0.38659918               -3.40179817               37.28252881                4.59001204
              12.59372345                8.08153457               29.47055682                0.34076446               -0.66125012               -0.49775843                1.49766158               -1.47939101               11.48337759                2.72134231
              13.59094115                7.86865354               29.18024275                0.71336949               -0.13415050               -0.17750865                0.49601918               -0.05141905                0.40137562                1.06844500
              14.59104044                7.65776577               28.88143806                1.00000000                0.00992889                0.21111900               -0.57003992               -0.04616560               -0.01817655               -1.47389581
               4.82644462               11.17084952               29.02124869                0.99125663                0.17431270               -0.01901932               -0.10731926                0.11607109                0.65425209                1.12117226
               5.82818775               10.94897551               28.72682130                0.72386502                0.30268338                0.29287090               -1.04448267                0.14754001                1.57850786               -0.95684437
               6.83249829               10.72626176               28.45076724                0.49740514                2.62800556                0.56256525               -1.92470026               -2.65532967               28.50877173               -2.03070758
               7.88074786               10.44671169               28.69458594                0.44519627                3.49885628               -0.56215927               -1.28349208               -2.22768011               53.93472603               -0.53789596
               8.90247542               10.17259201               28.91509260                0.43524222                1.18576255               -0.01554470               -0.76018192               -1.24399905               53.01292926                0.00193782
               9.90446311                9.89528210               29.13285174                0.45066266               -0.77216792                0.36267922               -0.29773925               -1.32253288               53.67624086                0.50041682
              10.88703206                9.61650938               29.36155679                0.49007848               -3.09998485                0.87228090                0.13841002               -2.11527268               55.98422489                1.19286368
              11.84246342                9.33269702               29.62227093                0.55967201               -4.07588744                0.81309964                0.60446607               -3.16104362               41.16487287                2.88135211
              12.80551431                9.07669398               29.55333934                0.67440942               -2.10175081               -0.48405876                1.79809233               -2.13174471               13.65130290                1.78985055
              13.80042840                8.86648040               29.26903736                0.86234860               -0.29991694               -0.21731384                0.82211428                0.07978733                1.80200044                0.93132035
              14.79951597                8.65931523               28.96333082                1.00000000               -0.09124286                0.15494599               -0.27307842                0.13103623                0.73540039               -1.20036343
               2.62672540                1.28367913               30.66372408                1.00000000               -0.57194644               -0.63114352                2.15725784               -0.10978045               -1.42111984                1.43446896
               3.62100594                1.02002933               30.48774711                0.98784056               -0.50904463               -0.45292341                1.62496608               -0.07026699               -1.49140757               -0.14767999
               4.61654451                0.75546063               30.31048261                0.66241584               -0.49377865               -0.26792953                1.06349593               -0.21770441               -1.12942527               -1.09154987
               5.61113036                0.48635891               30.14200931                0.51410125               -0.57814091               -0.14977858                0.54435320               -0.32495282                0.74831203               -0.13542385
               6.60498169                0.20714044               30.00346891                0.44942556               -0.47109280                0.00016063                0.00439931               -0.29873803                3.51644206               -0.12334861
               7.60170851               -0.08330384               29.89223637                0.45046152                0.00227387                0.15308921               -0.57755894               -0.17954216                4.78046095                0.02546029
               8.60502717               -0.37757090               29.78055081                0.51326106                0.54196851                0.30951820               -1.14439083               -0.20797699                3.40747652                0.15239271
               9.61254788               -0.66677344               29.64187206                0.64328823                0.78669041                0.45996301               -1.66557933               -0.23501425                0.84431220                0.22896985
              10.62076098               -0.94881887               29.47785882                0.85594236                0.81445590                0.59052890               -2.16299060               -0.16062427               -1.08565808                0.54396898
              11.62883700               -1.22624792               29.29953097                1.00000000                0.85301192                0.73076771               -2.69943766               -0.07068410               -1.47962219                0.75439820
              12.63782121               -1.50208820               29.12699077                1.00000000                0.89842187                0.91496180               -3.19194654               -0.13281645               -1.16841521               -1.35892816
               2.88927740                2.27736770               30.59699705                1.00000000               -0.48648828               -0.60732289                1.92669069               -0.03469986                0.08546826                1.79204563
               3.88441252                2.01550009               30.42064540                0.79328979               -0.40373637               -0.41181096                1.38909490                0.00207052                0.34265527               -0.47046966
               4.88120267                1.75278133               30.24947460                0.19689826               -0.11857951               -0.20790379                0.89919901               -0.21579988                2.03327380               -2.22583592
               5.88204093                1.48486112               30.10688381                0.00010000                0.28115042               -0.11606539                0.44779425               -0.71856331                4.61651982               -2.16720828
               6.88682568                1.20714205               29.98641650                0.00010000                0.51139144               -0.46187637               -0.02936505               -1.22999080                7.33215178                0.61920498
               7.89226876                0.91822705               29.89645983                0.00010000                0.39282589               -0.23242653               -0.54266889               -1.50041371                8.93039848                0.99910836
               8.89468220                0.62552428               29.80657352                0.00010000                0.17764821                0.06539460               -1.03534615               -1.28862923                7.52975210                1.18804855
               9.89582172                0.33782619               29.68855071                0.17418402                0.21048864                0.26137539               -1.47678394               -0.69994933                4.88725289                2.71228488
              10.89889197                0.05708641               29.54653591                0.49376956                0.44715469                0.45230013               -1.90913501               -0.26326967                2.85806252                2.44639995
              11.90476481               -0.21894025               29.38843511                1.00000000                0.67206738                0.65046441               -2.29665403               -0.04061376                1.16635936                1.21926628
              12.91233332               -0.49293858               29.21260714                1.00000000                0.75685057                0.87301011               -2.79482413               -0.06527846                0.28359374               -1.43434473
               3.14976661                3.27153268               30.53749002                1.00000000               -0.41329005               -0.55294961                1.70499129               -0.04942196                0.22748732                2.03098064
               4.14563371                3.01179311               30.34715017                0.59225163               -0.34495647               -0.31551147                1.09902305               -0.01351288                0.67536180               -1.06900829
               5.14286748                2.75130255               30.16577196                0.06051109               -0.16176644               -0.05849062                0.57932729               -0.32185250                3.45509796               -4.21875324
               6.14239838                2.48403760               30.03108058                0.00010000                0.20742298               -0.42958165                0.27631494               -1.55926410               10.20253753               -1.43806897
               7.14701594                2.19790291               29.98410050                0.00010000                0.54598091               -0.75214198               -0.10372298               -2.50438242               13.83011566                0.92111707
               8.15331800                1.91204763               29.91998026                0.00010000                0.63197545               -0.63962547               -0.48746639               -2.60790864               12.93175718                2.02206144
               9.15965545                1.62373699               29.85310551                0.00010000                0.68343781               -0.36882478               -0.85907804               -2.35747894               12.78632043                2.87757918
              10.16698676                1.33845406               29.78467466                0.05914962                0.63032825               -0.25395491               -1.18814009               -1.53074226                9.61550085                4.63285627
              11.17226202                1.06022713               29.65302874                0.26422633                0.55314779               -0.24993620               -1.46934480               -0.64632523                4.73354638                6.47219668
              12.17804971                0.78676136               29.48646945                0.61449190                0.61251449                0.34227837               -1.88283384               -0.24102965                1.81256968                2.31356402
              13.18451231                0.51537201               29.29643364                0.95575195                0.64625931                0.92307174               -2.44008678               -0.22647524                0.63317437               -1.34161417
               3.40776810                4.26630871               30.47561952                1.00000000               -0.33957120               -0.48454128                1.47176544               -0.04746880                0.03595905                1.81599714
               4.40437238                4.00918986               30.26803820                0.55893113               -0.26234813               -0.21486571                0.81052462                0.00437082                0.24933701               -1.33956187
               5.40252113                3.75161152               30.06471088                0.04443851               -0.00585492                0.07860298                0.17938201               -0.81169525                7.92939626               -4.81479951
               6.40425528                3.47626949               30.01076807                0.00010000                0.31034350               -0.58624444                0.11309664               -1.96879715               16.38515353                0.00017122
               7.40872800                3.19209921               29.97518118                0.00010000                0.50106116               -0.54031039               -0.18695128               -2.53636622               17.70970287                0.68332722
               8.41427651                2.90543454               29.94575588                0.00010000                0.61990931               -0.63989331               -0.45800957               -2.71758428               17.93683569                2.20433571
               9.42112619                2.61814778               29.91263764                0.00010000                0.72201151               -0.64138502               -0.72200408               -2.61536407               17.39181537                3.72296952
              10.42871674                2.33274709               29.87015057                0.06347009                0.82659897               -0.74183807               -0.98297899               -2.19612992               15.75012251                5.10332949
              11.43765817                2.05208769               29.80243872                0.26301088                0.80413026               -0.80921295               -0.91999250               -0.96119196                7.71807317                7.39034798
              12.44479934                1.78790532               29.59733796                0.59419763                0.64621810                0.09296691               -1.54691075               -0.08056623                0.46193850                2.61067422
              13.45058253                1.52552286               29.38386445                0.93644316                0.57831868                0.98257082               -2.21859155               -0.07796990                0.05294791               -1.15499508
               3.66305492                5.26184185               30.41189135                1.00000000               -0.26366060               -0.40898759                1.23855202               -0.04699117                0.02256560                1.69899622
               4.66041831                5.00749579               30.18897766                0.54001526               -0.17504828               -0.12652710                0.52623934                0.01500112                0.15045723               -1.33417856
               5.65955395                4.75287461               29.96858594                0.03620898                0.10582198                0.16934101               -0.16716212               -1.19983553               11.13627645               -4.43926750
               6.66253475                4.47231271               29.96539375                0.00010000                0.37848046               -0.25906357               -0.14746711               -2.60360195               22.43446924               -1.47323818
               7.66712356                4.18709671               29.96926403                0.00010000                0.51914933               -0.43046262               -0.29089561               -2.96094986               22.94664999                0.64575021
               8.67291774                3.89924976               29.97403427                0.00010000                0.64560323               -0.60562386               -0.45034773               -3.11964264               23.02551943                2.36681540
               9.68003563                3.61090929               29.97689428                0.00010000                0.81032571               -0.78087812               -0.61726739               -3.09115722               22.86022113                4.15737706
              10.68912425                3.32361730               29.97562099                0.07086009                0.89221590               -0.98640682               -0.78849105               -2.60914692               20.55580637                6.23880897
              11.69787994                3.04404287               29.92951559                0.27417750                0.69394843               -0.73662431               -0.49763365               -1.13628913                9.37702910                5.68847274
              12.70300322                2.78862070               29.70199475                0.61018143                0.49189445                0.07305187               -1.20969249               -0.03127612                0.16874617                2.05969727
              13.70771783                2.53502342               29.47113742                0.94615366                0.47146122                0.87970481               -1.95331319               -0.04181271                0.00982625               -1.29265119
               3.91552038                6.25812895               30.34775767                1.00000000               -0.18807396               -0.33445697                1.00728069               -0.04629522                0.02009912                1.66219059
               4.91363964                6.00665932               30.10977079                0.52157351               -0.09064385               -0.04201546                0.24508455                0.01947056                0.15885519               -1.33175155
               5.91370751                5.75499834               29.87450393                0.02823312                0.21607545                0.25659357               -0.49738832               -1.51057115               14.14317126               -4.28745574
               6.91796115                5.47108822               29.91619257                0.00010000                0.44322231               -0.01191275               -0.39477795               -3.17662277               28.22370297               -1.72628771
               7.92257195                5.18348996               29.96048135                0.00010000                0.50549599               -0.26985519               -0.41116343               -3.49320446               28.45163801                0.42509052
               8.92807107                4.89332207               30.00411272                0.00010000                0.61817778               -0.55514301               -0.45668781               -3.71045040               28.49047538                2.43784857
               9.93493551                4.60253022               30.04612088                0.00010000                0.76645746               -0.84403198               -0.52794755               -3.76293831               28.41956817                4.46644587
              10.94340022                4.31301895               30.08492873                0.07839081                0.74967395               -1.07165005               -0.62768333               -3.14470559               24.58827375                6.56656785
              11.94992899                4.03735520               30.04669956                0.28561604                0.48965235               -0.62831322               -0.08959547               -1.32615444               10.57702372                4.92884051
              12.95319327                3.78936636               29.80240916                0.62709439                0.35059241                0.05962577               -0.86814797               -0.03178446                0.15057547                1.68117606
              13.95694083                3.54311695               29.55517727                0.95667257                0.37475668                0.74016184               -1.68443722               -0.03949695                0.01132315               -1.54691641
               4.16506828                7.25515271               30.28337620                1.00000000               -0.11299408               -0.26234654                0.77829198               -0.04556583                0.02090183                1.63522750
               5.16393834                7.00665549               30.03051980                0.50327266               -0.00773212                0.04019995               -0.03098476                0.02151352                0.18375013               -1.32114141
               6.16491363                6.75800648               29.78085072                0.02037976                0.32861728                0.34391735               -0.81890191               -1.76046017               17.08035264               -4.22247855
               7.17051068                6.47207446               29.86590163                0.00010000                0.50559942                0.20850092               -0.63133319               -3.68140229               33.93351345               -1.80295384
               8.17502562                6.18169960               29.95083750                0.00010000                0.45788913               -0.07761601               -0.52865156               -4.05265509               34.03227698                0.32594206
               9.17966846                5.88814690               30.03486006                0.00010000                0.50271767               -0.44968859               -0.46578247               -4.34633724               34.11211510                2.40076154
              10.18507998                5.59402865               30.11787541                0.00010000                0.58683476               -0.81677231               -0.44230399               -4.46590328               34.13736952                4.57463763
              11.19140516                5.30218430               30.19847994                0.08604832                0.49647366               -1.07024169               -0.46671335               -3.59753842               28.26836136                6.93061317
              12.19500945                5.03147660               30.15996074                0.29717721                0.26003119               -0.56691540                0.31507356               -1.40726871               11.37323824                4.56700458
              13.19660578                4.78981322               29.89990061                0.64411991                0.22086266                0.02009178               -0.52863586               -0.03234566                0.16050670                1.42910230
              14.19942670                4.54982666               29.63676114                0.96726896                0.28209197                0.60359537               -1.41438627               -0.03975394                0.01379848               -1.71923407
               4.41160352                8.25288202               30.21880397                1.00000000               -0.03873762               -0.19326105                0.55259523               -0.04399790                0.02068812                1.60792212
               5.41121614                8.00746332               29.95125774                0.48511114                0.07379076                0.11978408               -0.30099515                0.02126950                0.21286767               -1.30363009
               6.41307933                7.76187669               29.68747242                0.01268756                0.47119237                0.42662489               -1.13146205               -1.95111054               19.97228427               -4.15478693
               7.42063999                7.47525824               29.81508509                0.00010000                0.61835350                0.40703214               -0.85210198               -4.02857903               39.58898448               -1.79512404
               8.42544640                7.18193764               29.94059586                0.00010000                0.40876459                0.10462959               -0.63635037               -4.45562850               39.61873559                0.23977031
               9.42881528                6.88432830               30.06525348                0.00010000                0.30668220               -0.28185078               -0.46771419               -4.79907604               39.81553203                2.21183420
              10.43158005                6.58619478               30.19070969                0.00010000                0.25931095               -0.68949680               -0.34571231               -5.03119475               40.09443389                4.44479844
              11.43400150                6.29161412               30.31663956                0.09386344                0.12873255               -0.99521317               -0.28145355               -3.95331021               31.75986904                7.19904106
              12.43415470                6.02601690               30.27093764                0.30887358                0.00974009               -0.53706601                0.71661647               -1.43466028               11.81155898                4.33455815
              13.43419630                5.78976819               29.99553647                0.66125931                0.09820874               -0.03543531               -0.19095662               -0.03492725                0.17428976                1.28052499
              14.43611887                5.55518886               29.71683004                0.97790261                0.19225713                0.47088812               -1.14379134               -0.04078630                0.01582445               -1.80371658
               4.65502572                9.25128749               30.15399796                0.99544223                0.03433387               -0.12535608                0.32779746               -0.04255323                0.03065382                1.58848268
               5.65536906                9.00905117               29.87207849                0.46707127                0.15353933                0.19556182               -0.56032535                0.01578513                0.25586116               -1.29740515
               6.65809651                8.76653898               29.59457550                0.00521128                0.72545462                0.49934195               -1.43726253               -2.10226029               22.86431427               -3.96336107
               7.66987815                8.48021510               29.76473922                0.00010000                0.93732422                0.45405141               -1.05304558               -4.11870940               45.18984997               -1.57614539
               8.67684299                8.18379219               29.92966614                0.00010000                0.47758247                0.13515283               -0.72875370               -4.29721994               45.08467938                0.15960397
               9.67942980                7.88250989               30.09325500                0.00010000                0.01636329               -0.03507319               -0.45764277               -4.60700177               45.47441074                1.76127859
              10.67717026                7.58023871               30.26129358                0.00010000               -0.34564838               -0.31009224               -0.23188807               -5.11714932               46.30247471                3.76432131
              11.67251684                7.28228004               30.43705317                0.10187616               -0.45040453               -0.72670129               -0.05575156               -4.27057408               35.27854912                6.90617272
              12.66816217                7.02073528               30.38027675                0.32070706               -0.28907809               -0.52516302                1.11467032               -1.48699411               12.06366564                4.02554665
              13.66673527                6.78910451               30.09020645                0.67847116               -0.01962637               -0.10221056                0.14622084               -0.04237864                0.21428908                1.24306958
              14.66776964                6.55924442               29.79628686                0.98856225                0.10343679                0.34261312               -0.87132425               -0.04236986                0.02811395               -1.82329428
               4.89522510               10.25037490               30.08917757                0.98169483                0.10552537               -0.05570482                0.11153535               -0.04259298               -0.00036444                1.37331785
               5.89628035               10.01137456               29.79267611                0.44913888                0.23225486                0.26785522               -0.82134703                0.00548616                0.41966822               -1.15121727
               6.89987019                9.77186353               29.50447453                0.00010000                1.23661181                0.55490586               -1.73163362               -2.33165075               25.93775576               -2.95279326
               7.92101259                9.48433926               29.71810986                0.00010000                1.86685092               -0.14781587               -1.22528504               -3.20641952               50.66336752               -0.91087884
               8.93720721                9.18464069               29.91837759                0.00010000                0.96080687               -0.00844570               -0.80022662               -2.94358443               50.18015625                0.07943133
               9.94022872                8.88362683               30.11566920                0.00010000               -0.38701509                0.21307400               -0.43648453               -3.03648073               50.74174460                0.98974017
              10.92946691                8.57999293               30.32174413                0.00010000               -1.60676387                0.41775329               -0.11108310               -3.80271347               52.53208978                2.22747683
              11.90809345                8.27708009               30.55060880                0.11011122               -1.59382846                0.19641305                0.20112955               -3.65488593               39.12047483                4.69785551
              12.89759034                8.01551364               30.48553278                0.33273250               -0.66269283               -0.50232240                1.49775060               -1.66177161               12.65508797                2.83760821
              13.89483959                7.78772398               30.18515811                0.69573590               -0.12993445               -0.17701833                0.48659930               -0.05609235                0.43502418                1.11298070
              14.89499165                7.56204112               29.87561492                0.99919193                0.01520623                0.22171924               -0.59643132               -0.04617110               -0.01773490               -1.53918382
               5.13217455               11.25017339               30.02016245                0.98639520                0.18156083               -0.02015084               -0.11173760                0.11843319                0.66884326                1.16334138
               6.13399016               11.01440827               29.71619805                0.71884461                0.31621186                0.30337136               -1.08068943                0.14416610                1.63005551               -0.99458510
               7.13849879               10.77763710               29.43131992                0.49673830                2.94912197                0.57735716               -1.97136872               -2.99461513               29.35475162               -2.08944403
               8.19297260               10.47725878               29.68144105                0.44548385                4.00924751               -0.70804829               -1.34845119               -2.50468979               55.52613092               -0.56479346
               9.21868374               10.18362328               29.90707575                0.43540914                1.51876758               -0.10174119               -0.84549991               -1.37671808               54.54730935               -0.01228117
              10.22334795                9.88677137               30.12933067                0.45045670               -0.55105040                0.31445374               -0.40813182               -1.43955248               55.19144717                0.49922698
              11.20766273                9.58859378               30.36222575                0.48929017               -2.97247685                0.86008488               -0.00634419               -2.20857159               57.52261078                1.21194995
              12.16389841                9.28620830               30.62734450                0.55782181               -4.16899415                0.91282070                0.40726764               -3.31475059               43.17462983                2.95389274
              13.12428285                9.01068884               30.57133352                0.67031636               -2.24062366               -0.48247990                1.80122285               -2.36295719               14.94430457                1.86655330
              14.11908594                8.78556414               30.27723127                0.85339100               -0.30354548               -0.21598375                0.81640458                0.07413343                1.89616902                0.97050409
              15.11821194                8.56367881               29.96049149                1.00000000               -0.08740021                0.16376838               -0.29640563                0.13349473                0.76844192               -1.25231413
               2.79096337                1.36609127               31.68534573                1.00000000               -0.58010482               -0.63511368                2.17085311               -0.11073975               -1.45374091                1.47448212
               3.78516233                1.08670368               31.50411251                0.97818506               -0.52128382               -0.45634511                1.64550871               -0.07052589               -1.54620129               -0.17939485
               4.78053770                0.80629194               31.32118698                0.65875822               -0.53105183               -0.26809442                1.07650271               -0.24350205               -1.18791111               -1.10802813
               5.77454129                0.52058577               31.14743065                0.51321223               -0.65521264               -0.14820585                0.54309847               -0.36770335                0.70010019               -0.13935521
               6.76743344                0.22310131               31.00346162                0.44940733               -0.56046550                0.00642563               -0.00410483               -0.33759158                3.43490828               -0.12804214
               7.76333198               -0.08745795               30.88635915                0.45025725               -0.04243374                0.16298918               -0.59509999               -0.19957723                4.67649954                0.02486172
               8.76658477               -0.40261014               30.76894902                0.51197081                0.56297169                0.32074983               -1.17212146               -0.22974824                3.32210455                0.15578446
               9.77459141               -0.71209314               30.62500468                0.63980008                0.83671538                0.47183888               -1.70275727               -0.26277387                0.78538774                0.23618669
              10.78331908               -1.01339444               30.45598931                0.84841149                0.85811417                0.60393472               -2.21035976               -0.18146078               -1.15514345                0.53338479
              11.79175370               -1.30934249               30.27223540                1.00000000                0.88273420                0.73903704               -2.75453926               -0.07603757               -1.54492166                0.82828102
              12.80097376               -1.60338231               30.09471279                1.00000000                0.92200651                0.93795799               -3.26052297               -0.13622523               -1.21013434               -1.35189414
               3.06924357                2.35974013               31.61630247                1.00000000               -0.48868366               -0.61158851                1.93598980               -0.03730884                0.10096899                1.83478099
               4.06435673                2.08214022               31.43457765                0.77607789               -0.40409687               -0.41232249                1.39748868               -0.00056366                0.38165506               -0.52857002
               5.06116163                1.80361099               31.25851314                0.19141717               -0.09485802               -0.20199928                0.90863557               -0.25468548                2.11243319               -2.32284310
               6.06245957                1.51910371               31.11136609                0.00010000                0.34588796               -0.12178697                0.44916352               -0.83462885                4.69835103               -2.20908554
               7.06807939                1.22316556               30.98609401                0.00010000                0.58661805               -0.50917715               -0.03525700               -1.42332958                7.38029471                0.59185135
               8.07419193                0.91417194               30.89095474                0.00010000                0.42627454               -0.25248064               -0.55839181               -1.73727247                8.96489816                1.00782863
               9.07660488                0.60059736               30.79608567                0.00010000                0.15819452                0.08138528               -1.06232539               -1.49838496                7.59645748                1.22542381
              10.07735582                0.29262525               30.67361810                0.16921928                0.17621321                0.25940932               -1.51275801               -0.82245566                4.98015612                2.76944498
              11.08012914               -0.00735509               30.52724142                0.48250944                0.43157169                0.45576748               -1.95065898               -0.31723223                2.97817561                2.53236223
              12.08598726               -0.30195212               30.36539408                0.97938188                0.67610926                0.65454065               -2.34592536               -0.05609692                1.26318306                1.30956045
              13.09365133               -0.59400273               30.18473019                1.00000000                0.76640738                0.89321323               -2.83125468               -0.06458011                0.34038024               -1.45063254
               3.34541701                3.35385950               31.55456188                1.00000000               -0.41368198               -0.55730443                1.70967514               -0.05178605                0.22738665                2.07061442
               4.34128019                3.07845723               31.35811799                0.57788345               -0.34682532               -0.30996419                1.09511481               -0.01707592                0.71992791               -1.15038859
               5.33848050                2.80225195               31.17153408                0.05724523               -0.14930234               -0.03825444                0.57356560               -0.38611870                3.65552427               -4.43226852
               6.33829414                2.51815003               31.03387636                0.00010000                0.27090610               -0.47516116                0.28293810               -1.78038275               10.47006576               -1.52587000
               7.34389862                2.21291776               30.98298630                0.00010000                0.64302977               -0.83015099               -0.11933311               -2.85393181               14.05153023                0.87345269
               8.35115474                1.90749243               30.91499181                0.00010000                0.71325677               -0.69046317               -0.51066623               -2.99168755               13.15963977                2.03383661
               9.35816376                1.59901756               30.84437246                0.00010000                0.74700048               -0.37644369               -0.88761184               -2.74036024               13.03774319                2.93886173
              10.36609475                1.29309505               30.77263709                0.05632131                0.66940208               -0.25434132               -1.22236771               -1.79998243                9.90149492                4.70550402
              11.37155180                0.99572091               30.63819704                0.25729844                0.55923246               -0.30355655               -1.49210259               -0.74547967                4.98498326                6.71572416
              12.37727940                0.70374832               30.46788835                0.59818480                0.61157902                0.33622480               -1.89118336               -0.26136278                1.93241587                2.35943685
              13.38378338                0.41448196               30.27224929                0.94337080                0.65039853                0.93843297               -2.47516066               -0.21490132                0.68522522               -1.45639618
               3.61901239                4.34859404               31.49034010                1.00000000               -0.33896321               -0.48861900                1.47214406               -0.04832086                0.03529137                1.84917939
               4.61562276                4.07594094               31.27609782                0.54567703               -0.26329682               -0.20500062                0.80117643                0.00552068                0.26405787               -1.41453331
               5.61374645                3.80284590               31.06641818                0.04173543                0.02816731                0.10732964                0.16151054               -0.92764230                8.24057063               -5.03411782
               6.61618610                3.50960049               31.01176514                0.00010000                0.39559477               -0.63787869                0.08530552               -2.22223156               16.86758363               -0.12563753
               7.62165835                3.20656254               30.97318178                0.00010000                0.60361393               -0.58885193               -0.21361511               -2.86217030               18.09360980                0.62521085
               8.62825838                2.90036268               30.94102051                0.00010000                0.72683572               -0.69086460               -0.48962915               -3.08172002               18.34156963                2.19921618
               9.63619506                2.59306848               30.90525619                0.00010000                0.81972220               -0.68281763               -0.75500487               -2.97301161               17.80622631                3.75623389
              10.64465283                2.28753842               30.86019072                0.06064784                0.91856059               -0.75916399               -1.00942463               -2.52643080               16.33355165                5.14713381
              11.65456627                1.98657378               30.79323018                0.25641473                0.86730653               -0.90197798               -0.92980636               -1.10789329                8.11417709                7.64337060
              12.66199896                1.70477238               30.58180184                0.57922170                0.66598837                0.07385173               -1.56292576               -0.07569133                0.47962600                2.63057269
              13.66788604                1.42476593               30.36152266                0.92519524                0.58870853                1.00630304               -2.25599528               -0.07078419                0.04843206               -1.30253973
               3.88975679                5.34408712               31.42426703                1.00000000               -0.26180544               -0.41317786                1.23612087               -0.04762076                0.02280263                1.73300334
               4.88713874                5.07435721               31.19417194                0.52729192               -0.17443417               -0.11460695                0.51201060                0.01786114                0.16070581               -1.40346061
               5.88626811                4.80439855               30.96679413                0.03371725                0.14970663                0.19893619               -0.19196715               -1.34865236               11.51122912               -4.61740106
               6.89013287                4.50539246               30.96373146                0.00010000                0.48124597               -0.27402395               -0.18621569               -2.91878742               23.09318561               -1.62694686
               7.89589303                4.20114073               30.96615995                0.00010000                0.64407636               -0.46775232               -0.33086048               -3.31686743               23.52503396                0.57403144
               8.90301440                3.89367514               30.96932398                0.00010000                0.78173750               -0.65626801               -0.49232590               -3.49599816               23.59966486                2.34740419
               9.91152778                3.58536121               30.97051713                0.00010000                0.95232185               -0.83618474               -0.65822153               -3.46151823               23.43714307                4.17071252
              10.92206084                3.27791177               30.96757528                0.06789553                1.03161010               -1.04745909               -0.81997026               -2.96569296               21.36933976                6.26650174
              11.93215998                2.97768135               30.92449072                0.26734365                0.77562909               -0.81297215               -0.50813249               -1.31136788                9.92073649                5.87498680
              12.93757342                2.70522536               30.68982695                0.59481976                0.51103059                0.04988067               -1.22649651               -0.02712972                0.18556687                2.10251273
              13.94238059                2.43460802               30.45145330                0.93465809                0.48071757                0.91288330               -1.99072471               -0.03792676                0.01090171               -1.39475071
               4.15751978                6.34033048               31.35781050                1.00000000               -0.18512298               -0.33955044                1.00242650               -0.04698843                0.02023248                1.69762853
               5.15566855                6.07364880               31.11213609                0.50930966               -0.08908088               -0.02836938                0.22731378                0.02214364                0.16954995               -1.39438876
               6.15573816                5.80682463               30.86938581                0.02593779                0.26998115                0.28749980               -0.52740408               -1.68614750               14.58503880               -4.44827749
               7.16106817                5.50412001               30.91202077                0.00010000                0.56500746               -0.01161414               -0.44079584               -3.53916199               29.04023718               -1.86210338
               8.16703831                5.19720750               30.95612120                0.00010000                0.65248798               -0.29897884               -0.46195337               -3.88593616               29.20765064                0.35049584
               9.17411793                4.88723732               30.99927536                0.00010000                0.78448801               -0.60689788               -0.51127892               -4.11736205               29.23061696                2.41171135
              10.18272807                4.57634479               31.04056421                0.00010000                0.94504462               -0.91161880               -0.58281848               -4.16061520               29.14383154                4.47154404
              11.19301883                4.26658924               31.07839701                0.07527016                0.91486264               -1.14625853               -0.67585051               -3.53448164               25.63261318                6.57985589
              12.20102532                3.97031434               31.04575403                0.27852403                0.57554357               -0.68833664               -0.09973332               -1.52644268               11.28800909                5.11075182
              13.20452970                3.70576999               30.79364631                0.61128757                0.36684337                0.04302813               -0.88566498               -0.03151549                0.17121158                1.72669941
              14.20836219                3.44302360               30.53817317                0.94488666                0.38324951                0.77010185               -1.72037021               -0.03702409                0.01213395               -1.64311673
               4.42218039                7.33729611               31.29113241                1.00000000               -0.10929229               -0.26852786                0.77254623               -0.04544474                0.02112389                1.67286298
               5.42108747                7.07378983               31.03011288                0.49146448               -0.00532184                0.05471205               -0.05165304                0.02321848                0.19556010               -1.37575755
               6.42207395                6.81014854               30.77249811                0.01828408                0.39396478                0.37531845               -0.85262304               -1.96062025               17.58889915               -4.37072460
               7.42896676                6.50516017               30.85933606                0.00010000                0.64915228                0.21658877               -0.68343038               -4.08620358               34.90270733               -1.92305008
               8.43505700                6.19516115               30.94525006                0.00010000                0.62815526               -0.10162796               -0.59009431               -4.48255916               34.95656575                0.25869565
               9.44152987                5.88153719               31.02985831                0.00010000                0.69532749               -0.50215388               -0.53504381               -4.78419307               35.01203240                2.37669231
              10.44896355                5.56712884               31.11307519                0.00010000                0.79358939               -0.88843297               -0.51678383               -4.89074877               35.00722835                4.58266133
              11.45740165                5.25498660               31.19341898                0.08278570                0.67434150               -1.14586292               -0.54176513               -4.00286989               29.54418393                6.95594180
              12.46245038                4.96391462               31.16306682                0.28982034                0.34160955               -0.61158223                0.30590877               -1.61730269               12.25068598                4.74567285
              13.46423385                4.70608592               30.89453405                0.62785938                0.23412615                0.00979813               -0.54575679               -0.03394582                0.18382268                1.47414999
              14.46713290                4.45001005               30.62245878                0.95516993                0.28990550                0.62894635               -1.44922802               -0.03816595                0.01512332               -1.81108476
               4.68362345                8.33495993               31.22429897                0.99850757               -0.03429633               -0.19995493                0.54368871               -0.04479302                0.02058619                1.64630236
               5.68328049                8.07474304               30.94814606                0.47376280                0.07659803                0.13366199               -0.32013566                0.01959284                0.22454448               -1.34757925
               6.68515541                7.81433100               30.67597975                0.01079019                0.55255035                0.45632764               -1.17018424               -2.17345317               20.54961959               -4.29432016
               7.69433149                7.50845178               30.80628201                0.00010000                0.79273528                0.41681748               -0.91059493               -4.46403410               40.71008385               -1.89767145
               8.70101012                7.19517494               30.93387921                0.00010000                0.60674463                0.07855167               -0.70856559               -4.90749215               40.70587431                0.18397456
               9.70646639                6.87719424               31.06015324                0.00010000                0.52267840               -0.33490610               -0.55298363               -5.24595249               40.87413086                2.19569281
              10.71146368                6.55857613               31.18675759                0.00010000                0.48546288               -0.75684350               -0.44399287               -5.46210044               41.11615544                4.46494224
              11.71617564                6.24367198               31.31325312                0.09045272                0.30581309               -1.06442068               -0.39196239               -4.35299529               33.26116744                7.25491679
              12.71757995                5.95808269               31.27806973                0.30125195                0.07898512               -0.56748384                0.70956053               -1.64233636               12.84230743                4.50935480
              13.71775535                5.70596595               30.99355220                0.64452463                0.10853322               -0.04077968               -0.20685337               -0.03751812                0.19957764                1.32529611
              14.71975061                5.45560252               30.70523627                0.96549597                0.19952643                0.49160138               -1.17759374               -0.03972782                0.01746370               -1.89182038
               4.94171830                9.33329701               31.15723712                0.98508589                0.03899541               -0.13091737                0.32344010               -0.04428970                0.04022246                1.63475230
               5.94210825                9.07646307               30.86638059                0.45618055                0.15889248                0.20799251               -0.58348563                0.01062368                0.26825229               -1.34022091
               6.94489615                8.81927509               30.57999111                0.00350871                0.83669434                0.52524124               -1.48334566               -2.34404550               23.51583890               -4.09471056
               7.95884214                8.51349652               30.75389612                0.00010000                1.16342765                0.44810501               -1.11830007               -4.56601583               46.46821755               -1.65626559
               8.96816470                8.19673218               30.92197796                0.00010000                0.71837442                0.08757740               -0.81084201               -4.72115909               46.33102733                0.11888748
               9.97320963                7.87483906               31.08818182                0.00010000                0.25395462               -0.09098997               -0.55799618               -5.00455634               46.69285261                1.75388820
              10.97324379                7.55199197               31.25836026                0.00010000               -0.11872204               -0.35860946               -0.35463002               -5.50050622               47.48977296                3.79499731
              11.97083519                7.23369818               31.43572979                0.09832371               -0.29670565               -0.77200914               -0.20691805               -4.64078373               36.99600788                6.99607750
              12.96730968                6.95256494               31.39140535                0.31283103               -0.24357682               -0.54263618                1.11074180               -1.68659484               13.22656739                4.19055454
              13.96596365                6.70527033               31.09160407                0.66127479               -0.01222373               -0.10388097                0.13243286               -0.04593561                0.24226005                1.29006101
              14.96706521                6.45984208               30.78742342                0.97583686                0.11015551                0.35874713               -0.90375288               -0.04174973                0.03052267               -1.90703349
               5.19640554               10.33234158               31.09029583                0.97165835                0.11093319               -0.05752081                0.11247643               -0.04226936                0.00261087                1.42193991
               6.19751488               10.07890289               30.78430695                0.43870687                0.24177501                0.27884260               -0.85598294                0.00086884                0.43771350               -1.19661488
               7.20124104                9.82483582               30.48690929                0.00010000                1.40196064                0.57535004               -1.78569336               -2.60174151               26.68262122               -3.04999194
               8.22555409                9.51741388               30.70551997                0.00010000                2.20016751               -0.23715384               -1.29603346               -3.56184079               52.10506001               -0.95527022
               9.24524439                9.19692649               30.90994213                0.00010000                1.27806945               -0.08910559               -0.88908246               -3.23360832               51.57947138                0.05679193
              10.25111548                8.87537444               31.11075619                0.00010000               -0.13249773                0.15523208               -0.54744601               -3.27950599               52.11478441                0.98742520
              11.24259444                8.55140394               31.31992856                0.00010000               -1.41642426                0.38965871               -0.25255787               -4.04579904               53.89720899                2.25315824
              12.22278699                8.22823180               31.55168231                0.10641856               -1.51592674                0.23026485                0.01280502               -3.90804580               41.04627100                4.78005670
              13.21227590                7.94722997               31.50051183                0.32459274               -0.66137485               -0.50706800                1.49780753               -1.85697575               13.93394570                2.95486740
              14.20955949                7.70388833               31.18997474                0.67807675               -0.12518968               -0.17630845                0.47597045               -0.06111710                0.47294311                1.15712832
              15.20977211                7.46277747               30.86950943                0.98615829                0.02126157                0.23368673               -0.62686408               -0.04612865               -0.01692101               -1.60702461
               5.44775028               11.33214659               31.01901394                0.98148510                0.18811010               -0.01949866               -0.11677006                0.12380660                0.68693056                1.20515468
               6.44963139               11.08203992               30.70520751                0.71377059                0.33000207                0.31370249               -1.11771039                0.14342616                1.69034931               -1.03684180
               7.45435033               10.83078209               30.41133987                0.49604752                3.29416367                0.59462724               -2.02937850               -3.35339532               30.21575570               -2.15657833
               8.51551466               10.50875345               30.66761692                0.44574700                4.55908267               -0.86604382               -1.41983770               -2.79554406               57.12628729               -0.59504414
               9.54553198               10.19495007               30.89818261                0.43557506                1.88136977               -0.19764153               -0.93534650               -1.51172843               56.08322288               -0.02984328
              10.55314205                9.87794370               31.12468910                0.45024125               -0.30307650                0.25692664               -0.52150138               -1.55558882               56.69906442                0.49337463
              11.53947045                9.55978514               31.36142991                0.48848624               -2.81469059                0.83812000               -0.15351848               -2.29441013               59.03661828                1.22324259
              12.49684824                9.23830348               31.63041629                0.55592665               -4.24784093                1.00716797                0.20519080               -3.46195274               45.27601204                3.00976031
              13.45451363                8.94242358               31.58936380                0.66615840               -2.38272170               -0.48063847                1.80466408               -2.60419335               16.35404468                1.94430731
              14.44919381                8.70174416               31.28536545                0.84441244               -0.30746307               -0.21441751                0.80982934                0.06804310                1.99585241                1.00994887
              15.44836437                8.46451582               30.95740271                0.99633386               -0.08294394                0.17383497               -0.32337064                0.13639153                0.80252680               -1.30586588
               2.96011701                1.45125528               32.70714115                1.00000000               -0.58763574               -0.64081119                2.18941697               -0.11147014               -1.48461663                1.51435058
               3.95424065                1.15551116               32.52065728                0.96840119               -0.53244300               -0.45879470                1.66254288               -0.07094627               -1.60018293               -0.21637508
               4.94946815                0.85864775               32.33201266                0.65504132               -0.56914617               -0.26703819                1.08734050               -0.27103760               -1.24798614               -1.12318253
               5.94285773                0.55570092               32.15287128                0.51228917               -0.73583972               -0.14672161                0.54608496               -0.40971215                0.64819894               -0.14353936
               6.93475135                0.23931482               32.00338682                0.44938182               -0.65533154                0.01395842               -0.00946542               -0.37577680                3.35237826               -0.13289228
               7.92975110               -0.09199778               31.88033437                0.45003127               -0.09638145                0.17487445               -0.60808769               -0.21976875                4.57388766                0.02443815
               8.93282373               -0.42872850               31.75710838                0.51066515                0.57321254                0.33378239               -1.19366840               -0.25151231                3.24010361                0.16012683
               9.94121535               -0.75927655               31.60781692                0.63626418                0.88018313                0.48592205               -1.73325826               -0.29097191                0.72865222                0.24301750
              10.95042739               -1.08065541               31.43365162                0.84079605                0.89998663                0.61813423               -2.25615411               -0.21094516               -1.22042978                0.53508635
              11.95921508               -1.39599967               31.24444019                1.00000000                0.91181818                0.75976851               -2.81080869               -0.09280968               -1.61064122                0.87574149
              12.96866375               -1.70916087               31.06178031                1.00000000                0.94486710                0.96731426               -3.33402938               -0.13562309               -1.25859381               -1.36844081
               3.25474643                2.44484717               32.63571685                1.00000000               -0.49114778               -0.61739726                1.94805725               -0.03814094                0.11774084                1.87782129
               4.24983495                2.15092321               32.44859517                0.75869758               -0.40417680               -0.41229937                1.40570100               -0.00251939                0.42395932               -0.59284115
               5.24666289                1.85597737               32.26764731                0.18584298               -0.07039384               -0.19478072                0.91768010               -0.29690288                2.19373179               -2.42387641
               6.24842708                1.55423370               32.11586708                0.00010000                0.40900196               -0.12898817                0.45104872               -0.95166075                4.78055410               -2.24814489
               7.25484293                1.23945440               31.98571136                0.00010000                0.65739962               -0.55153068               -0.04112995               -1.61514945                7.42697625                0.55888113
               8.26157507                0.90975097               31.88529199                0.00010000                0.45525268               -0.26718159               -0.57402860               -1.97357676                8.99692096                1.01276530
               9.26394799                0.57460932               31.78532702                0.00010000                0.13470091                0.10360981               -1.08972832               -1.71134935                7.66212515                1.26424074
              10.26426909                0.24558268               31.65829555                0.16417874                0.13657567                0.26340352               -1.55251750               -0.95533353                5.07883916                2.83022245
              11.26667950               -0.07447407               31.50752273                0.47110850                0.41353143                0.46041348               -1.99999188               -0.38508134                3.09622360                2.63999991
              12.27253971               -0.38840199               31.34151660                0.95560988                0.68946113                0.67710069               -2.43260483               -0.07914830                1.36032918                1.40020535
              13.28046872               -0.69948773               31.15598204                1.00000000                0.79290083                0.93062422               -2.92839193               -0.06701570                0.40958395               -1.50012035
               3.54720211                3.43890733               32.57168352                1.00000000               -0.41420449               -0.56300132                1.71520193               -0.05361315                0.22579254                2.11137066
               4.54306006                3.14726517               32.36905246                0.56345400               -0.34912515               -0.30389805                1.09188749               -0.02073448                0.76632635               -1.23654536
               5.54021960                2.85475214               32.17724327                0.05391183               -0.13562881               -0.01541274                0.56839332               -0.45708455                3.86832550               -4.65630373
               6.54034748                2.55312115               32.03673934                0.00010000                0.33557479               -0.51660299                0.28949977               -2.00258246               10.74130350               -1.62930778
               7.54693110                2.22828420               31.98171384                0.00010000                0.73885770               -0.90123142               -0.13560862               -3.19803320               14.26707453                0.81410286
               8.55512464                1.90265859               31.90976694                0.00010000                0.79169664               -0.73321353               -0.53492864               -3.37410441               13.39158657                2.03640044
               9.56276503                1.57334370               31.83535327                0.00010000                0.80337175               -0.37407696               -0.91764005               -3.12672737               13.29628513                2.99651760
              10.57119207                1.24599153               31.76022730                0.05344451                0.69726965               -0.24155487               -1.26067040               -2.08230697               10.21498428                4.78846712
              11.57671042                0.92855286               31.62318669                0.25026767                0.57268513               -0.34322541               -1.52498434               -0.83990495                5.26107270                6.97560427
              12.58264578                0.61754234               31.44864578                0.58188772                0.63922514                0.34900786               -1.97172445               -0.27707884                2.05319408                2.44215564
              13.58949493                0.30945161               31.24693042                0.93104928                0.68491509                0.98778942               -2.59303780               -0.22703217                0.72620533               -1.57472547
               3.83695850                4.43358714               32.50506240                1.00000000               -0.33830377               -0.49379088                1.47233689               -0.04923756                0.03452880                1.88445022
               4.83357546                4.14484525               32.28406173                0.53234603               -0.26466377               -0.19384323                0.79124545                0.00636190                0.27935348               -1.49151673
               5.83166522                3.85566912               32.06794109                0.03897046                0.06339519                0.14034118                0.14251487               -1.04720960                8.55218917               -5.26143196
               6.83484336                3.54390164               32.01247418                0.00010000                0.48398050               -0.68015066                0.05545241               -2.47770915               17.35598426               -0.27455087
               7.84134483                3.22142977               31.97090887                0.00010000                0.70950616               -0.63231429               -0.24190356               -3.18571609               18.48683382                0.55310722
               8.84903349                2.89508670               31.93596330                0.00010000                0.83678374               -0.73577990               -0.52287958               -3.44363857               18.75544331                2.18243728
               9.85808051                2.56712779               31.89753754                0.00010000                0.91901509               -0.71640872               -0.79001261               -3.32864802               18.23766484                3.78087951
              10.86741379                2.24075158               31.84996207                0.05775174                1.01250399               -0.76252379               -1.03921290               -2.85604879               16.94362482                5.19119449
              11.87833059                1.91866142               31.78384260                0.24970830                0.93427985               -0.97670491               -0.95507767               -1.24204161                8.54079219                7.89476469
              12.88609938                1.61857817               31.56607945                0.56421483                0.68894786                0.06420722               -1.59432959               -0.06435798                0.51794504                2.65822668
              13.89210954                1.32026806               31.33874455                0.91397757                0.60101580                1.05131418               -2.31444853               -0.07159866                0.05299329               -1.42958385
               4.12370114                5.42903152               32.43661377                1.00000000               -0.25958147               -0.41854990                1.23244083               -0.04855343                0.02290568                1.76933405
               5.12110532                5.14338831               32.19921787                0.51444456               -0.17410591               -0.10073210                0.49658387                0.02036585                0.17147800               -1.47338057
               6.12021902                4.85755896               31.96474659                0.03116540                0.19636611                0.23298503               -0.21847063               -1.50058938               11.88566383               -4.80028509
               7.12503265                4.53951814               31.96166944                0.00010000                0.59063498               -0.28300440               -0.22732663               -3.23669484               23.75653668               -1.79001750
               8.13203172                4.21563792               31.96264682                0.00010000                0.77606040               -0.50100062               -0.37302322               -3.67248008               24.11525024                0.48819261
               9.14055385                3.88794299               31.96418775                0.00010000                0.92477349               -0.70323685               -0.53599560               -3.87077422               24.18789783                2.31377373
              10.15052719                3.55901552               31.96372985                0.00010000                1.09918041               -0.88623675               -0.70006088               -3.82959764               24.03560550                4.17014864
              11.16253746                3.23074105               31.95922158                0.06485184                1.17579051               -1.09896043               -0.85140971               -3.32739402               22.21633795                6.27927396
              12.17404300                2.90901876               31.91935294                0.26038793                0.86072593               -0.88336404               -0.52376851               -1.49026444               10.49427413                6.05649896
              13.17975198                2.61882649               31.67746482                0.57942105                0.53200903                0.03075394               -1.25020972               -0.02209484                0.21188175                2.13391181
              14.18468318                2.33047789               31.43132292                0.92319648                0.49311998                0.94905383               -2.04005222               -0.03384657                0.01180336               -1.50216990
               4.40727385                6.42521614               32.36780620                1.00000000               -0.18185205               -0.34550065                0.99648161               -0.04712030                0.02088891                1.73670933
               5.40545533                6.14283061               32.11431706                0.49694232               -0.08751258               -0.01289685                0.20747309                0.02455950                0.18115686               -1.45668499
               6.40552360                5.86032882               31.86395584                0.02357367                0.32875904                0.32195462               -0.55943506               -1.86698157               15.02575131               -4.61242547
               7.41203051                5.53824155               31.90737665                0.00010000                0.69733881               -0.00829610               -0.48950853               -3.90694160               29.86088802               -2.00575571
               8.41947038                5.21140976               31.95124229                0.00010000                0.81049424               -0.32612053               -0.51519237               -4.28083163               29.97527729                0.26269146
               9.42824040                4.88102196               31.99388714                0.00010000                0.96100604               -0.65700597               -0.56725197               -4.52382863               29.98586988                2.36890222
              10.43869050                4.54940305               32.03446451                0.00010000                1.13111377               -0.97635092               -0.63711444               -4.55564500               29.89017807                4.45632925
              11.45086267                4.21877237               32.07141172                0.07208319                1.08746819               -1.21470110               -0.71950242               -3.93245841               26.71766172                6.56636034
              12.46043986                3.90099414               32.04470489                0.27131710                0.66678404               -0.74722019               -0.11248442               -1.73570114               12.03332410                5.28593859
              13.46419835                3.61919325               31.78469586                0.59544158                0.38449678                0.02819242               -0.90706413               -0.03033568                0.19872549                1.76456857
              14.46812980                3.33924913               31.52076987                0.93311730                0.39314435                0.80319861               -1.76438138               -0.03458532                0.01341658               -1.74230450
               4.68752980                7.42212150               32.29882712                1.00000000               -0.10459646               -0.27563931                0.76217015               -0.04675314                0.01947490                1.71227322
               5.68648384                7.14313037               32.02948674                0.47956511               -0.00306802                0.07067111               -0.07203560                0.02237338                0.20680189               -1.42615402
               6.68746844                6.86399805               31.76379825                0.01611989                0.46645156                0.40842341               -0.88975698               -2.16829904               18.09618042               -4.52468951
               7.69581287                6.53935222               31.85223302                0.00010000                0.80831177                0.22515965               -0.73898848               -4.49854260               35.87524242               -2.05188416
               8.70363468                6.20911551               31.93903562                0.00010000                0.81355597               -0.12602665               -0.65428645               -4.91635305               35.89113486                0.17765698
               9.71208399                5.87480287               32.02415918                0.00010000                0.90146003               -0.55516583               -0.60544066               -5.22239402               35.92521163                2.33391860
              10.72166388                5.53948850               32.10753973                0.00010000                1.01066068               -0.95972545               -0.58956294               -5.31215312               35.89506168                4.56503439
              11.73229720                5.20644703               32.18764464                0.07945249                0.86221087               -1.21853655               -0.60966042               -4.41820609               30.87081664                6.94476727
              12.73890810                4.89407435               32.16607892                0.28234714                0.42965348               -0.65643393                0.29485135               -1.83973946               13.17437301                4.92000477
              13.74089027                4.61939033               31.88898548                0.61155604                0.24858037                0.00054253               -0.56579946               -0.03547631                0.21291879                1.51362141
              14.74387970                4.34654187               31.60777658                0.94309655                0.29894311                0.65693388               -1.49040916               -0.03633689                0.01673958               -1.90713652
               4.96432106                8.41970336               32.22967775                0.98771740               -0.02948119               -0.20679171                0.53702274               -0.04526131                0.03043128                1.69359150
               5.96402625                8.14424403               31.94485502                0.46230051                0.08073553                0.14777427               -0.34170348                0.01451050                0.23653605               -1.39264965
               6.96593577                7.86849729               31.66406874                0.00881856                0.64579803                0.48585854               -1.21490977               -2.40349854               21.12529066               -4.44398826
               7.97694221                7.54274474               31.79687319                0.00010000                0.98784442                0.42498054               -0.97350905               -4.90826415               41.83605409               -2.01051670
               8.98569266                7.20888923               31.92642455                0.00010000                0.82386550                0.04957589               -0.78401341               -5.36414732               41.80162453                0.11416014
               9.99341952                6.86991864               32.05419381                0.00010000                0.75553110               -0.39090864               -0.63947098               -5.69300611               41.94193313                2.16035042
              11.00080328                6.53020854               32.18182984                0.00010000                0.72465908               -0.82604089               -0.54040658               -5.88815682               42.14771233                4.45691633
              12.00791270                6.19440164               32.30880032                0.08697367                0.49492420               -1.13373161               -0.49478636               -4.76241881               34.82606312                7.26717389
              13.01070176                5.88786546               32.28512885                0.29351700                0.15543076               -0.59850381                0.70098999               -1.86431961               13.93746679                4.68238969
              14.01102131                5.61920410               31.99139941                0.62777550                0.11991155               -0.04535716               -0.22521274               -0.04027622                0.23009776                1.36639903
              15.01309999                5.35238781               31.69327817                0.95312364                0.20786805                0.51443638               -1.21682799               -0.03854520                0.01942394               -1.98411574
               5.23754323                9.41798567               32.16046676                0.97461702                0.04368882               -0.13332386                0.32638149               -0.04328082                0.04881242                1.69589708
               6.23798012                9.14608585               31.86040878                0.44516911                0.16772622                0.21856531               -0.61526877                0.00622338                0.28137200               -1.39360876
               7.24089776                8.87371523               31.56490859                0.00172653                0.96377624                0.55088213               -1.53657466               -2.59300973               24.17190815               -4.23838596
               8.25725565                8.54785183               31.74237322                0.00010000                1.41400384                0.43841592               -1.18910253               -5.02347272               47.75439571               -1.74718664
               9.26917783                8.21010702               31.91344930                0.00010000                0.98244536                0.03413309               -0.89672874               -5.14996842               47.58502234                0.06585547
              10.27690455                7.86698470               32.08209507                0.00010000                0.51199569               -0.15252928               -0.66001216               -5.40104384               47.91526769                1.72991540
              11.27941775                7.52296769               32.25420098                0.00010000                0.12436770               -0.41110446               -0.47635479               -5.87653051               48.67496783                3.80012867
              12.27939191                7.18377240               32.43291481                0.09468517               -0.12992523               -0.82034531               -0.35277685               -5.01702558               38.79212267                7.04135092
              13.27681924                6.88210428               32.40249159                0.30482227               -0.19147541               -0.56064648                1.10553503               -1.90070708               14.47686203                4.35577132
              14.27556240                6.61848319               32.09285511                0.64405342               -0.00389332               -0.10494673                0.11646076               -0.04970736                0.27532302                1.33504277
              15.27674138                6.35683059               31.77821180                0.96316483                0.11789778                0.37667659               -0.94116853               -0.04106734                0.03330638               -1.99454005
               5.50725507               10.41703688               32.09142710                0.96152339                0.11660844               -0.05726986                0.11305850               -0.04301541               -0.00025370                1.47605933
               6.50842116               10.14861534               31.77555645                0.42815636                0.25272632                0.28922298               -0.89311671               -0.00154277                0.45906214               -1.24709324
               7.51230960                9.87951493               31.46876066                0.00010000                1.58298980                0.59645818               -1.84861811               -2.87977653               27.44052533               -3.15846576
               8.54008095                9.55151306               31.69218919                0.00010000                2.56254081               -0.33439094               -1.37306509               -3.92715411               53.55943446               -1.00759341
               9.56356042                9.20957189               31.90059594                0.00010000                1.62285121               -0.17807839               -0.98222760               -3.52734162               52.98647021                0.02670093
              10.57253798                8.86686806               32.10472028                0.00010000                0.14622793                0.08941722               -0.66058857               -3.52040278               53.48717411                0.97528534
              11.56648498                8.52198645               32.31669297                0.00010000               -1.20511915                0.35441243               -0.39421458               -4.28115822               55.24670710                2.26274876
              12.54843560                8.17799473               32.55086490                0.10263522               -1.42540745                0.25815759               -0.17500969               -4.16205341               43.06398342                4.83181829
              13.53797683                7.87665253               32.51548893                0.31633084               -0.65673718               -0.51166183                1.49691727               -2.06471167               15.32283984                3.07302961
              14.53530085                7.61710516               32.19467752                0.66040952               -0.11964912               -0.17507472                0.46339962               -0.06647562                0.51607780                1.20070727
              15.53558384                7.35992134               31.86307764                0.97317541                0.02829920                0.24721664               -0.66201482               -0.04605373               -0.01571112               -1.67746899
               5.77352601               11.41684027               32.01782705                0.97651951                0.19452049               -0.01966076               -0.11894195                0.13009803                0.70925257                1.24768504
               6.77547122               11.15187031               31.69384384                0.70862548                0.34392432                0.32549774               -1.15723361                0.14521182                1.75933479               -1.07811688
               7.78040450               10.88564439               31.39073235                0.49531928                3.65921926                0.61294612               -2.09530598               -3.72582526               31.09616245               -2.23354021
               8.84865560               10.54116401               31.65304429                0.44598277                5.14357543               -1.03490541               -1.49798628               -3.09748172               58.74256339               -0.62924359
               9.88327601               10.20654546               31.88836882                0.43573497                2.27131655               -0.30264321               -1.02961938               -1.64798902               57.62684711               -0.05111528
              10.89408193                9.86877305               32.11890065                0.45003520               -0.03040495                0.19049878               -0.63717853               -1.67008049               58.20429992                0.48242546
              11.88266791                9.53005593               32.35915538                0.48766051               -2.62985873                0.80694825               -0.30124918               -2.37358148               60.52922928                1.22554572
              12.84148476                9.18893555               32.63144831                0.55399287               -4.31266658                1.09408151                0.00118082               -3.60432821               47.47310358                3.04585358
              13.79641458                8.87187104               32.60742680                0.66194659               -2.52603420               -0.47814903                1.80722147               -2.85391735               17.88477653                2.02315419
              14.79096408                8.61498170               32.29342786                0.83544454               -0.31133156               -0.21234679                0.80156441                0.06151666                2.10207496                1.04959800
              15.79018795                8.36177493               31.95402408                0.98974884               -0.07761295                0.18535833               -0.35481817                0.13973321                0.83773258               -1.36105679
               3.13423877                1.53922687               33.72913406                1.00000000               -0.59516227               -0.64726913                2.20992095               -0.11235063               -1.51368541                1.55366174
               4.12828715                1.22650039               33.53736337                0.95850492               -0.54374003               -0.46121743                1.67880222               -0.07156351               -1.65427279               -0.25687002
               5.12336397                0.91255899               33.34293379                0.65125646               -0.60780167               -0.26561307                1.09635627               -0.29881084               -1.31016393               -1.13652952
               6.11613111                0.59172340               33.15835235                0.51133510               -0.81730258               -0.14506433                0.54974319               -0.45068249                0.59497765               -0.14808274
               7.10701792                0.25579437               33.00327231                0.44933996               -0.75214733                0.02217994               -0.01342537               -0.41278334                3.27079985               -0.13747586
               8.10108817               -0.09688443               32.87419740                0.44982423               -0.15568105                0.18791099               -0.61945416               -0.23930939                4.47668709                0.02451770
               9.10390430               -0.45584488               32.74507565                0.50933713                0.57665228                0.34821570               -1.21359141               -0.27132765                3.16684228                0.16523776
              10.11262121               -0.80819004               32.59033952                0.63266008                0.91914578                0.50093596               -1.76450171               -0.31793461                0.68016101                0.25187993
              11.12228721               -1.15043493               32.41086622                0.83308777                0.93954830                0.63447705               -2.30430793               -0.23498704               -1.28077885                0.54062398
              12.13141218               -1.48598048               32.21601923                1.00000000                0.94172081                0.78268801               -2.87842954               -0.10374791               -1.67262790                0.91328163
              13.14112163               -1.81915458               32.02803220                1.00000000                0.97094497                0.99993353               -3.42177240               -0.13836026               -1.30276653               -1.39009763
               3.44584174                2.53275418               33.65526362                1.00000000               -0.49362881               -0.62427548                1.96191363               -0.03878565                0.13560116                1.92048084
               4.44090545                2.22188822               33.46269167                0.74115685               -0.40386909               -0.41203177                1.41354342               -0.00457509                0.47038299               -0.66250774
               5.43776436                1.90990286               33.27686674                0.18020086               -0.04494263               -0.18634448                0.92580295               -0.34096518                2.27837216               -2.52990361
               6.44000660                1.59027275               33.12038707                0.00010000                0.47148186               -0.13833131                0.45267692               -1.06840808                4.86202659               -2.28408393
               7.44719400                1.25601617               32.98527142                0.00010000                0.72540482               -0.58960277               -0.04691900               -1.80417345                7.47273656                0.52099469
               8.45451470                0.90499468               32.87947416                0.00010000                0.48249164               -0.27832175               -0.58964309               -2.20600128                9.02808966                1.01478939
               9.45684383                0.54763728               32.77429110                0.00010000                0.11110969                0.12911365               -1.11752263               -1.92252845                7.72989922                1.30550197
              10.45673689                0.19681932               32.64256775                0.15902807                0.09943666                0.26939523               -1.59415898               -1.08938139                5.18350227                2.89871939
              11.45883256               -0.14409016               32.48724159                0.45959232                0.39988182                0.46740278               -2.05888211               -0.44526779                3.21616890                2.76178392
              12.46473453               -0.47815360               32.31674199                0.93177651                0.70397802                0.70045372               -2.51964312               -0.09388643                1.45848196                1.48587398
              13.47291212               -0.80915524               32.12616235                1.00000000                0.81775957                0.96897600               -3.03288575               -0.06933559                0.47901789               -1.55322184
               3.75519498                3.52674136               33.58886591                1.00000000               -0.41480110               -0.57006914                1.72179521               -0.05503240                0.22313491                2.15226751
               4.75104697                3.21825976               33.37995574                0.54892087               -0.35174231               -0.29715122                1.08856029               -0.02417906                0.81540855               -1.32735864
               5.74816013                2.90883210               33.18290195                0.05054523               -0.11986607                0.01055423                0.56292328               -0.53447794                4.09418664               -4.89181780
               6.74864965                2.58895677               33.03966636                0.00010000                0.40261942               -0.55466902                0.29558155               -2.22491923               11.01519337               -1.74781949
               7.75621252                2.24400231               32.98027412                0.00010000                0.83486930               -0.96622312               -0.15315708               -3.53478623               14.47725732                0.74324027
               8.76534703                1.89754914               32.90429324                0.00010000                0.87082880               -0.77020405               -0.56098760               -3.75205163               13.62907222                2.03039896
               9.77362910                1.54673739               32.82601965                0.00010000                0.86069940               -0.36638899               -0.95067511               -3.51227630               13.56583624                3.05208595
              10.78256102                1.19719786               32.74742368                0.05047768                0.73628405               -0.22256410               -1.30639007               -2.36704463               10.55099399                4.88498417
              11.78835478                0.85891313               32.60769735                0.24314375                0.60192605               -0.38035150               -1.58062297               -0.93685434                5.55341439                7.26147984
              12.79459954                0.52802859               32.42845386                0.56558907                0.66917115                0.36357362               -2.06325707               -0.29834054                2.16722853                2.54499538
              13.80173820                0.20022494               32.22038853                0.91879721                0.71386598                1.04684987               -2.70809908               -0.24518613                0.75377350               -1.67463109
               4.06170430                4.52135280               33.51978684                1.00000000               -0.33731658               -0.50056843                1.47219666               -0.05017394                0.03358555                1.92082007
               5.05833113                4.21594519               33.29192272                0.51892753               -0.26632558               -0.18127451                0.78047553                0.00748284                0.29510230               -1.57026465
               6.05637779                3.91011394               33.06926848                0.03614438                0.10034355                0.17729944                0.12223658               -1.16980658                8.86410546               -5.49727942
               7.06033800                3.57917937               33.01287419                0.00010000                0.57640586               -0.71335686                0.02349050               -2.73542541               17.85085649               -0.44697933
               8.06790591                3.23669170               32.96834371                0.00010000                0.82002893               -0.67155729               -0.27241535               -3.50607872               18.89081958                0.46671740
               9.07673858                2.88959060               32.93056292                0.00010000                0.95218382               -0.77611816               -0.55879377               -3.80199550               19.18032325                2.15426629
              10.08694958                2.54030950               32.88945594                0.00010000                1.02408399               -0.74500899               -0.82845536               -3.68228010               18.68742697                3.79849641
              11.09722026                2.19236803               32.83940646                0.05477421                1.11575826               -0.75751318               -1.07481483               -3.19016023               17.57769037                5.23856986
              12.10926475                1.84830281               32.77412863                0.24288602                1.01178218               -1.04820477               -0.99464551               -1.39013598                8.99085232                8.15648627
              13.11745591                1.52911787               32.54991525                0.54915558                0.71754780                0.06292942               -1.64701776               -0.06397651                0.56665454                2.70767208
              14.12361570                1.21178175               32.31523369                0.90277993                0.61597962                1.11571788               -2.39299654               -0.07549886                0.05818218               -1.53692688
               4.36500670                5.51672999               33.44891584                1.00000000               -0.25712253               -0.42507387                1.22783144               -0.04899560                0.02348639                1.80896087
               5.36243548                5.21463427               33.20410362                0.50149948               -0.17384404               -0.08494811                0.47921641                0.02295042                0.18326263               -1.54386675
               6.36152982                4.91237809               32.96242472                0.02854514                0.24639499                0.27052568               -0.24669459               -1.65644091               12.25918119               -4.98764001
               7.36736338                4.57468963               32.95918493                0.00010000                0.70749477               -0.28690324               -0.27095011               -3.55727171               24.42536603               -1.96300395
               8.37567972                4.23057117               32.95869949                0.00010000                0.91629755               -0.53095868               -0.41806188               -4.02676974               24.71904991                0.38782070
               9.38568933                3.88202678               32.95860407                0.00010000                1.07631729               -0.74733347               -0.58237972               -4.24297134               24.79270292                2.26620448
              10.39720606                3.53183721               32.95651591                0.00010000                1.25375856               -0.93240039               -0.74427034               -4.19608555               24.65845609                4.15728524
              11.41076450                3.18204760               32.95054708                0.06173183                1.32980802               -1.14373235               -0.88523746               -3.69883841               23.09618427                6.28212302
              12.42380222                2.83794903               32.91401535                0.25332431                0.95382866               -0.94978420               -0.55008900               -1.68087481               11.09624714                6.23798296
              13.42984107                2.52928718               32.66482276                0.56397447                0.55491165                0.02114183               -1.28449071               -0.02132052                0.24972664                2.16378929
              14.43490046                2.22253930               32.41065225                0.91176095                0.50593840                0.99710500               -2.09924263               -0.03144779                0.01386481               -1.60660086
               4.66491584                6.51285132               33.37774013                1.00000000               -0.17737905               -0.35299828                0.98590673               -0.04831127                0.01942864                1.77689367
               5.66314205                6.21424623               33.11628555                0.48448381               -0.08611163                0.00472594                0.18697758                0.02450169                0.19218696               -1.51536016
               6.66319360                5.91552446               32.85819711                0.02115534                0.39287236                0.35818859               -0.59386555               -2.05417323               15.46547510               -4.78233782
               7.67099949                5.57344131               32.90223060                0.00010000                0.84198825               -0.00318435               -0.54144425               -4.27905274               30.68692599               -2.15855372
               8.68003337                5.22607253               32.94581735                0.00010000                0.98068077               -0.35195712               -0.57153572               -4.67617778               30.75712840                0.16113898
               9.69061311                4.87464393               32.98793032                0.00010000                1.14868398               -0.70589447               -0.62547659               -4.92851905               30.75972894                2.30966852
              10.70300705                4.52166149               33.02782192                0.00010000                1.32592829               -1.03865091               -0.69199828               -4.94886441               30.66341524                4.42216477
              11.71713167                4.16949339               33.06400696                0.06881510                1.27003103               -1.27771242               -0.76123279               -4.34200303               27.84342394                6.52973367
              12.72840767                3.82930713               33.04350434                0.26400131                0.76537792               -0.80291396               -0.13228553               -1.95789512               12.81154792                5.45652488
              13.73243923                3.52954071               32.77550503                0.57955777                0.40374208                0.01838137               -0.93491362               -0.03148924                0.23450523                1.79638381
              14.73648251                3.23172385               32.50288555                0.92138117                0.40432778                0.84098638               -1.81607663               -0.03243332                0.01502396               -1.84387603
               4.96125065                7.50967003               33.30637581                0.98960020               -0.09982769               -0.28295999                0.75426234               -0.04603945                0.02897630                1.76106073
               5.96025237                7.21472879               33.02867217                0.46753788                0.00003156                0.08608906               -0.09262125                0.01750042                0.21934152               -1.47667708
               6.96125128                6.91954186               32.75470297                0.01390280                0.54909379                0.44082193               -0.93178626               -2.38266944               18.60228518               -4.68843601
               7.97123425                6.57462595               32.84455629                0.00010000                0.98511282                0.23299704               -0.79848513               -4.91562850               36.85472698               -2.19113523
               8.98095354                6.22353202               32.93216433                0.00010000                1.01478693               -0.15140382               -0.72172005               -5.35142200               36.83966685                0.08213704
               9.99152999                5.86790889               33.01774950                0.00010000                1.12128917               -0.60892899               -0.67745237               -5.65905857               36.85629758                2.27249755
              11.00337932                5.51106420               33.10128393                0.00010000                1.23744057               -1.03041410               -0.66110449               -5.73055808               36.80731965                4.52259091
              12.01627880                5.15649335               33.18122577                0.07603480                1.06088409               -1.28740462               -0.67171726               -4.84536133               32.24813364                6.89857278
              13.02459700                4.82189076               33.16896385                0.27477435                0.52578832               -0.69946562                0.27878269               -2.07580090               14.14170680                5.09041023
              14.02679456                4.52965481               32.88321806                0.59522925                0.26442467               -0.00582010               -0.59040715               -0.03814868                0.24907607                1.54802132
              15.02988550                4.23935903               32.59265060                0.93107346                0.30909310                0.68805640               -1.53796431               -0.03462529                0.01865483               -2.00662277
               5.25387753                8.50719212               33.23503942                0.97681593               -0.02573068               -0.21022137                0.54246470               -0.04441734                0.04122946                1.76065792
               6.25362022                8.21596801               32.94131199                0.45075149                0.08827636                0.15803392               -0.37006229                0.00951327                0.24948161               -1.44782729
               7.25564305                7.92434090               32.65168155                0.00679814                0.75382695                0.51367927               -1.26550545               -2.63740895               21.70509686               -4.60644156
               8.26869676                7.57810125               32.78681183                0.00010000                1.20394675                0.43054220               -1.04119900               -5.35706743               42.97178899               -2.13532454
               9.27972199                7.22304445               32.91819894                0.00010000                1.06015026                0.01729417               -0.86283447               -5.82230683               42.91082846                0.02965453
              10.28989976                6.86246535               33.04736382                0.00010000                1.00447170               -0.44989950               -0.72712523               -6.13789619               43.02452180                2.10559861
              11.29981142                6.50105321               33.17594945                0.00010000                0.97490617               -0.89663958               -0.63417662               -6.30879820               43.19628739                4.42050394
              12.30939789                6.14374530               33.30335739                0.08340596                0.69593851               -1.20163673               -0.59010086               -5.18135787               36.45494582                7.23521710
              13.31373019                5.81531782               33.29208953                0.28569169                0.24050502               -0.62852342                0.68842294               -2.10056863               15.09424109                4.85362070
              14.31420799                5.52942430               32.98904794                0.61099518                0.13256871               -0.04808676               -0.24724333               -0.04387546                0.26698892                1.40395653
              15.31638157                5.24548498               32.68089971                0.94079508                0.21735790                0.53963894               -1.26179461               -0.03730996                0.02173472               -2.08036875
               5.54281051                9.50546560               33.16376475                0.96405439                0.04833483               -0.13448196                0.33152094               -0.04440108                0.04859976                1.76514952
               6.54329386                9.21788947               32.85407521                0.43405108                0.17796764                0.22789743               -0.64958451                0.00460897                0.29680162               -1.45281568
               7.54636987                8.92981545               32.54925961                0.00010000                1.10477398                0.57509249               -1.59730483               -2.84384606               24.83968709               -4.39686725
               8.56538934                8.58323679               32.73011407                0.00010000                1.68867152                0.42448469               -1.26522948               -5.48633963               49.05423657               -1.84985606
               9.58014330                8.22387791               32.90404339                0.00010000                1.26869839               -0.02517303               -0.98619222               -5.58025900               48.85233874               -0.00003948
              10.59076331                7.85891090               33.07498158                0.00010000                0.78900592               -0.21953904               -0.76309315               -5.79421707               49.14752699                1.68894997
              11.59592341                7.49313140               33.24883317                0.00010000                0.38118611               -0.46743476               -0.59539548               -6.24388715               49.86504751                3.77862836
              12.59838703                7.13246062               33.42867426                0.09096749                0.04916029               -0.87053170               -0.49096299               -5.39691556               40.66736658                7.03871281
              13.59690662                6.80932029               33.41351605                0.29672204               -0.13185693               -0.57812361                1.09734124               -2.12888246               15.81245619                4.52140562
              14.59574989                6.52869307               33.09393328                0.62682753                0.00556608               -0.10472854                0.09732212               -0.05420636                0.31448311                1.37809057
              15.59701794                6.25015180               32.76860005                0.95054685                0.12680498                0.39654166               -0.98402395               -0.04032320                0.03652226               -2.08582308
               5.82814177               10.50450248               33.09255700                0.95129091                0.12207794               -0.05825997                0.11457755               -0.04309015               -0.00093170                1.53135506
               6.82936255               10.22052596               32.76644462                0.41749351                0.26385167                0.30066625               -0.93075413               -0.00204104                0.48475808               -1.29923338
               7.83341881                9.93584275               32.44993693                0.00010000                1.77724760                0.61762335               -1.91862499               -3.16158808               28.21388186               -3.27800936
               8.86490751                9.58659094               32.67805867                0.00010000                2.95119484               -0.43892127               -1.45583277               -4.29808137               55.03356212               -1.06820024
               9.89244270                9.22254099               32.89029757                0.00010000                1.99272104               -0.27479498               -1.07923296               -3.82235481               54.40706840               -0.01114294
              10.90476193                8.85807457               33.09754442                0.00010000                0.44706286                0.01602972               -0.77501560               -3.75791493               54.86476017                0.95297306
              11.90138396                8.49170451               33.31204427                0.00010000               -0.97456158                0.31199160               -0.53407295               -4.50779798               56.58586242                2.25530573
              12.88527069                8.12633466               33.54818211                0.09877308               -1.32319369                0.27965580               -0.35798597               -4.41486525               45.17477041                4.84904192
              13.87492009                7.80375535               33.53045018                0.30796454               -0.64891753               -0.51546746                1.49354214               -2.28409641               16.82197590                3.19245375
              14.87229234                7.52732973               33.19924273                0.64271887               -0.11312244               -0.17288148                0.44796383               -0.07256964                0.56533177                1.24382520
              15.87265764                7.25341581               32.85626913                0.96024000                0.03652947                0.26250035               -0.70255314               -0.04595997               -0.01403366               -1.75067431
               6.10990174               11.50430040               33.01663510                0.97150385                0.20110301               -0.02020799               -0.11918047                0.13623608                0.73231465                1.29464743
               7.11191277               11.22390279               32.68206284                0.70343192                0.35856893                0.33768276               -1.19983380                0.14839778                1.83614241               -1.12401617
               8.11707312               10.94216791               32.36943375                0.49455145                4.04083452                0.63251675               -2.16762983               -4.10678964               31.99933061               -2.31706078
               9.19272947               10.57445837               32.63765719                0.44620182                5.75697237               -1.21325777               -1.58235686               -3.40709928               60.38078552               -0.66767932
              10.23221257               10.21838201               32.87759022                0.43589145                2.68560126               -0.41589860               -1.12821415               -1.78435711               59.18449167               -0.07610319
              11.24644149                9.85923149               33.11194553                0.44980427                0.26473981                0.11569178               -0.75451968               -1.78258213               59.71313258                0.46621026
              12.23750737                9.49937124               33.35540493                0.48680950               -2.42012986                0.76667232               -0.44778152               -2.44654742               62.00473690                1.21833575
              13.19803889                9.13805373               33.63043990                0.55201145               -4.36388734                1.17190702               -0.20042088               -3.74119507               49.76756459                3.05887661
              14.15022962                8.79901094               33.62550823                0.65769009               -2.67004311               -0.47444083                1.80735561               -3.10996118               19.53838718                2.10338748
              15.14463803                8.52523544               33.30139674                0.82645718               -0.31515199               -0.20942908                0.79059021                0.05411240                2.21603823                1.08962201
              16.14392658                8.25540181               32.95030635                0.98319627               -0.07114508                0.19859970               -0.39169390                0.14353106                0.87429761               -1.41807640
               3.31338469                1.63006941               34.75133956                1.00000000               -0.60292248               -0.65444724                2.23193881               -0.11345881               -1.54189969                1.59306880
               4.30735547                1.29971716               34.55423332                0.94845740               -0.55543996               -0.46364782                1.69561335               -0.07250497               -1.70924048               -0.30111018
               5.30227589                0.96805127               34.35393979                0.64739168               -0.64683527               -0.26401232                1.10472304               -0.32646209               -1.37356286               -1.14796827
               6.29441876                0.62866982               34.16386615                0.51031623               -0.89767941               -0.14318098                0.55223502               -0.48979105                0.54181051               -0.15303516
               7.28432230                0.27256710               34.00311831                0.44928845               -0.84686312                0.03053859               -0.01874317               -0.44771282                3.19122341               -0.14177017
               8.27748150               -0.10206096               33.86794529                0.44958675               -0.21519268                0.20118749               -0.63312792               -0.25751890                4.38546373                0.02511111
               9.28001845               -0.48385463               33.73283655                0.50802476                0.57732500                0.36299995               -1.23731037               -0.28832906                3.10148369                0.17125332
              10.28902800               -0.85869541               33.57252688                0.62900041                0.95568256                0.51683076               -1.80187900               -0.34088649                0.63727553                0.26162234
              11.29913210               -1.22259366               33.38756546                0.82528933                0.97842744                0.65241395               -2.35957813               -0.25455367               -1.33859905                0.54529936
              12.30859655               -1.57917956               33.18687160                1.00000000                0.97251863                0.80604208               -2.95355038               -0.11226857               -1.73256619                0.94561181
              13.31858247               -1.93322312               32.99334487                1.00000000                0.99859265                1.03146174               -3.51707144               -0.14176698               -1.34635081               -1.41138106
               3.64260235                2.62352494               34.67495512                1.00000000               -0.49628645               -0.63199724                1.97706930               -0.03940294                0.15446984                1.96304026
               4.63763949                2.29508068               34.47686604                0.72346265               -0.40337066               -0.41151087                1.42140990               -0.00685323                0.52106297               -0.73728734
               5.63453494                1.96541114               34.28616337                0.17446030               -0.01882765               -0.17686110                0.93336437               -0.38629176                2.36725417               -2.64063345
               6.63726293                1.62723801               34.12492061                0.00010000                0.53378141               -0.14960910                0.45356003               -1.18391214                4.94404213               -2.31737502
               7.64521057                1.27287248               33.98477298                0.00010000                0.79271206               -0.62451914               -0.05327842               -1.98800190                7.51866000                0.47749636
               8.65311718                0.89995092               33.87349913                0.00010000                0.51209093               -0.28806114               -0.60597958               -2.43090320                9.06017791                1.01270271
               9.65545239                0.51977536               33.76297656                0.00010000                0.09357347                0.15376041               -1.14608277               -2.12725812                7.80085856                1.34720190
              10.65498865                0.14647290               33.62641237                0.15381043                0.06881270                0.27739547               -1.63747738               -1.21693122                5.29315119                2.96782180
              11.65682864               -0.21606952               33.46634509                0.44795440                0.38999741                0.47445357               -2.12070029               -0.49878015                3.33779920                2.88615163
              12.66278859               -0.57111914               33.29112374                0.90789562                0.71898612                0.72242736               -2.60274954               -0.10681856                1.55740827                1.56921635
              13.67120836               -0.92290850               33.09532433                1.00000000                0.84197690                1.00553839               -3.13246790               -0.07300747                0.55240581               -1.60715308
               3.96948514                3.61742946               34.60611943                1.00000000               -0.41529475               -0.57856613                1.72895844               -0.05644786                0.21949267                2.19249934
               4.96533219                3.29148694               34.39082367                0.53435384               -0.35462090               -0.28943003                1.08488881               -0.02795220                0.86754966               -1.42264809
               5.96239272                2.96451404               34.18850174                0.04713216               -0.10265086                0.03948083                0.55644772               -0.61741867                4.33428115               -5.13916840
               6.96327918                2.62567764               34.04265097                0.00010000                0.47283201               -0.58972652                0.30116214               -2.44574991               11.29271791               -1.88289533
               7.97184936                2.26007671               33.97865069                0.00010000                0.93406880               -1.02668624               -0.17279747               -3.86189487               14.68230017                0.65958182
               8.98196055                1.89217782               33.89854718                0.00010000                0.95509716               -0.80448625               -0.58980111               -4.12228005               13.87252073                2.01411508
               9.99095131                1.51922057               33.81633977                0.00010000                0.92868518               -0.35869561               -0.98782611               -3.88961024               13.84173137                3.10312391
              11.00053426                1.14685250               33.73409950                0.04743158                0.78986141               -0.20366604               -1.36124362               -2.65094466               10.89792684                4.99182809
              12.00674854                0.78689541               33.59157423                0.23592463                0.63824523               -0.42286671               -1.64392461               -1.03866563                5.84943551                7.56073437
              13.01329916                0.43526898               33.40738064                0.54930251                0.69762559                0.37409273               -2.14769756               -0.32344736                2.27587266                2.66384114
              14.02070105                0.08688765               33.19276844                0.90660300                0.74018860                1.10871523               -2.81170422               -0.26673617                0.78028725               -1.75937854
               4.29335844                4.61195361               34.53450633                1.00000000               -0.33625754               -0.50860112                1.47186096               -0.05064481                0.03312220                1.95848964
               5.28999586                4.28929208               34.29967124                0.50543324               -0.26812861               -0.16694004                0.76807020                0.00883261                0.31233857               -1.65109891
               6.28799587                3.96620076               34.07038582                0.03326956                0.13947015                0.21817440                0.10072924               -1.29599913                9.17636975               -5.74191640
               7.29278527                3.61544348               34.01294399                0.00010000                0.67383138               -0.73879983               -0.01074308               -2.99379892               18.35232038               -0.64459970
               8.30147249                3.25233876               33.96546057                0.00010000                0.93712252               -0.70780130               -0.30596994               -3.82190407               19.30626692                0.36492761
               9.31152772                2.88386119               33.92478742                0.00010000                1.07565037               -0.81390713               -0.59847903               -4.15531881               19.61656641                2.11404236
              10.32298550                2.51260145               33.88096843                0.00010000                1.13835977               -0.77126639               -0.87158585               -4.03298138               19.15483695                3.80922337
              11.33429491                2.14239957               33.82846578                0.05172857                1.23266694               -0.75347424               -1.11597665               -3.53504240               18.23003652                5.29399811
              12.34763884                1.77547315               33.76394969                0.23595684                1.10162507               -1.12463545               -1.04627506               -1.55465647                9.45335817                8.43238233
              13.35632741                1.43636271               33.53313909                0.53405636                0.74987371                0.06217534               -1.71050408               -0.06984494                0.61921861                2.78016741
              14.36263631                1.09926580               33.29088462                0.89161349                0.63089013                1.19031855               -2.47714801               -0.07966909                0.06168391               -1.62461269
               4.61379531                5.60725744               34.46117040                1.00000000               -0.25336113               -0.43297816                1.21861881               -0.05027276                0.02235854                1.84846753
               5.61126170                5.28814814               34.20880220                0.48847644               -0.17369865               -0.06686130                0.46049555                0.02331597                0.19500558               -1.61257742
               6.61032134                4.96887753               33.95981270                0.02588068                0.30017495                0.31015271               -0.27670019               -1.81771554               12.63198439               -5.18138521
               7.61726520                4.61090164               33.95625044                0.00010000                0.83361186               -0.28721832               -0.31761729               -3.87966580               25.10034421               -2.14745947
               8.62699358                4.24592069               33.95428558                0.00010000                1.06631419               -0.55855339               -0.46679857               -4.37806204               25.33778392                0.27198899
               9.63859148                3.87589967               33.95254016                0.00010000                1.23798597               -0.78956469               -0.63261511               -4.61113793               25.41557699                2.20474935
              10.65175330                3.50379525               33.94884444                0.00010000                1.41851152               -0.97615593               -0.79223252               -4.56099977               25.30661008                4.13376783
              11.66696171                3.13178301               33.94151683                0.05852771                1.49694864               -1.18556089               -0.92299944               -4.08193580               24.00395780                6.27898529
              12.68169227                2.76440271               33.90835116                0.24615215                1.05739478               -1.01485041               -0.58929510               -1.88683083               11.71932882                6.42570403
              13.68810961                2.43651249               33.65177501                0.54850525                0.58046106                0.01814548               -1.32988020               -0.02644257                0.29627515                2.20187187
              14.69330149                2.11069402               33.38933807                0.90034644                0.51918799                1.05537322               -2.16656517               -0.03020073                0.01653582               -1.70420435
               4.93057158                6.60329405               34.38752434                0.99075691               -0.17294917               -0.36070053                0.97811669               -0.04785464                0.02802837                1.82607339
               5.92884209                6.28795485               34.11805662                0.47190791               -0.08417657                0.02111258                0.16756218                0.01957889                0.20525897               -1.57335179
               6.92888805                5.97240381               33.85207853                0.01868324                0.46533508                0.39336800               -0.63181073               -2.24735222               15.90468146               -4.96215126
               7.93814879                5.60969912               33.89654776                0.00010000                1.00125857                0.00233206               -0.59714392               -4.65276397               31.52075221               -2.32222359
               8.94891322                5.24116769               33.93981157                0.00010000                1.16408041               -0.37720152               -0.63176071               -5.06939971               31.55572708                0.04528807
               9.96143040                4.86806990               33.98137761                0.00010000                1.34844726               -0.75401738               -0.68696043               -5.32952450               31.55507100                2.23457225
              10.97588217                4.49307833               34.02062454                0.00010000                1.53091677               -1.09912269               -0.74880865               -5.34004147               31.46652312                4.37125702
              11.99204874                4.11868836               34.05618707                0.06547156                1.46452881               -1.33574802               -0.80338063               -4.76419755               29.00681554                6.47514456
              13.00517274                3.75517614               34.04205918                0.25656794                0.87292561               -0.85526711               -0.16276794               -2.19525300               13.61817087                5.62799290
              14.00950725                3.43672562               33.76599759                0.56365449                0.42482512                0.01476793               -0.97078814               -0.03637205                0.27929912                1.82753166
              15.01366925                3.12037327               33.48444834                0.90969885                0.41619981                0.88506128               -1.87450245               -0.03092390                0.01711442               -1.94564262
               5.24351661                7.60004343               34.31391237                0.97829321               -0.09730958               -0.28832367                0.76231122               -0.04585710                0.04071323                1.83242696
               6.24254351                7.28857039               34.02763432                0.45543932                0.00567107                0.09647932               -0.11624317                0.01165588                0.23284753               -1.53508981
               7.24363003                6.97674489               33.74516253                0.01161311                0.64512642                0.47039974               -0.97878877               -2.59861467               19.11206414               -4.86539257
               8.25544604                6.61094829               33.83626332                0.00010000                1.18023850                0.23906783               -0.86235100               -5.33282113               37.84543407               -2.34220042
               9.26723480                6.23837666               33.92460122                0.00010000                1.23221537               -0.17822138               -0.79291975               -5.78424727               37.80600544               -0.02805922
              10.28009035                5.86081933               34.01061013                0.00010000                1.35496016               -0.66356800               -0.75172797               -6.09174147               37.80964981                2.19323994
              11.29433401                5.48181279               34.09431764                0.00010000                1.47448034               -1.10044783               -0.73224475               -6.14489911               37.74922592                4.45771248
              12.30957996                5.10506805               34.17421030                0.07253598                1.27079687               -1.35154318               -0.72941739               -5.28463144               33.67433128                6.82159120
              13.31974994                4.74729736               34.17165457                0.26707995                0.63025425               -0.73952344                0.25449553               -2.32684571               15.14843639                5.26051692
              14.32218504                4.43680785               33.87717734                0.57888972                0.28188913               -0.00788066               -0.62110661               -0.04292267                0.29339953                1.57972980
              15.32538772                4.12839524               33.57701729                0.91908195                0.32026828                0.72288576               -1.59171476               -0.03316551                0.02092583               -2.10889289
               5.55260052                8.59752758               34.24052704                0.96583977               -0.02267691               -0.21361754                0.55334601               -0.04542905                0.04180949                1.83727307
               6.55237375                8.28988444               33.93745378                0.43909456                0.09686743                0.16632586               -0.39970728                0.00810048                0.26366462               -1.50848628
               7.55453786                7.98181181               33.63875863                0.00469888                0.87434283                0.53888054               -1.32218158               -2.86906765               22.29569538               -4.78399570
               8.56986060                7.61448047               33.77604921                0.00010000                1.44096858                0.43297916               -1.11361959               -5.80489930               44.12271824               -2.27266608
               9.58335724                7.23760326               33.90916786                0.00010000                1.31494173               -0.01845301               -0.94516823               -6.27798206               44.03841335               -0.06941046
              10.59615944                6.85479854               34.03965130                0.00010000                1.26891125               -0.51181137               -0.81602870               -6.57794614               44.12759547                2.03223682
              11.60873546                6.47106938               34.16914630                0.00010000                1.23560491               -0.96836764               -0.72543134               -6.72245126               44.26875623                4.35736367
              12.62087154                6.09165749               34.29699830                0.07974394                0.90802855               -1.26730634               -0.67652652               -5.61036529               38.14759385                7.16146542
              13.62689603                5.74038567               34.29889731                0.27773886                0.33396890               -0.65628076                0.66921074               -2.35150415               16.30835918                5.02574654
              14.62755091                5.43656801               33.98645454                0.59421702                0.14675585               -0.04788175               -0.27421472               -0.04858367                0.31160817                1.43925472
              15.62983115                5.13483098               33.66804227                0.92851327                0.22802348                0.56747327               -1.31265960               -0.03617523                0.02443105               -2.18030689
               5.85789430                9.59577108               34.16709718                0.95341626                0.05269911               -0.13669728                0.33671671               -0.04438229                0.05078298                1.83467434
               6.85842129                9.29189691               33.84741709                0.42283916                0.18791727                0.23793003               -0.68297337                0.00570338                0.31627753               -1.51394459
               7.86165265                8.98752250               33.53296249                0.00010000                1.25676550                0.59843991               -1.66416961               -3.09268587               25.52158243               -4.56900062
               8.88355660                8.61960787               33.71706863                0.00010000                1.98522254                0.40627318               -1.34624394               -5.94919765               50.37432615               -1.96422239
               9.90135710                8.23800760               33.89372546                0.00010000                1.57543557               -0.09005316               -1.07895505               -6.00829870               50.13843253               -0.07839844
              10.91506531                7.85058310               34.06683321                0.00010000                1.08344628               -0.29174843               -0.86673934               -6.18175544               50.39598278                1.63162595
              11.92302602                7.46244544               34.24229307                0.00010000                0.64955224               -0.52742835               -0.71067616               -6.60160520               51.06767753                3.73069325
              12.92805636                7.07972193               34.42309555                0.08716457                0.23916602               -0.92237852               -0.61794152               -5.78100657               42.62247674                6.98836375
              13.92780934                6.73417175               34.42443841                0.28853612               -0.06441497               -0.59381224                1.08391959               -2.37060063               17.22910134                4.68912513
              14.92676806                6.43585022               34.09480155                0.60959958                0.01644670               -0.10248987                0.07392387               -0.05947117                0.36091933                1.42001797
              15.92813828                6.13974471               33.75853133                0.93795477                0.13702186                0.41852901               -1.03274939               -0.03959004                0.04021019               -2.18087125
               6.15946121               10.59479363               34.09371865                0.94096833                0.12751820               -0.05970270                0.11826383               -0.04393274               -0.00246597                1.59039579
               7.16073639               10.29464304               33.75694136                0.40670858                0.27559895                0.31283172               -0.97057975               -0.00194475                0.51419955               -1.35529073
               8.16497319                9.99378061               33.43038816                0.00010000                1.98275819                0.63935213               -1.99358490               -3.44464932               29.00580835               -3.40635025
               9.20039155                9.62260594               33.66307253                0.00010000                3.36214217               -0.54972440               -1.54367265               -4.67100831               56.53226846               -1.13662261
              10.23221603                9.23580220               33.87901128                0.00010000                2.38474670               -0.37847464               -1.17958851               -4.11609829               55.84711045               -0.05637318
              11.24808649                8.84896357               34.08921997                0.00010000                0.76742502               -0.06440338               -0.88987318               -3.99084117               56.25384818                0.92087286
              12.24756453                8.46052081               34.30601151                0.00010000               -0.72806961                0.26279487               -0.67007606               -4.72556963               57.92148995                2.23036344
              13.23352510                8.07320992               34.54370518                0.09482834               -1.21044010                0.29377876               -0.53134121               -4.66674982               47.37833266                4.83002123
              14.22335573                7.72850943               34.54535978                0.29949337               -0.63682835               -0.51745331                1.48575894               -2.51377833               18.42845320                3.31399160
              15.22078853                7.43451821               34.20363679                0.62504883               -0.10526846               -0.16920476                0.42863613               -0.07946004                0.62202701                1.28701579
              16.22125036                7.14320156               33.84902658                0.94737054                0.04618311                0.27971299               -0.74915782               -0.04584513               -0.01184773               -1.82678959
               6.45731683               11.59457703               34.01544344                0.96644564                0.20785957               -0.02166056               -0.11856634                0.14321359                0.75741238                1.34400473
               7.45939542               11.29815354               33.66984717                0.69819228                0.37399694                0.35105031               -1.24458834                0.15252906                1.92071677               -1.17256105
               8.46479676               11.00030955               33.34737976                0.49376765                4.43597106                0.65289387               -2.24597245               -4.49465051               32.92666033               -2.40738498
               9.54811484               10.60861338               33.62139716                0.44639283                6.39403681               -1.39925558               -1.67233762               -3.72124320               62.04587210               -0.70952231
              10.59267750               10.23043811               33.86580453                0.43603697                3.12075186               -0.53640945               -1.23086851               -1.91977050               60.76200369               -0.10453761
              11.61052988                9.84929503               34.10381025                0.44959812                0.57953873                0.03314645               -0.87292742               -1.89249935               61.23197946                0.44501272
              12.60426828                9.46770134               34.35019975                0.48595275               -2.18985667                0.71805260               -0.59106784               -2.51450224               63.46921606                1.20134602
              13.56673275                9.08559750               34.62743990                0.54999328               -4.40213937                1.23875775               -0.39489954               -3.87316775               52.15858162                3.04676153
              14.51622549                8.72382268               34.64357391                0.65336122               -2.81230117               -0.46867445                1.80307482               -3.36959321               21.31360853                2.18589807
              15.51048672                8.43246612               34.30923966                0.81747813               -0.31854057               -0.20520920                0.77567095                0.04563374                2.33925488                1.13045218
              16.50985468                8.14533897               33.94619020                0.97666550               -0.06320465                0.21374078               -0.43493506                0.14771650                0.91231404               -1.47713879
               3.49761326                1.72385713               35.77377284                1.00000000               -0.61111424               -0.66220091                2.25583529               -0.11483226               -1.56973231                1.63357969
               4.49150211                1.37521276               35.57127564                0.93830912               -0.56766834               -0.46606324                1.71332596               -0.07359871               -1.76563998               -0.34918014
               5.48625989                1.02515246               35.36502825                0.64347940               -0.68566544               -0.26242158                1.11264871               -0.35345222               -1.43883781               -1.15733776
               6.47778881                0.66655376               35.16939705                0.50927626               -0.97483233               -0.14133324                0.55266290               -0.52623962                0.48805416               -0.15833423
               7.46676324                0.28964961               35.00289745                0.44923095               -0.93548026                0.03840940               -0.02781077               -0.47963850                3.11241126               -0.14579372
               8.45907920               -0.10748988               34.86153484                0.44937423               -0.27054321                0.21367287               -0.65225590               -0.27392504                4.29793747                0.02609033
               9.46135238               -0.51269984               34.72032945                0.50665712                0.57793060                0.37779342               -1.26829605               -0.30239514                3.04096040                0.17754373
              10.47063781               -0.91072856               34.55430194                0.62531219                0.99090710                0.53316968               -1.84678175               -0.36005952                0.59765246                0.27127315
              11.48117052               -1.29708819               34.36367466                0.81741822                1.01718209                0.67123013               -2.42087873               -0.27153285               -1.39468564                0.54819183
              12.49098145               -1.67557253               34.15694822                1.00000000                1.00387758                0.82942108               -3.03185954               -0.12044672               -1.79136996                0.97419495
              13.50124807               -2.05134112               33.95769077                1.00000000                1.02666186                1.06192408               -3.61326262               -0.14576058               -1.39003640               -1.43256078
               3.84510930                2.71723512               35.69480500                1.00000000               -0.49908409               -0.64084966                1.99335916               -0.04014482                0.17404852                2.00574694
               4.84011846                2.37055213               35.49111987                0.70566656               -0.40272183               -0.41055836                1.42951539               -0.00966715                0.57598129               -0.81714716
               5.83705487                2.02252824               35.29553403                0.16864345                0.00796841               -0.16630887                0.94068482               -0.43265700                2.46074643               -2.75614813
               6.84027783                1.66514043               35.12945827                0.00010000                0.59669064               -0.16391350                0.45337804               -1.29641477                5.02748088               -2.34804242
               7.84898868                1.29003371               34.98420585                0.00010000                0.86184220               -0.65716244               -0.06123342               -2.16472569                7.56559259                0.42681195
               8.85751468                0.89464685               34.86735457                0.00010000                0.54795429               -0.29834835               -0.62413503               -2.64632208                9.09385173                1.00394537
               9.85994777                0.49107810               34.75136944                0.00010000                0.08583579                0.17539213               -1.17697643               -2.32423401                7.87523787                1.38461433
              10.85923139                0.09460314               34.60981820                0.14849579                0.04647054                0.28547859               -1.68227750               -1.34033463                5.40588699                3.03094463
              11.86087718               -0.29037588               34.44482758                0.43617810                0.38360316                0.48057021               -2.18299387               -0.54948129                3.46009805                3.00915920
              12.86690345               -0.66727832               34.26468700                0.88402443                0.73409414                0.74312946               -2.68347557               -0.12023355                1.65780308                1.65106921
              13.87555906               -1.04072188               34.06351299                1.00000000                0.86556052                1.04091004               -3.22770276               -0.07834301                0.62932349               -1.66176885
               4.19017635                3.71104014               35.62344508                1.00000000               -0.41606967               -0.58817536                1.73754730               -0.05747348                0.21569794                2.23273362
               5.18601565                3.36700159               35.40165352                0.51971886               -0.35789486               -0.28037227                1.08067401               -0.03169530                0.92338142               -1.52261780
               6.18301845                3.02182628               35.19403091                0.04366973               -0.08303029                0.07182037                0.54912846               -0.70742675                4.58966042               -5.39847144
               7.18435504                2.66327549               35.04568960                0.00010000                0.54719313               -0.62262558                0.30611046               -2.66440403               11.57472136               -2.03619925
               8.19396231                2.27650637               34.97681818                0.00010000                1.03766625               -1.08391700               -0.19534567               -4.17666058               14.88202961                0.56048584
               9.20510837                1.88654315               34.89249721                0.00010000                1.04745476               -0.83841858               -0.62247702               -4.48254944               14.12103045                1.98397766
              10.21491141                1.49080801               34.80626313                0.00010000                1.00883655               -0.35444004               -1.02988659               -4.25709701               14.12071526                3.14539187
              11.22528510                1.09498101               34.72019881                0.04433029                0.85754712               -0.18862359               -1.42077881               -2.93382206               11.24983343                5.09974407
              12.23206235                0.71252322               34.57481886                0.22862888                0.68188389               -0.47252954               -1.70656045               -1.14547653                6.15101821                7.86332299
              13.23892278                0.33929006               34.38549991                0.53305297                0.72529941                0.38025829               -2.22592287               -0.35221221                2.38375713                2.79133285
              14.24656834               -0.03052292               34.16415445                0.89449396                0.76455593                1.17208753               -2.90758705               -0.29133471                0.80609285               -1.83614925
               4.53203692                4.70547162               35.54922406                1.00000000               -0.33385092               -0.51794010                1.46735407               -0.05199703                0.03169110                1.99313280
               5.52869841                4.36494468               35.30728413                0.49181513               -0.27022439               -0.15021245                0.75448830                0.00853361                0.33036535               -1.73239658
               6.52663244                4.02396465               35.07128307                0.03034321                0.18056265                0.26156954                0.07837435               -1.42769706                9.48922659               -5.99736897
               7.53230967                3.65268792               35.01265933                0.00010000                0.77776871               -0.75694113               -0.04776714               -3.25334745               18.86097151               -0.87011223
               8.54218781                3.26835537               34.96222431                0.00010000                1.06261898               -0.74232120               -0.34347302               -4.13130426               19.73355605                0.24589326
               9.55356205                2.87787847               34.91859334                0.00010000                1.20900772               -0.85057861               -0.64306443               -4.50162164               20.06383900                2.06012197
              10.56636796                2.48398930               34.87202423                0.00010000                1.26388451               -0.79757730               -0.92020276               -4.37988120               19.63860334                3.81237482
              11.57883974                2.09083067               34.81708693                0.04859619                1.36453168               -0.75374988               -1.16244743               -3.88819700               18.89569200                5.35599381
              12.59365860                1.70017352               34.75320312                0.22893007                1.20328059               -1.20847996               -1.10679890               -1.73177717                9.92346318                8.71696218
              13.60290535                1.34032685               34.51570517                0.51895200                0.78498651                0.05880290               -1.77674783               -0.07983829                0.67585938                2.86828471
              14.60935833                0.98271987               34.26569073                0.88046924                0.64529788                1.27072064               -2.56077700               -0.08386244                0.06421266               -1.69837358
               4.87019027                5.70068134               35.47328822                0.99125821               -0.24969826               -0.44203991                1.21260366               -0.04965293                0.03089234                1.89497622
               5.86769329                5.36399735               35.21331353                0.47537696               -0.17344976               -0.04988011                0.44367442                0.01854751                0.20989974               -1.68100626
               6.86672127                5.02705767               34.95689072                0.02315297                0.36020454                0.34834763               -0.30907122               -1.98485141               13.00515575               -5.38609744
               7.87489738                4.64813667               34.95283258                0.00010000                0.97121977               -0.28519822               -0.36784783               -4.20129493               25.78287338               -2.34545548
               8.88614567                4.26165994               34.94936351                0.00010000                1.22723155               -0.58463544               -0.52012973               -4.72374162               25.97266587                0.13959791
               9.89944201                3.86953158               34.94595177                0.00010000                1.41079611               -0.83065345               -0.68784717               -4.97319859               26.05728420                2.12922177
              10.91436159                3.47485646               34.94067126                0.00010000                1.59474615               -1.01879321               -0.84519186               -4.92327392               25.97997266                4.10047690
              11.93133693                3.07990601               34.93208710                0.05526288                1.67845157               -1.22639259               -0.96579044               -4.47546165               24.93353185                6.27229531
              12.94793062                2.68835362               34.90222945                0.23888052                1.17213675               -1.08049730               -0.64129557               -2.10689644               12.35716433                6.62191782
              13.95477967                2.34046612               34.63822515                0.53300526                0.60872108                0.01810816               -1.38321403               -0.03657065                0.35075911                2.25006048
              14.96010505                1.99489149               34.36732095                0.88897181                0.53253781                1.12059554               -2.23838238               -0.02921373                0.01921369               -1.79458697
               5.20441185                6.69663082               35.39730247                0.97902809               -0.17188189               -0.36827376                0.98949450               -0.04683614                0.04069139                1.89891317
               6.20269303                6.36394708               35.11963680                0.45925616               -0.08078818                0.03162422                0.14929303                0.01333307                0.22002472               -1.63678858
               7.20279608                6.03093160               34.84556090                0.01615387                0.54942355                0.42481222               -0.67366834               -2.44104214               16.34686993               -5.15562551
               8.21368150                5.64698395               34.89028773                0.00010000                1.17609920                0.00719114               -0.65698115               -5.02310396               32.36571439               -2.49827350
               9.22631807                5.25666266               34.93318214                0.00010000                1.36100288               -0.40226961               -0.69659453               -5.45686932               32.37346198               -0.08513980
              10.24090156                4.86126541               34.97419112                0.00010000                1.56049908               -0.80157954               -0.75273138               -5.72423392               32.37397833                2.14444208
              11.25752805                4.46361343               35.01284575                0.00010000                1.74658935               -1.15798868               -0.80897782               -5.72802547               32.30105061                4.30595373
              12.27583334                4.06630281               35.04793934                0.06204360                1.67162576               -1.38960361               -0.84737468               -5.19791476               30.20234179                6.40770839
              13.29096056                3.67856358               35.04024898                0.24903547                0.99013591               -0.90453268               -0.20575209               -2.44728672               14.44733311                5.80529104
              14.29563606                3.34068901               34.75608927                0.54772314                0.44813704                0.01631677               -1.01485685               -0.04558135                0.33344956                1.86221762
              15.29992331                3.00513178               34.46539550                0.89803241                0.42872430                0.93478689               -1.93873244               -0.02977026                0.01963188               -2.04650225
               5.53462102                7.69331586               35.32162204                0.96689200               -0.09618562               -0.29390231                0.77928055               -0.04618312                0.04313670                1.91555638
               6.53365916                7.36462983               35.02634731                0.44323666                0.01212707                0.10342186               -0.13955795                0.01034779                0.24684930               -1.59842425
               7.53486356                7.03555392               34.73512719                0.00928459                0.75225401                0.49647066               -1.03031442               -2.80919476               19.63113689               -5.05733377
               8.54870424                6.64828049               34.82730927                0.00010000                1.39316356                0.24293312               -0.93062132               -5.74394891               38.85198275               -2.50556368
               9.56272683                6.25361455               34.91630594                0.00010000                1.46511577               -0.20653290               -0.86831746               -6.21052043               38.79373409               -0.15245729
              10.57800656                5.85349999               35.00271494                0.00010000                1.60184216               -0.71891960               -0.82897436               -6.51730937               38.78880340                2.09770690
              11.59476367                5.45169669               35.08663903                0.00010000                1.72109661               -1.16941883               -0.80391731               -6.55372708               38.72470523                4.37316505
              12.61242849                5.05211394               35.16663742                0.06897558                1.49175084               -1.41067308               -0.78384825               -5.73341544               35.14424218                6.72024718
              13.62459869                4.67026297               35.17405376                0.25931306                0.74356736               -0.77573333                0.21918421               -2.59204574               16.18840029                5.43490496
              14.62729984                4.34079245               34.87079593                0.56253235                0.30127047               -0.00519143               -0.65890039               -0.05083037                0.34701073                1.61190404
              15.63062410                4.01358723               34.56081630                0.90713718                0.33242634                0.76165139               -1.65143023               -0.03195176                0.02364966               -2.21334463
               5.86086025                8.69075277               35.24610634                0.95478333               -0.01983196               -0.21741917                0.56384951               -0.04545836                0.04347522                1.91441992
               6.86066193                8.36601552               34.93331784                0.42732469                0.10506392                0.17465779               -0.42781562                0.01015893                0.28149915               -1.57149338
               7.86296153                8.04086102               34.62523792                0.00256494                1.00399800                0.56259893               -1.38369338               -3.09432475               22.89980073               -4.97525148
               8.88074189                7.65184262               34.76453944                0.00010000                1.69633183                0.43242645               -1.19041975               -6.24601795               45.29425616               -2.42214141
               9.89688816                7.25253200               34.89929557                0.00010000                1.58656723               -0.05740129               -1.03106774               -6.72675325               45.18890064               -0.18198956
              10.91247323                6.84688701               35.03104325                0.00010000                1.54756948               -0.57626195               -0.90633030               -7.00990738               45.25593445                1.94210201
              11.92783955                6.44022506               35.16144083                0.00010000                1.50627612               -1.04083117               -0.81436447               -7.12733548               45.37161825                4.27027042
              12.94259876                6.03808935               35.28982686                0.07604169                1.13007925               -1.32964683               -0.75320571               -6.04567059               39.89734925                7.05067214
              13.95044114                5.66304891               35.30547375                0.26969509                0.43482173               -0.68113207                0.64111967               -2.61601079               17.57211959                5.20236265
              14.95129519                5.34058518               34.98356365                0.57740870                0.16267900               -0.04406389               -0.30723849               -0.05542884                0.36535999                1.47442391
              15.95369472                5.02036481               34.65464652                0.91628236                0.23995276                0.59814220               -1.36966272               -0.03511258                0.02767003               -2.28370625
               6.18318636                9.68896748               35.17049908                0.94265089                0.05677390               -0.13943166                0.34442553               -0.04511034                0.05259769                1.90797956
               7.18375410                9.36812299               34.84041575                0.41152957                0.19818057                0.24872752               -0.71782225                0.00767594                0.33881098               -1.57916281
               8.18714997                9.04680590               34.51597622                0.00010000                1.41794015                0.62187311               -1.73493617               -3.33758437               26.22034457               -4.75264991
               9.21211290                8.65692902               34.70318919                0.00010000                2.29987001                0.38436757               -1.43159928               -6.40757492               51.71897547               -2.08916743
              10.23314737                8.25246652               34.88246429                0.00010000                1.90012289               -0.15987717               -1.17470899               -6.43024797               51.44849839               -0.16801735
              11.25011536                7.84197475               35.05764679                0.00010000                1.39336289               -0.36860123               -0.97049671               -6.56105190               51.66641412                1.55962897
              12.26101463                7.43088006               35.23461965                0.00010000                0.92879325               -0.59099768               -0.82129717               -6.94823739               52.29102993                3.65890550
              13.26869122                7.02552101               35.41631543                0.08330939                0.43840091               -0.97493068               -0.73092715               -6.16747068               44.65128686                6.89131064
              14.26978265                6.65664032               35.43519444                0.28024329                0.00920711               -0.60746172                1.06281978               -2.62467126               18.71876572                4.86210957
              15.26887536                6.33991118               35.09541176                0.59235693                0.02899763               -0.09766212                0.04520971               -0.06596787                0.41616423                1.46233687
              16.27036260                6.02555007               34.74794507                0.92542125                0.14872334                0.44281705               -1.08785366               -0.03879045                0.04450496               -2.27978636
               6.50164703               10.68796414               35.09492228                0.93056491                0.13300038               -0.06182780                0.12317106               -0.04459805               -0.00388292                1.65263722
               7.50297703               10.37099007               34.74703302                0.39584046                0.28783888                0.32584904               -1.01196431               -0.00144823                0.54768279               -1.41477343
               8.50740380               10.05329848               34.41006523                0.00010000                2.19763658                0.66155670               -2.07298933               -3.72768658               29.81764232               -3.54303865
               9.54692976                9.65952997               34.64718522                0.00010000                3.79168359               -0.66551727               -1.63585510               -5.04273941               58.05976483               -1.21183721
              10.58323748                9.24933446               34.86670580                0.00010000                2.79544473               -0.48808890               -1.28282327               -4.40613988               57.31183407               -0.10809916
              11.60283866                8.83951499               35.07974696                0.00010000                1.10455360               -0.15117817               -1.00431365               -4.21794244               57.66091254                0.88003423
              12.60532855                8.42840510               35.29864275                0.00010000               -0.46747882                0.20708101               -0.80030813               -4.93384168               59.26169316                2.18966955
              13.59348908                8.01859074               35.53755529                0.09080903               -1.08855030                0.29992659               -0.69044727               -4.91801421               49.67114249                4.77339063
              14.58355754                7.65089968               35.56016536                0.29094327               -0.62114987               -0.51698459                1.47178256               -2.75197078               20.13596739                3.43965732
              15.58106608                7.33863194               35.20781545                0.60736161               -0.09582143               -0.16362114                0.40441170               -0.08735251                0.68764461                1.33121272
              16.58164111                7.02922115               34.84128598                0.93455347                0.05750305                0.29908615               -0.80255466               -0.04561972               -0.00906337               -1.90607406
               6.81624253               11.68773092               35.01426377                0.96135057                0.21482565               -0.02332159               -0.11706713                0.15045517                0.78395988                1.39665390
               7.81839079               11.37463997               34.65717107                0.69287901                0.39069024                0.36498974               -1.29168574                0.15668138                2.01284984               -1.22441608
               8.82405634               11.06003703               34.32451430                0.49295470                4.84156706                0.67385506               -2.32918769               -4.88581110               33.87979605               -2.50389576
               9.91522213               10.64361867               34.60421044                0.44656806                7.04916052               -1.59112917               -1.76751499               -4.03737721               63.74166238               -0.75426021
              10.96503955               10.24270475               34.85297285                0.43618315                3.57318662               -0.66297123               -1.33724487               -2.05316717               62.36458020               -0.13575397
              11.98668586                9.83895118               35.09448698                0.44937082                0.91112471               -0.05638037               -0.99167941               -1.99943240               62.76760292                0.41950558
              12.98326204                9.43502168               35.34358357                0.48508694               -1.94247512                0.66165808               -0.72927844               -2.57823283               64.93020052                1.17551445
              13.94783636                9.03151954               35.62254191                0.54793762               -4.42800081                1.29287991               -0.57686116               -4.00132436               54.64487500                3.00818737
              14.89470203                8.64630063               35.66156973                0.64900673               -2.95147601               -0.45990454                1.79186871               -3.62959067               23.20615814                2.27199049
              15.88880684                8.33663875               35.31691016                0.80850321               -0.32151215               -0.19931869                0.75562190                0.03563412                2.47374811                1.17266796
              16.88827178                8.03153180               34.94160765                0.97016311               -0.05350574                0.23106472               -0.48551972                0.15237144                0.95233040               -1.53851261
               3.68698445                1.82067668               36.79645627                1.00000000               -0.61972007               -0.67090429                2.28204355               -0.11624353               -1.59830206                1.67532179
               4.68078725                1.45304510               36.58849984                0.92808333               -0.58033648               -0.46852427                1.73179417               -0.07490228               -1.82446130               -0.40130766
               5.67537772                1.08389296               36.37619276                0.63950963               -0.72383025               -0.26074303                1.11939610               -0.37984553               -1.50722143               -1.16448295
               6.66631065                0.70538070               36.17491941                0.50819489               -1.04724918               -0.13960853                0.54991956               -0.55991766                0.43201471               -0.16406371
               7.65443274                0.30703443               36.00256209                0.44915703               -1.01511983                0.04535661               -0.04229331               -0.50862883                3.03217002               -0.14986948
               8.64600825               -0.11317862               35.85490017                0.44916108               -0.31810909                0.22460698               -0.67886459               -0.28867326                4.21115489                0.02708764
               9.64807056               -0.54238375               35.70747063                0.50525907                0.58137909                0.39177219               -1.30754200               -0.31389725                2.98304562                0.18340896
              10.65763583               -0.96430248               35.53559125                0.62157587                1.02607739                0.54973922               -1.89856687               -0.37635357                0.56128648                0.28037648
              11.66859211               -1.37393566               35.33914789                0.80948314                1.05586029                0.69051283               -2.48570219               -0.28656712               -1.44798999                0.54908792
              12.67875304               -1.77517322               35.12623441                1.00000000                1.03522672                0.85237723               -3.11035189               -0.12853490               -1.84856785                0.99994357
              13.68929664               -2.17351877               34.92107961                1.00000000                1.05436018                1.09112121               -3.70713677               -0.14993440               -1.43349522               -1.45285118
               4.05345360                2.81396763               36.71482230                1.00000000               -0.50235099               -0.65057974                2.01189292               -0.04088934                0.19496500                2.04946059
               5.04843009                2.44835985               36.50545635                0.68774717               -0.40210654               -0.40873862                1.43841846               -0.01276773                0.63549746               -0.90247936
               6.04541147                2.08128553               36.30497707                0.16274738                0.03553240               -0.15486908                0.94796841               -0.48015538                2.55911055               -2.87665368
               7.04914074                1.70398462               36.13398818                0.00010000                0.66073238               -0.18140517                0.45198127               -1.40609231                5.11255050               -2.37666059
               8.05862611                1.30748800               35.98354832                0.00010000                0.93449382               -0.68832315               -0.07169631               -2.33337841                7.61397907                0.36693256
               9.06783061                0.88906745               35.86101643                0.00010000                0.59336998               -0.31013847               -0.64598751               -2.85130380                9.12846749                0.98532289
              10.07049351                0.46153397               35.73943704                0.00010000                0.09088185                0.19286926               -1.21167829               -2.51395386                7.95176858                1.41372284
              11.06964825                0.04119491               35.59276682                0.14310381                0.03341459                0.29405661               -1.72990497               -1.46125651                5.52052480                3.08405243
              12.07116181               -0.36703053               35.42268521                0.42431923                0.38054988                0.48609940               -2.24581605               -0.59843323                3.58240876                3.12949921
              13.07725925               -0.76664945               35.23745423                0.86012310                0.74905213                0.76253442               -2.76197889               -0.13456786                1.75970216                1.73197030
              14.08614285               -1.16260756               35.03077027                1.00000000                0.88836015                1.07528474               -3.31870168               -0.08495211                0.70944346               -1.71671758
               4.41738222                3.80766508               36.64087037                1.00000000               -0.41682242               -0.59972505                1.74541737               -0.05854949                0.20923072                2.26875328
               5.41321400                3.44487032               36.41243715                0.50504023               -0.36161851               -0.26878581                1.07562125               -0.03777135                0.98266837               -1.62764339
               6.41014985                3.08079558               36.19948430                0.04017720               -0.06138334                0.10540196                0.54250477               -0.80619970                4.86124603               -5.67073938
               7.41198633                2.70175260               36.04877318                0.00010000                0.62662433               -0.65431793                0.30969206               -2.88024463               11.86089198               -2.20977602
               8.42268234                2.29326797               35.97474378                0.00010000                1.14749362               -1.13883566               -0.22184565               -4.47752496               15.07563881                0.44270193
               9.43493621                1.88061861               35.88609764                0.00010000                1.14908366               -0.87291843               -0.66030605               -4.83101851               14.37373449                1.93586558
              10.44566401                1.46147363               35.79574204                0.00010000                1.10194968               -0.35465753               -1.07750750               -4.61347455               14.40102686                3.17415726
              11.45697520                1.04157865               35.70568392                0.04116913                0.94018941               -0.17818729               -1.48447511               -3.21528484               11.60683884                5.20329684
              12.46446780                0.63578633               35.55744302                0.22126570                0.73317559               -0.52838338               -1.76834821               -1.25865649                6.46055617                8.16193066
              13.47163871                0.24007747               35.36286218                0.51684307                0.75230095                0.38263046               -2.30038464               -0.38508282                2.49220546                2.92304988
              14.47951382               -0.15201308               35.13461670                0.88245515                0.78751102                1.23696953               -2.99740997               -0.31872426                0.83151445               -1.90928697
               4.77787212                4.80197313               36.56385341                0.99119506               -0.33279591               -0.52932618                1.46692388               -0.04988394                0.04014785                2.03314955
               5.77454416                4.44298414               36.31476101                0.47817943               -0.27334611               -0.13474886                0.74533478                0.00318184                0.35391860               -1.81651626
               6.77240520                4.08339357               36.07195331                0.02735581                0.22596452                0.30410867                0.05418145               -1.56651650                9.80453134               -6.26691897
               7.77906345                3.69089826               36.01198865                0.00010000                0.89022029               -0.76942303               -0.08775560               -3.51093751               19.37750548               -1.12640080
               8.79020961                3.28471128               35.95859111                0.00010000                1.19705637               -0.77565742               -0.38585635               -4.43219063               20.17300115                0.10735332
               9.80300458                2.87160908               35.91192613                0.00010000                1.35271858               -0.88661380               -0.69370656               -4.83886283               20.52148462                1.99061678
              10.81726398                2.45444082               35.86256438                0.00010000                1.40126363               -0.82451862               -0.97532719               -4.72122529               20.13746583                3.80602987
              11.83102985                2.03763117               35.80521683                0.04540843                1.51129420               -0.76010760               -1.21488495               -4.24700222               19.57111858                5.42211885
              12.84748986                1.62240180               35.74181371                0.22180647                1.31635723               -1.29955616               -1.17524014               -1.91991564               10.39997216                9.00288529
              13.85735700                1.24100316               35.49760413                0.50380280                0.82297962                0.05260672               -1.84418237               -0.09376971                0.73869711                2.96479622
              14.86394945                0.86213183               35.23966908                0.86937230                0.65924557                1.35552930               -2.64279680               -0.08811540                0.06625732               -1.76417606
               5.13436253                5.79707856               36.48542247                0.97911544               -0.25053350               -0.45173169                1.22884335               -0.04808961                0.04500726                1.96599396
               6.13185720                5.44217535               36.21767569                0.46220616               -0.17285647               -0.03994153                0.43162514                0.01195942                0.22758084               -1.75358151
               7.13090541                5.08687775               35.95363128                0.02038437                0.42963341                0.38306291               -0.34380427               -2.15209438               13.38110682               -5.60550466
               8.14044987                4.68636414               35.94889348                0.00010000                1.12111511               -0.28206483               -0.42189211               -4.51722714               26.47548425               -2.55862560
               9.15332771                4.27775482               35.94388299                0.00010000                1.39897749               -0.60944073               -0.57877797               -5.06041694               26.62470883               -0.01034190
              10.16842942                3.86288633               35.93878322                0.00010000                1.59448555               -0.87067579               -0.74918565               -5.32648950               26.71807287                2.03940275
              11.18521742                3.44498326               35.93194060                0.00010000                1.78223756               -1.06055874               -0.90447959               -5.28094274               26.67770393                4.05794203
              12.20407417                3.02637650               35.92220102                0.05191290                1.87400385               -1.26694846               -1.01508210               -4.87627799               25.87945108                6.26365485
              13.22269750                2.60979521               35.89552525                0.23151085                1.29795600               -1.14720764               -0.70595959               -2.33836382               13.00593608                6.82578248
              14.23003329                2.24112960               35.62411073                0.51749286                0.63983394                0.01980197               -1.44248441               -0.05124866                0.41434611                2.30608625
              15.23549417                1.87509751               35.34457042                0.87763885                0.54608855                1.19080172               -2.31296708               -0.02821057                0.02179778               -1.88022976
               5.48671675                6.79293850               36.40731423                0.96723277               -0.17325946               -0.37639371                1.01367032               -0.04700586                0.04425258                1.98650543
               6.48498416                6.44218531               36.12104248                0.44651188               -0.07711141                0.03727580                0.13387563                0.01172373                0.23455394               -1.70460135
               7.48517452                6.09105483               35.83860517                0.01357207                0.64288431                0.45217193               -0.71866943               -2.62714708               16.79654583               -5.36402479
               8.49784184                5.68525696               35.88340814                0.00010000                1.36522750                0.01105813               -0.72084233               -5.38376379               33.22534367               -2.68719385
               9.51247907                5.27252247               35.92587968                0.00010000                1.57022553               -0.42703730               -0.76656474               -5.83426490               33.21228050               -0.22990223
              10.52924635                4.85419556               35.96632298                0.00010000                1.78379397               -0.84824986               -0.82377814               -6.10944598               33.21778213                2.04047295
              11.54815495                4.43322964               36.00444499                0.00010000                1.97229959               -1.21511210               -0.87381708               -6.11075760               33.16778322                4.22903247
              12.56869234                4.01229220               36.03923957                0.05856514                1.89072657               -1.43955093               -0.89496887               -5.63980426               31.42355065                6.33269873
              13.58596948                3.59945765               36.03794414                0.24143289                1.11686887               -0.95122572               -0.26248092               -2.71155256               15.29332180                5.99107526
              14.59102972                3.24139920               35.74570045                0.53178962                0.47399728                0.02209747               -1.06659475               -0.05901817                0.39778246                1.90202239
              15.59544943                2.88594787               35.44567369                0.88642193                0.44197065                0.98899092               -2.00783808               -0.02884385                0.02234350               -2.14668727
               5.83492880                7.78955068               36.32949798                0.95542614               -0.09534554               -0.29997861                0.79654190               -0.04646856                0.04478960                1.99984983
               6.83397534                7.44292086               36.02484316                0.43093590                0.01810053                0.11004137               -0.16104752                0.01292508                0.26376594               -1.66457553
               7.83529081                7.09592119               35.72455624                0.00688631                0.86658026                0.52014610               -1.08493958               -3.00989013               20.16233468               -5.26281229
               8.85130695                6.68658530               35.81765089                0.00010000                1.62064989                0.24503814               -1.00291393               -6.14304413               39.87810521               -2.68055264
               9.86770381                6.26921407               35.90723487                0.00010000                1.71131884               -0.23586731               -0.94818410               -6.62557987               39.80573990               -0.28989941
              10.88553333                5.84592133               35.99403065                0.00010000                1.86009109               -0.77434181               -0.90987048               -6.93232684               39.79671461                1.98814023
              11.90490563                5.42068102               36.07823929                0.00010000                1.97583745               -1.23677352               -0.87717855               -6.95532932               39.73700781                4.27326148
              12.92505008                4.99758548               36.15853333                0.06531788                1.72269058               -1.46496330               -0.83613520               -6.19085338               36.65215409                6.60196980
              13.93935944                4.59077069               36.17603826                0.25142786                0.86563172               -0.80827059                0.17082998               -2.86908894               17.25494905                5.61771444
              14.94236271                4.24157155               35.86399933                0.54615150                0.32302631                0.00207284               -0.70429226               -0.06188721                0.41144675                1.64720596
              15.94581997                3.89487733               35.54398869                0.89523977                0.34572580                0.80401139               -1.71708234               -0.03095359                0.02684532               -2.31980996
               6.17904702                8.78693893               36.25180403                0.94364560               -0.01748703               -0.22179748                0.57659695               -0.04607265                0.04517696                1.99443962
               7.17887215                8.44438613               35.92889746                0.41550083                0.11326317                0.18388051               -0.45654910                0.01319276                0.30212297               -1.63810744
               8.18131228                8.10145775               35.61108476                0.00033838                1.14079632                0.58605011               -1.44817333               -3.31165631               23.51937644               -5.17804991
               9.20168808                7.69015772               35.75224082                0.00010000                1.96595786                0.42967225               -1.27109995               -6.67557656               46.48976343               -2.58242134
              10.22063144                7.26780512               35.88854651                0.00010000                1.87223992               -0.09885269               -1.12053310               -7.16416726               46.36608174               -0.30639918
              11.23913287                6.83870873               36.02152470                0.00010000                1.83763879               -0.64246824               -0.99826416               -7.43030207               46.41417411                1.83794220
              12.25738422                6.40849417               36.15285901                0.00010000                1.78263633               -1.11296936               -0.90083227               -7.52217170               46.51114092                4.16359316
              13.27478560                5.98299293               36.28193419                0.07225503                1.36087093               -1.38828883               -0.82168443               -6.48723548               41.69935847                6.91077984
              14.28460163                5.58329224               36.31171971                0.26156875                0.54498710               -0.70241801                0.60184348               -2.89116953               18.87733301                5.38744136
              15.28568534                5.24144066               35.98030977                0.56061536                0.18085853               -0.03632019               -0.34718941               -0.06430674                0.42974270                1.51187704
              16.28821880                4.90202809               35.64064902                0.90409920                0.25334625                0.63160981               -1.43315413               -0.03416674                0.03142227               -2.39056485
               6.51911293                9.78511473               36.17398569                0.93186784                0.06074455               -0.14286200                0.35363092               -0.04587389                0.05445432                1.98478158
               7.51972038                9.44659847               35.83306064                0.40011179                0.20865826                0.26030554               -0.75364722                0.01012015                0.36477843               -1.64800289
               8.52328610                9.10764219               35.49826377                0.00010000                1.58638342                0.64620035               -1.80903175               -3.57790846               26.93698296               -4.94669013
               9.55144804                8.69517874               35.68843665                0.00010000                2.62916825                0.35951109               -1.52071433               -6.85734834               53.09158888               -2.22341800
              10.57586946                8.26723702               35.87023128                0.00010000                2.23950968               -0.23367337               -1.27322511               -6.84236228               52.78699762               -0.26715273
              11.59623824                7.83307197               36.04742328                0.00010000                1.71542643               -0.44923310               -1.07404553               -6.92902342               52.96486042                1.47550379
              12.61017799                7.39842163               36.22586712                0.00010000                1.21345306               -0.65719463               -0.92605585               -7.28232076               53.54362900                3.56678885
              13.62050730                6.96981971               36.40847701                0.07936722                0.64551681               -1.02708417               -0.82980082               -6.55297794               46.74853680                6.75311065
              14.62308833                6.57672233               36.44569481                0.27182551                0.09167104               -0.61824756                1.03219638               -2.88806381               20.27225176                5.04413336
              15.62234072                6.24084515               36.09570575                0.57514850                0.04367180               -0.08982949                0.01022820               -0.07386762                0.48215432                1.50694349
              16.62396176                5.90750952               35.73677425                0.91296988                0.16210417                0.46947022               -1.14978218               -0.03810065                0.04936789               -2.38257821
               6.85516206               10.78408169               36.09618207                0.92005967                0.13850296               -0.06438094                0.12931968               -0.04551951               -0.00551911                1.71849962
               7.85654709               10.44959224               35.73670208                0.38487564                0.30058900                0.33953240               -1.05491618               -0.00092051                0.58532207               -1.47767962
               8.86117384               10.11438176               35.38892838                0.00010000                2.41995944                0.68456553               -2.15616257               -4.00885364               30.65122938               -3.68739692
               9.90494628                9.69734794               35.63035543                0.00010000                4.23585637               -0.78505050               -1.73191132               -5.41043023               59.61937054               -1.29309897
              10.94589097                9.26313166               35.85335481                0.00010000                3.22107580               -0.60240406               -1.38858783               -4.69003914               58.80613090               -0.16514742
              11.96936780                8.82972406               36.06913370                0.00010000                1.45495467               -0.24334366               -1.11765305               -4.43741988               59.09278413                0.83212689
              12.97499006                8.39535028               36.29000535                0.00010000               -0.19712292                0.14541771               -0.92284656               -5.13167241               60.61609007                2.13500644
              13.96542534                7.96245125               36.52989624                0.08672586               -0.95875737                0.29841483               -0.83176433               -5.16431017               52.04780271                4.68167412
              14.95581492                7.57092729               36.57479543                0.28230249               -0.60022701               -0.51342929                1.44956470               -2.99575496               21.93542133                3.57222425
              15.95342080                7.23964407               36.21172503                0.58971421               -0.08434377               -0.15575393                0.37430951               -0.09633721                0.76391573                1.37769682
              16.95412804                6.91141750               35.83297549                0.92179643                0.07072421                0.32079266               -0.86339429               -0.04542998               -0.00575077               -1.98868842
               7.18718142               11.78382711               36.01310209                0.95621152                0.22204726               -0.02545715               -0.11493338                0.15813661                0.81226473                1.45244275
               8.18940189               11.45338912               35.64401345                0.68755627                0.40859505                0.37968758               -1.34093594                0.16079974                2.11314468               -1.27925197
               9.19535332               11.12133350               35.30079600                0.49211253                5.25438225                0.69517469               -2.41631931               -5.27762127               34.86014261               -2.60610930
              10.29448954               10.67947773               35.58604686                0.44673387                7.71696180               -1.78702107               -1.86741433               -4.35290232               65.47091133               -0.80131877
              11.34969256               10.25518894               35.83905963                0.43633102                4.03908390               -0.79427171               -1.44704641               -2.18347300               63.99704039               -0.16901469
              12.37527122                9.82820510               36.08397666                0.44915175                1.25623982               -0.15189679               -1.11012342               -2.10260572               64.32686334                0.39075098
              13.37481736                9.40132998               36.33561418                0.48418200               -1.68135652                0.59797045               -0.86019097               -2.63812540               66.39749614                1.14188733
              14.34164409                8.97578800               36.61590267                0.54585124               -4.44184743                1.33367539               -0.74145134               -4.12193694               57.21892882                2.94427646
              15.28598041                8.56645375               36.67941129                0.64460800               -3.08601614               -0.44735404                1.77137168               -3.88634753               25.20786707                2.36258890
              16.27992376                8.23773007               36.32435210                0.79953339               -0.32370524               -0.19139983                0.72938553                0.02387817                2.62232935                1.21714459
              17.27950630                7.91392538               35.93647980                0.96369842               -0.04174627                0.25078793               -0.54432870                0.15735691                0.99456930               -1.60250566
               3.88156007                1.92063150               37.81941371                1.00000000               -0.62836729               -0.68212659                2.30995250               -0.11774429               -1.62863640                1.71964248
               4.87527639                1.53327360               37.60591152                0.91772286               -0.59320845               -0.47083652                1.75045627               -0.07713997               -1.88715986               -0.45758118
               5.86969590                1.14429419               37.38741618                0.63548964               -0.76083129               -0.25905626                1.12397623               -0.40599758               -1.58017744               -1.16960676
               6.86005977                0.74513495               37.18039544                0.50705958               -1.11350115               -0.13815078                0.54300481               -0.59093801                0.37246024               -0.17051544
               7.84742588                0.32467978               37.00205158                0.44909470               -1.08330043                0.05108912               -0.06328264               -0.53436656                2.94867069               -0.15419193
               8.83839376               -0.11918064               36.84795755                0.44891600               -0.35518300                0.23364774               -0.71375947               -0.30205795                4.12335207                0.02755065
               9.84032222               -0.57296447               36.69417861                0.50387070                0.58962611                0.40456127               -1.35500991               -0.32352241                2.92707391                0.18847116
              10.85018628               -1.01947216               36.51633060                0.61778764                1.06226749                0.56636751               -1.95631287               -0.39008718                0.52888355                0.28863804
              11.86156757               -1.45318107               36.31396062                0.80146048                1.09460449                0.71000416               -2.55247834               -0.30001891               -1.49688961                0.54812947
              12.87207837               -1.87801330               36.09474118                1.00000000                1.06600925                0.87466106               -3.18681500               -0.13651313               -1.90317793                1.02313483
              13.88288775               -2.29977946               35.88354804                1.00000000                1.08093779                1.11861418               -3.79605391               -0.15380769               -1.47617217               -1.47191368
               4.26774052                2.91381023               37.73504286                1.00000000               -0.50668714               -0.66237009                2.03562094               -0.04113244                0.21628552                2.09226064
               5.26267365                2.52856524               37.51988824                0.66969283               -0.40176354               -0.40647683                1.44872475               -0.01639572                0.69951266               -0.99446778
               6.25970525                2.14170363               37.31449340                0.15678952                0.06419724               -0.14294687                0.95558781               -0.53001792                2.66285168               -3.00254635
               7.26395759                1.74375344               37.13849789                0.00010000                0.72673783               -0.20277241                0.44917705               -1.51296586                5.19943928               -2.40504119
               8.27424001                1.32519067               36.98277192                0.00010000                1.01188556               -0.71810838               -0.08589802               -2.49364279                7.66283334                0.29547196
               9.28419531                0.88315583               36.85443482                0.00010000                0.64963727               -0.32342985               -0.67340093               -3.04592429                9.16295331                0.95452814
              10.28723275                0.43108114               36.72713588                0.00010000                0.10992034                0.20641388               -1.25209450               -2.69704369                8.02893165                1.43176958
              11.28639371               -0.01380849               36.57522010                0.13765096                0.03025957                0.30345498               -1.78195511               -1.58137781                5.63584200                3.12523657
              12.28783794               -0.44608103               36.39991126                0.41233881                0.38093623                0.49072012               -2.30978550               -0.64652732                3.70494099                3.24719412
              13.29401244               -0.86926669               36.20944742                0.83620707                0.76389466                0.78072236               -2.83826168               -0.14987290                1.86302982                1.81188838
              14.30311584               -1.28859332               35.99713896                1.00000000                0.91033998                1.10859974               -3.40507147               -0.09257133                0.79229139               -1.77170717
               4.65122741                3.90738410               37.65835343                0.99681545               -0.41723240               -0.61138635                1.75238301               -0.05979450                0.20709411                2.30585603
               5.64705509                3.52514407               37.42316595                0.49031149               -0.36600362               -0.25947102                1.07521252               -0.04728014                1.04930545               -1.73558898
               6.64390734                3.14143525               37.20488100                0.03665054               -0.03708385                0.13878359                0.53699596               -0.91371957                5.14977937               -5.95988186
               7.64631341                2.74107950               37.05188344                0.00010000                0.71216452               -0.68569182                0.31046786               -3.09266275               12.15041087               -2.40668315
               8.65815063                2.31031761               36.97238126                0.00010000                1.26356967               -1.19137223               -0.25349977               -4.76292015               15.26239706                0.30283343
               9.67158480                1.87435076               36.87929109                0.00010000                1.25975187               -0.90752985               -0.70470183               -5.16653194               14.62926613                1.86672011
              10.68334566                1.43116381               36.78471298                0.00010000                1.20680490               -0.35849080               -1.13235782               -4.95799955               14.68119588                3.18600248
              11.69572090                0.98659694               36.69050931                0.03794798                1.03747763               -0.17177839               -1.55377582               -3.49557069               11.96869920                5.29799591
              12.70409522                0.55663333               36.53945189                0.21382737                0.79361527               -0.58849881               -1.83151625               -1.37814963                6.77899087                8.45171547
              13.71159321                0.13760115               36.33949222                0.50063562                0.77971850                0.38204565               -2.37338009               -0.42146555                2.60089731                3.05643052
              14.71968959               -0.27760747               36.10420625                0.87049982                0.80963821                1.30379722               -3.08260373               -0.34897394                0.85642248               -1.98087626
               5.03102469                4.90158251               37.57856254                0.97867647               -0.33478017               -0.54218478                1.48452936               -0.05284019                0.05639021                2.09111684
               6.02767689                4.52337582               37.32219082                0.46448977               -0.27646338               -0.12499101                0.74057611               -0.00610948                0.37975022               -1.90298280
               7.02549542                4.14447930               37.07236670                0.02432008                0.27725448                0.34302340                0.02988303               -1.70589634               10.12245792               -6.55476178
               8.03322198                3.73003960               37.01090421                0.00010000                1.01074605               -0.77674200               -0.13080932               -3.76370647               19.90383265               -1.41604996
               9.04571034                3.30136323               36.95450718                0.00010000                1.33982452               -0.80765420               -0.43393955               -4.72174429               20.62413199               -0.05240248
              10.06001847                2.86500524               36.90471921                0.00010000                1.50581197               -0.92139860               -0.75159011               -5.16454243               20.98851547                1.90397205
              11.07582658                2.42391133               36.85251768                0.00010000                1.54971529               -0.85145601               -1.03841847               -5.05485465               20.64996577                3.78884205
              12.09101278                1.98275594               36.79278923                0.04213365                1.67220760               -0.77202846               -1.27523958               -4.60709633               20.25324679                5.49020818
              13.10927074                1.54214900               36.72969832                0.21460218                1.44055741               -1.39472483               -1.25310133               -2.11686462               10.88194178                9.28311682
              14.11982392                1.13837423               36.47882152                0.48867056                0.86414257                0.04451876               -1.91391730               -0.11190783                0.80961075                3.06516316
              15.12655359                0.73748263               36.21283479                0.85830959                0.67296643                1.44448762               -2.72364145               -0.09255897                0.06788805               -1.82606441
               5.40658398                5.89654040               37.49786509                0.96695948               -0.25478810               -0.46485434                1.26172883               -0.04882998                0.04892003                2.05268542
               6.40403610                5.52264425               37.22194603                0.44895469               -0.17291800               -0.03441154                0.42549167                0.00857991                0.24407744               -1.83156356
               7.40312562                5.14829572               36.95001463                0.01753898                0.50596250                0.41234215               -0.37989140               -2.31168368               13.76294459               -5.83924363
               8.41415535                4.72554466               36.94439474                0.00010000                1.28122435               -0.27784715               -0.47936897               -4.82196561               27.18011368               -2.78797879
               9.42875011                4.29416453               36.93778796                0.00010000                1.57952501               -0.63252454               -0.64321498               -5.38416890               27.29423843               -0.17827659
              10.44574585                3.85592279               36.93096805                0.00010000                1.78738779               -0.90889010               -0.81766227               -5.66782072               27.39744364                1.93537747
              11.46449786                3.41413469               36.92258167                0.00010000                1.97977273               -1.10079690               -0.97167181               -5.63129433               27.39837503                4.00698518
              12.48534131                2.97115637               36.91178545                0.04851284                2.08208885               -1.30657322               -1.07286522               -5.28017136               26.83640536                6.25457353
              13.50613964                2.52873884               36.88811025                0.22406630                1.43400561               -1.21384590               -0.78443132               -2.57847277               13.66281366                7.03557469
              14.51402142                2.13849152               36.60937547                0.50198905                0.67409831                0.02333161               -1.50752042               -0.07091530                0.48879052                2.36757645
              15.51962161                1.75128229               36.32106161                0.86634545                0.56001899                1.26485733               -2.38974744               -0.02741786                0.02418450               -1.96359858
               5.77784040                6.89228542               37.41757587                0.95539608               -0.17472341               -0.38586739                1.03840527               -0.04765954                0.04583168                2.07519939
               6.77609317                6.52268759               37.12231431                0.43374474               -0.07395332                0.04195425                0.12090943                0.01404222                0.25092722               -1.77510195
               7.77636134                6.15272614               36.83118751                0.01094056                0.74103457                0.47611792               -0.76470450               -2.80140139               17.25565443               -5.58530479
               8.79091386                5.72448266               36.87587088                0.00010000                1.56437525                0.01460513               -0.78822121               -5.72905179               34.10166179               -2.88839880
               9.80764884                5.28871274               36.91785084                0.00010000                1.78890177               -0.45073970               -0.84195546               -6.19717296               34.07309209               -0.38833198
              10.82669189                4.84682743               36.95771555                0.00010000                2.01591391               -0.89308574               -0.90102113               -6.48133868               34.08702063                1.92424266
              11.84796712                4.40189539               36.99536941                0.00010000                2.20566537               -1.26934007               -0.94481821               -6.48498379               34.06651924                4.14341793
              12.87080520                3.95662448               37.03003997                0.05499714                2.11995020               -1.48488197               -0.94844421               -6.08460051               32.66450762                6.25595406
              13.89036612                3.51787208               37.03499936                0.23372159                1.25284824               -0.99485729               -0.33477961               -2.98457924               16.15180865                6.18781298
              14.89586217                3.13884086               36.73475737                0.51583843                0.50287919                0.03178660               -1.12588752               -0.07676896                0.47427223                1.94744730
              15.90042371                2.76277977               36.42523874                0.87486317                0.45615397                1.04667057               -2.08158092               -0.02807448                0.02530964               -2.24715327
               6.14482646                7.88882305               37.33755287                0.94390647               -0.09502350               -0.30657823                0.81525344               -0.04714609                0.04659783                2.08604073
               7.14387622                7.52348333               37.02312636                0.41860295                0.02380313                0.11741499               -0.18231081                0.01627605                0.28325356               -1.73416953
               8.14530252                7.15781808               36.71342840                0.00443295                0.98557503                0.54331725               -1.14117174               -3.20010998               20.70672923               -5.47892206
               9.16358772                6.72583676               36.80725099                0.00010000                1.85796790                0.24628867               -1.07865942               -6.52533973               40.92551729               -2.86610637
              10.18246188                6.28514973               36.89734226                0.00010000                1.96743508               -0.26525658               -1.03269964               -7.02493075               40.84378820               -0.43885181
              11.20293642                5.83806107               36.98451753                0.00010000                2.12696341               -0.82871038               -0.99515648               -7.33247660               40.83536905                1.86727234
              12.22500115                5.38874789               37.06909546                0.00010000                2.23680927               -1.30131509               -0.95336590               -7.34582896               40.78874082                4.16297194
              13.24767261                4.94145873               37.14991472                0.06163152                1.96152662               -1.51316019               -0.88835576               -6.64930833               38.19061443                6.47452385
              14.26423168                4.50884169               37.17747036                0.24346424                0.99528678               -0.83654437                0.10796542               -3.15426890               18.34136776                5.81317564
              15.26757834                4.13912726               36.85671008                0.52980337                0.34753064                0.01377236               -0.75759686               -0.07637140                0.48864399                1.68749605
              16.27118229                3.77221570               36.52647466                0.88339221                0.36039460                0.84940865               -1.78879981               -0.03010806                0.03041475               -2.42868515
               6.50757692                8.88615385               37.25763828                0.93243458               -0.01532621               -0.22689913                0.59093746               -0.04684265                0.04677674                2.07780384
               7.50742366                8.52503589               36.92418686                0.40356367                0.12143895                0.19374913               -0.48573140                0.01669979                0.32581533               -1.70815236
               8.51000570                8.16359249               36.59627446                0.00010000                1.28258735                0.61051970               -1.51479859               -3.52081735               24.15494094               -5.39114369
               9.53307541                7.72940843               36.73911744                0.00010000                2.24601065                0.42546405               -1.35524380               -7.08977182               47.71118930               -2.75232837
              10.55492592                7.28340760               36.87688491                0.00010000                2.16844001               -0.14172853               -1.21364518               -7.58581964               47.57275093               -0.44069206
              11.57644421                6.83025323               37.01107796                0.00010000                2.13634842               -0.70926243               -1.09225943               -7.83491087               47.60645292                1.72304531
              12.59765288                6.37586909               37.14342418                0.00010000                2.06405119               -1.18391916               -0.98582918               -7.90298100               47.69280089                4.04321892
              13.61772523                5.92636127               37.27339317                0.06839011                1.59796650               -1.44187810               -0.88263429               -6.92831161               43.54756943                6.75006471
              14.62961221                5.50114119               37.31751062                0.25334251                0.66177488               -0.71972114                0.54905562               -3.17388531               20.21608505                5.58608246
              15.63096073                5.13911631               36.97661986                0.54382035                0.20162235               -0.02462351               -0.39471140               -0.07562924                0.50697069                1.55379149
              16.63364466                4.77976795               36.62598344                0.89197213                0.26839314                0.66781724               -1.50349520               -0.03330343                0.03573861               -2.50084349
               6.86612554                9.88428507               37.17757170                0.92096677                0.06460437               -0.14680642                0.36423477               -0.04669032                0.05638119                2.06568056
               7.86677158                9.52735831               36.82534280                0.38862056                0.21940416                0.27238904               -0.79039287                0.01284534                0.39430734               -1.72049278
               8.87051362                9.17002847               36.47979559                0.00010000                1.76027926                0.67129106               -1.88603976               -3.81214674               27.67275263               -5.15090540
               9.90197717                8.73434604               36.67277490                0.00010000                2.96935346                0.33246711               -1.61324038               -7.29489895               54.49451821               -2.36587767
              10.92990069                8.28231516               36.85699979                0.00010000                2.58997765               -0.31022251               -1.37449814               -7.24071545               54.15781436               -0.37399168
              11.95377672                7.82387582               37.03616588                0.00010000                2.04663927               -0.53245441               -1.17746525               -7.28230326               54.29737943                1.38229427
              12.97083348                7.36506950               37.21609853                0.00010000                1.50287769               -0.72554569               -1.02472744               -7.60098670               54.83413092                3.45921792
              13.98383428                6.91262116               37.39971941                0.07537167                0.85827318               -1.07813609               -0.91393842               -6.93462086               48.90832755                6.58193916
              14.98799894                6.49444727               37.45583837                0.26335546                0.18023646               -0.62567535                0.99026487               -3.15807068               21.87964193                5.23918407
              15.98743900                6.13863479               37.09561632                0.55790551                0.06070004               -0.07883907               -0.03183835               -0.08358071                0.56094639                1.55580032
              16.98921294                5.78557204               36.72494942                0.90055203                0.17739372                0.49869421               -1.21922892               -0.03724835                0.05511110               -2.48941713
               7.22049663               10.88321773               37.09750867                0.90951106                0.14405343               -0.06726692                0.13654400               -0.04642713               -0.00721672                1.78817143
               8.22193717               10.53048367               36.72593470                0.37385253                0.31392030                0.35369335               -1.09925821               -0.00056119                0.62741609               -1.54406988
               9.22677504               10.17701831               36.36694198                0.00010000                2.64767868                0.70755600               -2.24203786               -4.28568634               31.50793994               -3.83925980
              10.27489074                9.73605778               36.61254699                0.00010000                4.69033952               -0.90682968               -1.83157664               -5.77077982               61.21390375               -1.37967430
              11.32058183                9.27720315               36.83893405                0.00010000                3.65765319               -0.72001793               -1.49678786               -4.96518897               60.33442758               -0.22637520
              12.34804380                8.81960414               37.05739390                0.00010000                1.81529908               -0.33977745               -1.22966334               -4.64765568               60.55675312                0.77893336
              13.35688781                8.36135818               37.28018582                0.00010000                0.08056249                0.07861310               -1.03655817               -5.31765531               61.99588067                2.06971431
              14.34965505                7.90479855               37.52092000                0.08255249               -0.82253150                0.28855162               -0.95172321               -5.40734678               54.50240349                4.55951418
              15.34043718                7.48862768               37.58915665                0.27355711               -0.57453562               -0.50632851                1.41675193               -3.24240130               23.81567999                3.71408593
              16.33816434                7.13753952               37.21530164                0.57204599               -0.07059989               -0.14536410                0.33749256               -0.10699741                0.85322210                1.42784429
              17.33902518                6.78974183               36.82401809                0.90911990                0.08608412                0.34505021               -0.93246555               -0.04502861               -0.00165461               -2.07511127
               7.57066511               11.88293973               37.01196511                0.95101556                0.22946613               -0.02779936               -0.11210369                0.16609318                0.84211085                1.51157907
               8.57295978               11.53443218               36.63035236                0.68215861                0.42803353                0.39485139               -1.39206223                0.16425409                2.22200684               -1.33734627
               9.57922579               11.18417959               36.27618791                0.49122760                5.67084753                0.71612845               -2.50640080               -5.66606171               35.86900845               -2.71340080
              10.68637673               10.71620945               36.56686215                0.44684897                8.39123826               -1.98483263               -1.97166194               -4.66464067               67.23590566               -0.85025464
              11.74705055               10.26791481               36.82403192                0.43646234                4.51459303               -0.92883488               -1.56008261               -2.30958653               65.66363198               -0.20353482
              12.77666859                9.81708027               37.07228451                0.44893295                1.61177031               -0.25238641               -1.22795458               -2.20117354               65.91744618                0.35980807
              13.77928596                9.36664177               37.32637975                0.48328691               -1.41253778                0.52835918               -0.98244588               -2.69458915               67.88289508                1.10243606
              14.74841783                8.91839220               37.60771289                0.54372981               -4.44380064                1.35936443               -0.88357934               -4.23977564               59.87824203                2.85748004
              15.69040994                8.48432070               37.69699716                0.64014864               -3.21164608               -0.43069860                1.73997157               -4.13595820               27.30934329                2.45982519
              16.68418491                8.13572750               37.33149787                0.79057340               -0.32510929               -0.18120193                0.69615682                0.00967444                2.78842856                1.26483939
              17.68390776                7.79247305               36.93072107                0.95727492               -0.02771519                0.27312178               -0.61210713                0.16281191                1.03977911               -1.66966040
               4.08141611                2.02381122               38.84265532                1.00000000               -0.63745189               -0.69380967                2.33962276               -0.11987320               -1.65989697                1.76970409
               5.07504159                1.61594004               38.62350897                0.90726299               -0.60629271               -0.47239686                1.76877639               -0.08042065               -1.95373062               -0.51889624
               6.06929026                1.20634638               38.39867229                0.63137777               -0.79585731               -0.25766032                1.12591762               -0.43186903               -1.65810610               -1.17289763
               7.05912444                0.78576549               38.18577950                0.50591936               -1.17231035               -0.13696938                0.53172312               -0.61916762                0.30899690               -0.17806484
               8.04584405                0.34250992               38.00129644                0.44895814               -1.13880874                0.05578372               -0.09086830               -0.55720219                2.86121197               -0.15915473
               9.03634827               -0.12558216               37.84062498                0.44870331               -0.38025328                0.24066265               -0.75682595               -0.31419488                4.03303137                0.02707805
              10.03823898               -0.60452887               37.68037043                0.50248056                0.60416116                0.41638590               -1.41072044               -0.33153959                2.87193766                0.19244079
              11.04843149               -1.07630872               37.49646499                0.61395628                1.10023749                0.58296587               -2.01959311               -0.40145231                0.50119657                0.29588917
              12.06024373               -1.53487435               37.28809832                0.79338618                1.13352847                0.72964288               -2.62028025               -0.31175616               -1.53976159                0.54527305
              13.07110206               -1.98412300               37.06249811                1.00000000                1.09578773                0.89602846               -3.25940528               -0.14421814               -1.95381872                1.04388670
              14.08215949               -2.43013888               36.84515854                1.00000000                1.10574244                1.14389660               -3.87742762               -0.15697671               -1.51719728               -1.48935354
               4.48808856                3.01687313               38.75553472                1.00000000               -0.51187560               -0.67743487                2.06385682               -0.04155723                0.23447844                2.13332143
               5.48296981                2.61121607               38.53443084                0.65154671               -0.40148590               -0.40420424                1.46050004               -0.02361998                0.76710207               -1.09130747
               6.48005884                2.20376978               38.32408882                0.15075010                0.09405968               -0.13108692                0.96361708               -0.58412943                2.77318608               -3.13581729
               7.48485100                1.78439579               38.14297172                0.00010000                0.79435042               -0.22764364                0.44431628               -1.61660880                5.28754869               -2.43598378
               8.49594585                1.34306776               37.98183035                0.00010000                1.09373604               -0.74602733               -0.10498885               -2.64463743                7.71054765                0.21051647
               9.50672572                0.87682446               37.84754841                0.00010000                0.71705077               -0.33746045               -0.70795148               -3.22956177                9.19487207                0.91027095
              10.51028687                0.39963498               37.71439515                0.00010000                0.14319944                0.21703762               -1.30073958               -2.87363977                8.10416319                1.43780932
              11.50958971               -0.07047907               37.55712771                0.13214562                0.03732209                0.31390849               -1.84001520               -1.70170639                5.75111392                3.15349394
              12.51103331               -0.52757792               37.37648950                0.40030048                0.38512196                0.49539644               -2.37573607               -0.69313342                3.82806492                3.36156045
              13.51729215               -0.97516272               37.18068899                0.81230241                0.77861475                0.79774874               -2.91220023               -0.16608788                1.96788748                1.89041035
              14.52660560               -1.41869992               36.96266884                1.00000000                0.93134561                1.14062227               -3.48598897               -0.10098451                0.87734544               -1.82619519
               4.89189908                4.01026253               38.67591803                0.98357361               -0.42265365               -0.62946580                1.77570371               -0.05791759                0.22145891                2.35350316
               5.88767254                3.60785596               38.43394140                0.47553487               -0.37355639               -0.25358401                1.08805527               -0.05863398                1.12724555               -1.85303364
               6.88442795                3.20372464               38.21022422                0.03308156               -0.00891252                0.16974622                0.53034532               -1.02806100                5.45441958               -6.26752645
               7.88749429                2.78121261               38.05498254                0.00010000                0.80473408               -0.71649162                0.30705346               -3.29933242               12.44486324               -2.63076732
               8.90052263                2.32758938               37.96967379                0.00010000                1.38477603               -1.24056084               -0.29113852               -5.03062914               15.44166668                0.13879166
               9.91518981                1.86766863               37.87200361                0.00010000                1.37735427               -0.94064517               -0.75700618               -5.48694134               14.88561846                1.77473869
              10.92806972                1.39981188               37.77309488                0.00010000                1.32102313               -0.36430088               -1.19608492               -5.28963895               14.95923533                3.17951350
              11.94161027                0.92996945               37.67460841                0.03467492                1.14974993               -0.16808735               -1.63143597               -3.77269300               12.33410048                5.38140793
              12.95106471                0.47503358               37.52081269                0.20630305                0.86460141               -0.65081497               -1.89871961               -1.50371886                7.10604118                8.72851253
              13.95890230                0.03183198               37.31539458                0.48448179                0.80747440                0.37929450               -2.44672241               -0.46197106                2.70972338                3.18952255
              14.96721420               -0.40732644               37.07296463                0.85862995                0.83119011                1.37275521               -3.16375021               -0.38208765                0.88050342               -2.05164915
               5.29174335                5.00428381               38.59354400                0.96609078               -0.34083432               -0.55717993                1.52321442               -0.04994374                0.06957067                2.16964590
               6.28833501                4.60614439               38.32957253                0.45071083               -0.28011922               -0.12176835                0.74167106               -0.01012207                0.40997818               -1.99382776
               7.28614097                4.20716470               38.07255097                0.02124191                0.33323055                0.37737110                0.00694610               -1.83953936               10.44704195               -6.86276527
               8.29499962                3.77006596               38.00937246                0.00010000                1.13681439               -0.77873579               -0.17686634               -4.00618169               20.43877207               -1.73954839
               9.30887725                3.31825654               37.94991232                0.00010000                1.48823857               -0.83718728               -0.48826992               -4.99689342               21.08596893               -0.23415428
              10.32476439                2.85801156               37.89689433                0.00010000                1.66580070               -0.95355470               -0.81766826               -5.47564060               21.46322727                1.79960451
              11.34219327                2.39234897               37.84179601                0.00010000                1.70748790               -0.87703220               -1.11109211               -5.37772837               21.17364327                3.76040146
              12.35891415                1.92615919               37.77971204                0.03882673                1.84515665               -0.78761063               -1.34604533               -4.96398830               20.93823377                5.55902747
              13.37909640                1.45940578               37.71675168                0.20730265                1.57492968               -1.49139580               -1.34368526               -2.32184850               11.36827286                9.55395516
              14.39041274                1.03242317               37.45932579                0.47351944                0.90921377                0.03566529               -1.98786829               -0.13475728                0.88991893                3.16704305
              15.39728068                0.60875519               37.18519625                0.84731368                0.68679348                1.53740160               -2.80398447               -0.09722974                0.06885806               -1.88642442
               5.68717904                5.99911893               38.51065705                0.95469944               -0.25898345               -0.47645561                1.29399655               -0.04917597                0.04880150                2.14494739
               6.68458921                5.60542059               38.22618552                0.43565557               -0.17317230               -0.03207234                0.42260323                0.01045975                0.26073869               -1.90991954
               7.68371559                5.21127207               37.94603345                0.01464899                0.58448056                0.43851292               -0.41533003               -2.45963089               14.15095505               -6.08741082
               8.69627882                4.76563790               37.93930610                0.00010000                1.44617839               -0.27166125               -0.53961127               -5.11071552               27.89691337               -3.03329682
               9.71263916                4.31084563               37.93101869                0.00010000                1.76528784               -0.65275071               -0.71363452               -5.69106897               27.98029059               -0.36409864
              10.73158457                3.84859753               37.92242997                0.00010000                1.98641784               -0.94403117               -0.89412809               -5.99352950               28.09400147                1.81769308
              11.75236752                3.38227123               37.91250717                0.00010000                2.18445606               -1.13823771               -1.04829505               -5.97063232               28.13960902                3.94879503
              12.77527369                2.91421723               37.90074372                0.04504859                2.29981187               -1.34385861               -1.14165422               -5.68135875               27.79844484                6.24719752
              13.79836376                2.44520566               37.87983663                0.21654345                1.57920260               -1.27759855               -0.87934688               -2.82400520               14.32545573                7.25079315
              14.80685775                2.03254528               37.59396032                0.48646285                0.71209133                0.02951775               -1.57938182               -0.09605092                0.57645022                2.43350153
              15.81260558                1.62342159               37.29677547                0.85511514                0.57478360                1.34182818               -2.46931001               -0.02675763                0.02654947               -2.04707094
               6.07815651                6.99475470               38.42808233                0.94348055               -0.17654457               -0.39549193                1.06364418               -0.04843794                0.04782057                2.16449058
               7.07639107                6.60550295               38.12346066                0.42087675               -0.07127346                0.04721663                0.10848440                0.01779736                0.26949116               -1.84962512
               8.07673104                6.21593496               37.82331108                0.00823399                0.84103400                0.49918678               -0.81053933               -2.96425206               17.72436290               -5.81720065
               9.09321175                5.76463273               37.86764372                0.00010000                1.76825990                0.01893572               -0.85849750               -6.05544063               34.99408659               -3.10140655
              10.11209624                5.30520153               37.90904057                0.00010000                2.01282258               -0.47213313               -0.92289690               -6.54139664               34.95550913               -0.55954869
              11.13346820                4.83913093               37.94830256                0.00010000                2.25323411               -0.93465817               -0.98527481               -6.83571923               34.98114133                1.79743193
              12.15716092                4.36958421               37.98554862                0.00010000                2.44421745               -1.31927757               -1.02367950               -6.84665886               34.99618127                4.05237580
              13.18235255                3.89928201               38.02027069                0.05138753                2.35636637               -1.52472375               -1.01027288               -6.52583157               33.91833951                6.18305425
              14.20428825                3.43385381               38.03124855                0.22592001                1.39616230               -1.03413570               -0.42396828               -3.26204048               17.01922730                6.39786088
              15.21027579                3.03301353               37.72318270                0.49991631                0.53523244                0.04568533               -1.19320867               -0.09942574                0.56567479                1.99899578
              16.21499290                2.63559175               37.40404207                0.86333924                0.47171065                1.10686643               -2.16052568               -0.02750128                0.02847430               -2.34952391
               6.46471379                7.99120909               38.34580305                0.93230680               -0.09488995               -0.31392631                0.83528690               -0.04797259                0.04817916                2.17555284
               7.46376489                7.60636492               38.02119694                0.40618394                0.02934875                0.12518482               -0.20350119                0.02039639                0.30538710               -1.80751625
               8.46530076                7.22125580               37.70173281                0.00193784                1.10692741                0.56663639               -1.19845544               -3.37994149               21.26398328               -5.70553836
               9.48590344                6.76601661               37.79607770                0.00010000                2.10061320                0.24772537               -1.15746641               -6.88815870               41.99423785               -3.06155154
              10.50731303                6.30140297               37.88658087                0.00010000                2.22920334               -0.29338868               -1.12206062               -7.40412738               41.90835523               -0.59790789
              11.53048750                5.82990437               37.97412752                0.00010000                2.39851167               -0.88048269               -1.08569739               -7.71314097               41.90579011                1.73783151
              12.55528326                5.35588568               38.05917198                0.00010000                2.49999818               -1.36143657               -1.03393214               -7.72087521               41.88108647                4.04692590
              13.58048747                4.88372276               38.14076622                0.05785373                2.20540851               -1.55462401               -0.94371156               -7.10323635               39.75294375                6.34690351
              14.59939143                4.42452295               38.17819757                0.23542791                1.13219104               -0.86039668                0.02848424               -3.44276870               19.44237743                6.02503852
              15.60313129                4.03345899               37.84884739                0.51344972                0.37538421                0.02983594               -0.81922313               -0.09439402                0.58121531                1.73435666
              16.60689912                3.64555892               37.50821269                0.87161429                0.37678268                0.89723540               -1.86712790               -0.02933037                0.03452807               -2.54064535
               6.84688540                8.98847617               38.26362278                0.92116335               -0.01331150               -0.23255687                0.60664774               -0.04772482                0.04838108                2.16517321
               7.84675228                8.60800664               37.91918284                0.39158783                0.12975634                0.20379281               -0.51524698                0.02046339                0.35266487               -1.78198633
               8.84948052                8.22726769               37.58078879                0.00010000                1.42745625                0.63503783               -1.58307720               -3.72055582               24.80685907               -5.61485437
               9.87530141                7.76958724               37.72513594                0.00010000                2.53227057                0.42075153               -1.44267066               -7.48515823               48.95926627               -2.93123860
              10.90012593                7.29933375               37.86427360                0.00010000                2.47106283               -0.18474581               -1.31067356               -7.98721104               48.81072117               -0.58321728
              11.92472266                6.82152128               37.99967951                0.00010000                2.43995475               -0.77512238               -1.18913002               -8.21893475               48.83568194                1.60066923
              12.94892503                6.34235548               38.13314243                0.00010000                2.34639455               -1.25206645               -1.07074559               -8.26539632               48.92147909                3.91506380
              13.97165055                5.86818953               38.26428150                0.06447268                1.83858083               -1.48955513               -0.93763999               -7.36315333               45.43239572                6.57825145
              14.98569665                5.41664587               38.32270082                0.24504321                0.78506917               -0.73314826                0.48098616               -3.45932333               21.57968399                5.80187727
              15.98735194                5.03361025               37.97241554                0.52705946                0.22548877               -0.00898077               -0.45035129               -0.08960547                0.60010717                1.60199121
              16.99020642                4.65353646               37.61057912                0.87991552                0.28544842                0.70638021               -1.58146481               -0.03244562                0.04084896               -2.61510461
               7.22469836                9.98655795               38.18127039                0.91005694                0.06842848               -0.15122311                0.37607425               -0.04770354                0.05824789                2.15102394
               8.22538264                9.61044078               37.81725278                0.37708570                0.23053463                0.28473262               -0.82792995                0.01542149                0.42745516               -1.79687216
               9.22930905                9.23395656               37.46054298                0.00010000                1.93757841                0.69682724               -1.96482659               -4.03846534               28.42851211               -5.36473979
              10.26413421                8.77443164               37.65617184                0.00010000                3.31628596                0.30399847               -1.70915578               -7.71588112               55.92963519               -2.51611835
              11.29563477                8.29770805               37.84274132                0.00010000                2.94764373               -0.38808683               -1.47878696               -7.62115205               55.56397472               -0.48697734
              12.32308708                7.81440192               38.02387397                0.00010000                2.38361570               -0.61685910               -1.28141871               -7.61676344               55.66926446                1.28303139
              13.34330708                7.33084435               38.20537257                0.00010000                1.79234630               -0.79460682               -1.11827180               -7.90068621               56.17109779                3.34191775
              14.35893401                6.85393166               38.39019824                0.07126904                1.07385849               -1.12707395               -0.98206770               -7.30661744               51.12269916                6.38684458
              15.36478425                6.40985998               38.46550010                0.25480460                0.27572930               -0.62978298                0.93448624               -3.43010255               23.52994670                5.45103700
              16.36444859                6.03327937               38.09506898                0.54071136                0.08067662               -0.06454198               -0.08166414               -0.09507976                0.65527518                1.61065820
              17.36639778                5.65968653               37.71238967                0.88821519                0.19491885                0.53035813               -1.29703765               -0.03650321                0.06165539               -2.60080962
               7.59816567               10.98545171               38.09891295                0.89888294                0.14964300               -0.07060618                0.14485112               -0.04750242               -0.00909925                1.86185178
               8.59966210               10.61370129               37.71471691                0.36270789                0.32773389                0.36830531               -1.14486608               -0.00054447                0.67484674               -1.61397207
               9.60472035               10.24120423               37.34408762                0.00010000                2.87850932                0.73085359               -2.32998359               -4.55597170               32.38909265               -3.99780279
              10.65723229                9.77566721               37.59372390                0.00010000                5.15061305               -1.02946615               -1.93474682               -6.12013904               62.84523822               -1.47148354
              11.70773261                9.29157202               37.82341905                0.00010000                4.10094004               -0.83927758               -1.60758685               -5.22875221               61.90068339               -0.29073484
              12.73925109                8.80918410               38.04454043                0.00010000                2.18244787               -0.43909491               -1.34071181               -4.84617218               62.05962605                0.72241878
              13.75138157                8.32646335               38.26927418                0.00010000                0.36257419                0.00732429               -1.14148617               -5.48981195               63.41305798                1.99670850
              14.74650258                7.84564806               38.51086177                0.07834884               -0.68173467                0.27100916               -1.04723671               -5.63778118               57.02570572                4.41330585
              15.73774688                7.40405021               38.60313047                0.26474468               -0.54393890               -0.49453781                1.37122085               -3.48653032               25.76288654                3.86777368
              16.73562380                7.03231941               38.21847488                0.55442886               -0.05424148               -0.13224826                0.29322468               -0.11933826                0.95864969                1.48299253
              17.73666205                6.66414362               37.81432617                0.89648640                0.10382505                0.37198397               -1.01047556               -0.04469442                0.00303784               -2.16570617
               7.96724914               11.98514583               38.01086002                0.94580635                0.23700861               -0.03058820               -0.10842903                0.17445215                0.87374140                1.57413035
               8.96961923               11.61780688               37.61617221                0.67673085                0.44872783                0.41055899               -1.44483413                0.16710235                2.34052434               -1.39852859
               9.97622370               11.24857363               37.25066799                0.49033322                6.08722088                0.73693956               -2.59911892               -6.04789375               36.90804733               -2.82606278
              11.09136364               10.75384232               37.54661362                0.44696938                9.06595686               -2.18248923               -2.07988267               -4.96942117               69.03812795               -0.90072271
              12.15754283               10.28092250               37.80785798                0.43660196                4.99543340               -1.06495186               -1.67634840               -2.43009262               67.36813162               -0.23854728
              13.19127231                9.80562002               38.05941757                0.44869339                1.97520255               -0.35640762               -1.34522382               -2.29446091               67.54619382                0.32797272
              14.19704689                9.33099084               38.31596526                0.48237553               -1.13403983                0.45274941               -1.09608413               -2.74687772               69.39932301                1.05889495
              15.16859152                8.85935184               38.59823109                0.54156935               -4.43322970                1.37037826               -0.99876409               -4.34218656               62.61047357                2.75205009
              16.10838229                8.39996923               38.71421072                0.63567294               -3.33115464               -0.40809879                1.69552231               -4.37233013               29.49605688                2.56569130
              17.10196842                8.03063441               38.33827523                0.78163222               -0.32634103               -0.16850020                0.65532372               -0.00768842                2.97563423                1.31671059
              18.10185547                7.66712621               37.92423766                0.95087161               -0.01129520                0.29825852               -0.68940908                0.16852226                1.08821726               -1.74034581
               4.28665483                2.13026677               39.86620617                1.00000000               -0.64700152               -0.70528241                2.37176759               -0.12318162               -1.69229653                1.82229932
               5.28018481                1.70105193               39.64128705                0.89674023               -0.61957931               -0.47452745                1.78696673               -0.08550286               -2.02356377               -0.58635914
               6.27426324                1.27000316               39.40993453                0.62726739               -0.82846301               -0.25678192                1.12599833               -0.45665014               -1.73982271               -1.17396452
               7.26361555                0.82718922               39.19102990                0.50475703               -1.22293053               -0.13584956                0.51694100               -0.64356715                0.24201688               -0.18698371
               8.24980463                0.36042886               39.00023422                0.44886883               -1.18175793                0.05947991               -0.12359156               -0.57679505                2.76811925               -0.16492515
               9.23998040               -0.13248594               38.83282103                0.44848113               -0.39418361                0.24685679               -0.80751821               -0.32494073                3.93790945                0.02572311
              10.24192096               -0.63716508               38.66596420                0.50105826                0.62509639                0.42779589               -1.47486415               -0.33811913                2.81576559                0.19518749
              11.25248232               -1.13487983               38.47593874                0.61009815                1.14091298                0.59977994               -2.08901887               -0.41071318                0.47828126                0.30198265
              12.26473922               -1.61905796               38.26155501                0.78525494                1.17297307                0.74937757               -2.68884389               -0.32200124               -1.57491318                0.54034797
              13.27594179               -2.09351734               38.02955308                1.00000000                1.12418616                0.91623836               -3.32642922               -0.15155303               -1.99891044                1.06209451
              14.28722294               -2.56458714               37.80599948                1.00000000                1.12811586                1.16638317               -3.94851663               -0.15897070               -1.55565701               -1.50471096
               4.71463785                3.12321395               39.77632000                1.00000000               -0.51762634               -0.69109445                2.09557270               -0.04297780                0.25227406                2.18181810
               5.70946159                2.69630666               39.54909824                0.63330547               -0.40048783               -0.40551136                1.47436719               -0.03348066                0.84070673               -1.18823595
               6.70662810                2.26743535               39.33376574                0.14468390                0.12527235               -0.11902931                0.97115659               -0.63922930                2.89093672               -3.27879512
               7.71196704                1.82583073               39.14738422                0.00010000                0.86230835               -0.25629063                0.43654828               -1.71330665                5.37551717               -2.47136064
               8.72387426                1.36102366               38.98067214                0.00010000                1.17804596               -0.77086856               -0.12908204               -2.78449194                7.75415724                0.11121626
               9.73552796                0.86998263               38.84027579                0.00010000                0.79312247               -0.35072240               -0.75122088               -3.40075487                9.21959712                0.85289818
              10.73973671                0.36711288               38.70112109                0.00010000                0.18968395                0.22591482               -1.35969989               -3.04300229                8.17438291                1.43247510
              11.73932164               -0.12888203               38.53841980                0.12656201                0.05506254                0.32602978               -1.90646929               -1.82371470                5.86578848                3.16834950
              12.74083796               -0.61156419               38.35239654                0.38816635                0.39346047                0.49996827               -2.44494825               -0.73911389                3.95239090                3.47235216
              13.74719084               -1.08435495               38.15120341                0.78845910                0.79325401                0.81360706               -2.98371002               -0.18325846                2.07419368                1.96676274
              14.75670304               -1.55292331               37.92741918                1.00000000                0.95121996                1.17096448               -3.56026598               -0.11000507                0.96382941               -1.87935301
               5.13960985                4.11644488               39.69386750                0.97027989               -0.43160497               -0.64887714                1.81431045               -0.06425817                0.24012377                2.41799175
               6.13529380                3.69294171               39.44492705                0.46077111               -0.38276332               -0.25257606                1.10619767               -0.07072058                1.20730480               -1.97435638
               7.13195459                3.26762258               39.21548791                0.02949153                0.02336534                0.19897122                0.52403543               -1.14350292                5.77177454               -6.59622543
               8.13576111                2.82206341               39.05802451                0.00010000                0.90041526               -0.74528260                0.29813838               -3.49710277               12.74394695               -2.88192588
               9.14996289                2.34501149               38.96655849                0.00010000                1.50574812               -1.28442088               -0.33514619               -5.27651047               15.61198503               -0.05056706
              10.16587607                1.86049961               38.86415097                0.00010000                1.49813388               -0.97058336               -0.81779520               -5.78934498               15.14017341                1.66001430
              11.17992557                1.36735322               38.76079128                0.00010000                1.44045130               -0.37029038               -1.26975678               -5.60569068               15.23205932                3.15501524
              12.19468510                0.87164077               38.65788059                0.03133031                1.27521497               -0.16583963               -1.72030396               -4.04558389               12.70169453                5.45349763
              13.20542987                0.39094140               38.50147750                0.19872988                0.94753199               -0.71158228               -1.97281083               -1.63507430                7.44038455                8.98759816
              14.21363574               -0.07724520               38.29055777                0.46839902                0.83648454                0.37521500               -2.52205199               -0.50611814                2.81733995                3.32046314
              15.22215956               -0.54116785               38.04093125                0.84683908                0.85238214                1.44333006               -3.24086190               -0.41792668                0.90332069               -2.12127840
               5.56035905                5.11023641               39.60902683                0.95347462               -0.34895625               -0.57719342                1.56770990               -0.05346630                0.06988340                2.25464540
               6.55686948                4.69125514               39.33702425                0.43691218               -0.28613565               -0.11919932                0.74970564               -0.01204819                0.43721032               -2.09406563
               7.55463633                4.27141477               39.07250562                0.01812301                0.38832957                0.40824091               -0.01474762               -1.96302508               10.77578895               -7.18674050
               8.56463607                3.81092508               39.00736689                0.00010000                1.26357594               -0.77279726               -0.22534441               -4.23661324               20.98133874               -2.09595437
               9.57990785                3.33533524               38.94474178                0.00010000                1.63816246               -0.86285929               -0.54897198               -5.25424787               21.55641781               -0.43785664
              10.59739932                2.85057096               38.88836584                0.00010000                1.82869456               -0.98155954               -0.89238019               -5.76834183               21.94326603                1.67765954
              11.61648174                2.35970707               38.83029584                0.00010000                1.87112255               -0.89976220               -1.19437441               -5.68595266               21.70521167                3.72114309
              12.63482177                1.86780118               38.76586832                0.03544701                2.02703504               -0.80495530               -1.42953132               -5.31036311               21.62043274                5.62927454
              13.65702244                1.37420417               38.70282462                0.19995587                1.71779811               -1.58417843               -1.45002295               -2.53247739               11.85640419                9.81094489
              14.66917774                0.92314935               38.43906416                0.45839563                0.95836924                0.02749182               -2.06795347               -0.16425212                0.98102319                3.26934039
              15.67618983                0.47594329               38.15675510                0.83634991                0.70120915                1.63314509               -2.88493677               -0.10246959                0.06898979               -1.94729950
               5.97650307                6.10490101               39.52374502                0.94240043               -0.26285888               -0.49035877                1.32462132               -0.05027442                0.05101515                2.23497829
               6.97387448                5.69055772               39.23039810                0.42225733               -0.17394592               -0.02857361                0.42020145                0.01355726                0.28001293               -1.99222775
               7.97302415                5.27578740               38.94170803                0.01173118                0.66169508                0.46340009               -0.44914995               -2.59605225               14.54438719               -6.34803520
               8.98710838                4.80660747               38.93360251                0.00010000                1.61039512               -0.26210755               -0.60207979               -5.38015377               28.62347844               -3.29421661
              10.00523205                4.32775430               38.92351527                0.00010000                1.95145121               -0.66878304               -0.78998403               -5.97733555               28.68078796               -0.56736523
              11.02613740                3.84086842               38.91308549                0.00010000                2.18721246               -0.97462172               -0.97906681               -6.29944892               28.80559070                1.68702320
              12.04897630                3.34935797               38.90161577                0.00010000                2.39216713               -1.17144877               -1.13552661               -6.29429456               28.89816715                3.88475037
              13.07398074                2.85554166               38.88895237                0.04153098                2.52279292               -1.37690583               -1.22372554               -6.07249261               28.75925214                6.24403626
              14.09943216                2.35925783               38.87052332                0.20890855                1.73154146               -1.33679055               -0.99283806               -3.07104051               14.99190053                7.47338868
              15.10861157                1.92330464               38.57778783                0.47096943                0.75450644                0.03921773               -1.65924318               -0.12791891                0.67994469                2.50448389
              16.11452229                1.49149505               38.27167541                0.84391895                0.59107117                1.42043948               -2.55305689               -0.02672782                0.02870832               -2.13267462
               6.38804015                7.10042923               39.43884876                0.93152910               -0.17859025               -0.40536770                1.08954811               -0.04959710                0.04904727                2.25780153
               7.38625425                6.69068366               39.12448400                0.40793002               -0.06873042                0.05265575                0.09644883                0.02166356                0.29001464               -1.92831571
               8.38666554                6.28068277               38.81497672                0.00551761                0.94059248                0.52211027               -0.85631914               -3.11617325               18.20164301               -6.06129343
               9.40506610                5.80568293               38.85870093                0.00010000                1.97173213                0.02530214               -0.93125021               -6.36035805               35.90088783               -3.32608678
              10.42610018                5.32195958               38.89939290                0.00010000                2.23702872               -0.48978772               -1.00949074               -6.86286384               35.85796954               -0.74299561
              11.44980667                4.83107853               38.93801006                0.00010000                2.49112134               -0.97138371               -1.07725709               -7.16788793               35.89876634                1.66146956
              12.47592261                4.33627810               38.97489582                0.00010000                2.68326970               -1.36326880               -1.11184183               -7.19037937               35.95484602                3.95891768
              13.50347206                3.84026307               39.00983451                0.04771292                2.59580233               -1.55778385               -1.08337672               -6.95422969               35.17867027                6.11931234
              14.52783866                3.34746835               39.02651999                0.21807167                1.54550394               -1.06838200               -0.53161827               -3.53817335               17.89335592                6.62402057
              15.53438214                2.92393370               38.71089320                0.48399126                0.57179012                0.06384550               -1.26909733               -0.12701618                0.67493096                2.05798738
              16.53927446                2.50435208               38.38202822                0.85187860                0.48923157                1.16853485               -2.24578971               -0.02716399                0.03204403               -2.45514803
               6.79500225                8.09679366               39.35425861                0.92067183               -0.09480480               -0.32196242                0.85641527               -0.04906831                0.04969311                2.26883454
               7.79405421                7.69161083               39.01905633                0.39370182                0.03495836                0.13283258               -0.22454876                0.02463245                0.33003763               -1.88514418
               8.79570142                7.28622960               38.68945929                0.00010000                1.22851025                0.59012292               -1.25642922               -3.54865431               21.83361441               -5.94422704
               9.81862441                6.80711351               38.78410166                0.00010000                2.34388741                0.25033015               -1.23928690               -7.22806177               43.08337955               -3.26708440
              10.84257917                6.31795855               38.87490105                0.00010000                2.49183560               -0.31883807               -1.21660147               -7.75880865               42.99895325               -0.76623573
              11.86846112                5.82144075               38.96280358                0.00010000                2.67025022               -0.92791855               -1.18245052               -8.06917979               43.00819748                1.60198434
              12.89598417                5.32209260               39.04841682                0.00010000                2.76223854               -1.41541657               -1.12086079               -8.07484473               43.01440783                3.92981030
              13.92370589                4.82438599               39.13104049                0.05401938                2.45069396               -1.58843909               -1.00495394               -7.54298558               41.33258943                6.22733356
              14.94499805                4.33789019               39.17804004                0.22730969                1.27408163               -0.87960785               -0.06940149               -3.72856198               20.55464109                6.25636723
              15.94918753                3.92458155               38.84032562                0.49711223                0.40720997                0.05004197               -0.88957820               -0.11610074                0.69321589                1.78907510
              16.95314225                3.51486574               38.48913210                0.85988613                0.39547259                0.94683954               -1.95335227               -0.02857904                0.03949402               -2.65688274
               7.19742444                9.09398998               39.26977124                0.90987926               -0.01134821               -0.23891411                0.62362876               -0.04879433                0.04982170                2.25694278
               8.19731095                8.69334032               38.91388192                0.37952665                0.13826718                0.21379791               -0.54502633                0.02445686                0.38280716               -1.86008210
               9.20018978                8.29248523               38.56461291                0.00010000                1.57324817                0.66026208               -1.65259185               -3.90936997               25.47522928               -5.84978791
              10.22877592                7.81068953               38.71026403                0.00010000                2.82034951                0.41611047               -1.53343192               -7.85776468               50.23404903               -3.11946118
              11.25659677                7.31558282               38.85067144                0.00010000                2.77565519               -0.22641894               -1.41214514               -8.36352433               50.08093724               -0.73287084
              12.28428902                6.81252016               38.98729536                0.00010000                2.74418534               -0.83826098               -1.29006725               -8.57717099               50.10415788                1.47353799
              13.31148048                6.30796977               39.12200927                0.00010000                2.62628688               -1.31582465               -1.15726076               -8.60394405               50.20095451                3.78436640
              14.33681476                5.80849428               39.25464037                0.06050335                2.07956882               -1.53041030               -0.99058633               -7.78193666               47.34688959                6.40696792
              15.35307185                5.32987620               39.32713034                0.23668986                0.91349085               -0.74259173                0.39563595               -3.74153305               22.96156896                6.03820472
              16.35508458                4.92493454               38.96761283                0.51031307                0.25313190                0.01035306               -0.51464570               -0.10599587                0.71291040                1.65777311
              17.35813449                4.52328887               38.59435414                0.86792449                0.30499154                0.74715233               -1.66822911               -0.03144691                0.04690291               -2.73416076
               7.59532570               10.09201538               39.18509319                0.89903543                0.07223964               -0.15624282                0.38914600               -0.04874436                0.06023534                2.24098993
               8.59604810                9.69588679               38.80878420                0.36541818                0.24195556                0.29722432               -0.86621194                0.01839711                0.46525069               -1.87755567
               9.60016481                9.29943484               38.44049905                0.00010000                2.11617183                0.72260063               -2.04528165               -4.25454749               29.20501726               -5.58958721
              10.63837153                8.81543572               38.63859179                0.00010000                3.66566221                0.27483994               -1.80848613               -8.11582626               57.39744274               -2.67410625
              11.67347805                8.31343017               38.82742405                0.00010000                3.30796106               -0.46555121               -1.58668683               -7.97889979               57.00796891               -0.60498906
              12.70453075                7.80467553               39.01053751                0.00010000                2.72265562               -0.70056217               -1.38701394               -7.92809441               57.08494700                1.18047222
              13.72793117                7.29577611               39.19373309                0.00010000                2.08149883               -0.86350540               -1.20865274               -8.17752991               57.56285361                3.22037874
              14.74616073                6.79377778               39.38007806                0.06715713                1.28979836               -1.17312311               -1.03554479               -7.66198115               53.38097362                6.17922347
              15.75372713                6.32303836               39.47452809                0.24620656                0.37471041               -0.63018271                0.86208841               -3.69896084               25.21132446                5.68230916
              16.75365494                5.92478861               39.09398304                0.52355981                0.10387623               -0.04707114               -0.13987892               -0.10862579                0.76922117                1.67259181
              17.75580466                5.52980879               38.69900867                0.87594563                0.21497209                0.56454247               -1.38411585               -0.03553939                0.06931680               -2.71714165
               7.98870672               11.09086513               39.10040570                0.88819226                0.15527095               -0.07435885                0.15431346               -0.04853874               -0.01106115                1.93979137
               8.99025943               10.69928480               38.70303738                0.35150504                0.34215912                0.38321154               -1.19175010               -0.00068408                0.72826180               -1.68792470
               9.99554990               10.30693724               38.32034231                0.00010000                3.11023192                0.75313810               -2.42035403               -4.81589827               33.29616552               -4.16522810
              11.05246407                9.81618633               38.57385205                0.00010000                5.61145293               -1.15100794               -2.04128000               -6.45438463               64.51499236               -1.56825494
              12.10777896                9.30627179               38.80678231                0.00010000                4.54585622               -0.95820814               -1.72151085               -5.47731192               63.50822344               -0.35750609
              13.14338119                8.79850891               39.03057966                0.00010000                2.55243317               -0.53950401               -1.45169033               -5.03088507               63.60785608                0.66454361
              14.15882763                8.29069966               39.25735609                0.00010000                0.64658448               -0.06692967               -1.23882023               -5.64746784               64.88018324                1.91991890
              15.15631288                7.78503182               39.49997527                0.07406769               -0.53729105                0.24583966               -1.11887304               -5.86029986               59.60751144                4.25083118
              16.14808181                7.31727254               39.61658107                0.25585068               -0.50856285               -0.47821664                1.31080966               -3.72394514               27.76202762                4.03525667
              17.14614163                6.92399312               39.22116614                0.53683482               -0.03492296               -0.11638035                0.24084786               -0.13385563                1.08404341                1.54390353
              18.14738335                6.53457972               38.80380858                0.88394052                0.12417194                0.40171835               -1.09816440               -0.04421045                0.00872263               -2.26083777
               8.37751557               12.09052820               39.00979653                0.94057510                0.24467266               -0.03369240               -0.10373716                0.18316691                0.90710664                1.64035905
               9.37996230               11.70355102               38.60145567                0.67127058                0.47148752                0.42662205               -1.49917302                0.16875668                2.46934372               -1.46338266
              10.38694532               11.31449761               38.22420553                0.48938376                6.49934967                0.75603631               -2.69395986               -6.41723164               37.97918661               -2.94563460
              11.50994929               10.79241556               38.52526450                0.44705653                9.73319546               -2.37707677               -2.19181757               -5.26305814               70.87901198               -0.95232652
              12.58160923               10.29426600               38.79050495                0.43672771                5.47679476               -1.20057883               -1.79605247               -2.54347890               69.11362995               -0.27346453
              13.61948518                9.79388545               39.04538004                0.44845908                2.34248365               -0.46234644               -1.46260198               -2.38102553               69.21973838                0.29672166
              14.62845890                9.29443751               39.30445807                0.48145604               -0.85516688                0.37378534               -1.20076574               -2.79641615               70.96118150                1.01370296
              15.60238185                8.79869457               39.58773760                0.53937305               -4.40859844                1.36627537               -1.08881240               -4.44127804               65.40522725                2.63367000
              16.54028693                8.31347402               39.73090761                0.63115123               -3.43555986               -0.37985187                1.63602992               -4.59116568               31.75282504                2.68125805
              17.53367065                7.92246101               39.34460434                0.77271610               -0.32698422               -0.15321130                0.60646985               -0.02864104                3.18865710                1.37332014
              18.53374725                7.53784316               38.91693289                0.94450742                0.00765993                0.32634396               -0.77667676                0.17460555                1.14045975               -1.81497523
               4.49740842                2.24002955               40.89009067                1.00000000               -0.65664646               -0.71813952                2.40665825               -0.12699190               -1.72516388                1.87901498
               5.49084195                1.78859048               40.65924830                0.88606991               -0.63287355               -0.47791301                1.80632521               -0.09161930               -2.09580311               -0.65806333
               6.48475095                1.33520467               40.42119225                0.62306503               -0.85884304               -0.25641716                1.12608633               -0.47960027               -1.82448542               -1.17310264
               7.47366509                0.86931718               40.19611832                0.50350719               -1.26678190               -0.13432059                0.50048247               -0.66447045                0.17204486               -0.19732892
               8.45941531                0.37833557               39.99882461                0.44877445               -1.21443068                0.06322411               -0.15970167               -0.59250935                2.66812543               -0.17165815
               9.44937648               -0.13997724               39.82447462                0.44825671               -0.39893627                0.25297179               -0.86419254               -0.33449971                3.83429270                0.02315624
              10.45143658               -0.67093890               39.65087315                0.49961404                0.65149125                0.43963037               -1.54747695               -0.34330439                2.75469034                0.19696437
              11.46240630               -1.19523119               39.45468461                0.60619053                1.18472736                0.61772652               -2.16680938               -0.41820462                0.45828630                0.30700448
              12.47513113               -1.70575044               39.23432144                0.77708248                1.21365399                0.76970743               -2.75986184               -0.33089174               -1.60053010                0.53293799
              13.48667938               -2.20618179               38.99596952                1.00000000                1.15111996                0.93496354               -3.38629187               -0.15870230               -2.03624831                1.07769635
              14.49815353               -2.70307249               38.76618820                1.00000000                1.14741464                1.18537464               -4.00623364               -0.15935596               -1.59023442               -1.51715339
               4.94757757                3.23284815               40.79744618                1.00000000               -0.52393679               -0.70570061                2.13030182               -0.04497827                0.27063307                2.23629425
               5.94233820                2.78381135               40.56391819                0.61498367               -0.39929855               -0.40738302                1.48950996               -0.04256869                0.92040198               -1.28755123
               6.93959160                2.33264050               40.34351196                0.13851452                0.15583699               -0.10722066                0.97779867               -0.69111722                3.01540089               -3.42935444
               7.94545494                1.86797397               40.15170268                0.00010000                0.92729132               -0.28628763                0.42593124               -1.80175692                5.46326120               -2.51264228
               8.95813742                1.37896781               39.97924871                0.00010000                1.26068897               -0.79135882               -0.15796017               -2.91004642                7.79081142               -0.00230859
               9.97066872                0.86255248               39.83252399                0.00010000                0.87465486               -0.36219498               -0.80249799               -3.55632010                9.23180110                0.78382355
              10.97563052                0.33345740               39.68720115                0.00010000                0.24806547                0.23381665               -1.42970677               -3.20308577                8.23493856                1.41809907
              11.97563003               -0.18905393               39.51899833                0.12089922                0.08334957                0.34110343               -1.98450649               -1.94795638                5.97779997                3.17047335
              12.97729751               -0.69805337               39.32759054                0.37596603                0.40616782                0.50539521               -2.51974061               -0.78570638                4.07886936                3.57919842
              13.98375338               -1.19683215               39.12101479                0.76461928                0.80765794                0.82811417               -3.05256796               -0.20247016                2.18222698                2.04001329
              14.99345067               -1.69121874               38.89146352                1.00000000                0.96972856                1.19922774               -3.62643411               -0.11965240                1.05092349               -1.93002440
               5.39458246                4.22591554               40.71220424                0.95701370               -0.43842249               -0.66744735                1.85097648               -0.06884094                0.25915145                2.48788632
               6.39019823                3.78044282               40.45606535                0.44598483               -0.39082384               -0.25096595                1.11971280               -0.07965271                1.29145630               -2.09595008
               7.38676598                3.33306026               40.22070493                0.02586578                0.05522048                0.22846358                0.51905458               -1.25644437                6.10114251               -6.94367183
               8.39130264                2.86359142               40.06094531                0.00010000                0.99349445               -0.77025521                0.28316979               -3.68082879               13.04492920               -3.15981630
               9.40663587                2.36250839               39.96297086                0.00010000                1.62289220               -1.32125871               -0.38509283               -5.49716615               15.77258176               -0.26498107
              10.42376049                1.85277886               39.85564770                0.00010000                1.61727051               -0.99611277               -0.88655928               -6.06820124               15.39015300                1.52397556
              11.43898128                1.33373743               39.74769975                0.00010000                1.55987293               -0.37550307               -1.35340478               -5.90117449               15.49597904                3.11421978
              12.45495795                0.81159087               39.64020233                0.02793522                1.41069735               -0.16365859               -1.82107333               -4.31079846               13.06999636                5.51609985
              13.46719523                0.30435746               39.48135648                0.19110055                1.04187046               -0.76838861               -2.05614221               -1.77396198                7.78003437                9.22692449
              14.47579535               -0.18961950               39.26495354                0.45236264                0.86692152                0.37060367               -2.60180455               -0.55480294                2.92205136                3.44770556
              15.48453366               -0.67908793               39.00814739                0.83512136                0.87383033                1.51418886               -3.31550374               -0.45544706                0.92459750               -2.18953210
               5.83714618                5.21949921               40.62489820                0.94078885               -0.35457570               -0.59594869                1.60402014               -0.05518133                0.06805329                2.34268086
               6.83360042                4.77879203               40.34456664                0.42305178               -0.29160381               -0.11632696                0.75721764               -0.01306074                0.46378565               -2.19775086
               7.83131410                4.33720977               40.07225602                0.01496202                0.43949024                0.43900000               -0.03509004               -2.07951100               11.10589777               -7.52703092
               8.84239023                3.85256887               40.00486557                0.00010000                1.38462781               -0.75859509               -0.27608331               -4.45143132               21.52736342               -2.48275323
               9.85900666                3.35254264               39.93893288                0.00010000                1.78427144               -0.88305936               -0.61568000               -5.49012837               22.03267277               -0.66294373
              10.87807566                2.84263023               39.87904673                0.00010000                1.98941805               -1.00425430               -0.97537365               -6.03799514               22.42626160                1.53844498
              11.89879502                2.32594734               39.81790852                0.00010000                2.03591852               -0.91855849               -1.28823910               -5.97373124               22.24114090                3.67133803
              12.91879403                1.80767290               39.75112141                0.03201804                2.21168150               -0.82295522               -1.52593016               -5.63876161               22.29414691                5.70198733
              13.94302865                1.28657886               39.68775122                0.19250730                1.86543469               -1.66897031               -1.57354394               -2.74609500               12.34388109               10.05285453
              14.95610272                0.81057992               39.41796672                0.44325166                1.01249664                0.02127101               -2.15596732               -0.20023142                1.08369664                3.37359535
              15.96327858                0.33906504               39.12749751                0.82544850                0.71758628                1.72914572               -2.96971314               -0.10794152                0.06785743               -2.01045993
               6.27489318                6.21399656               40.53714948                0.93008818               -0.26667278               -0.50510346                1.35581551               -0.05198834                0.05234621                2.32778730
               7.27222645                5.77811628               40.23458955                0.40889464               -0.17471280               -0.02568170                0.41820795                0.01533336                0.29977249               -2.08021881
               8.27139892                5.34184026               39.93705045                0.00876145                0.73573487                0.48740307               -0.48223295               -2.72319447               14.94088657               -6.62165718
               9.28694115                4.84841952               39.92726450                0.00010000                1.76865092               -0.24785084               -0.66658019               -5.62849791               29.35659505               -3.57082802
              10.30677194                4.34484721               39.91521901                0.00010000                2.13273653               -0.67934005               -0.87209974               -6.23929504               29.39301847               -0.78800778
              11.32959588                3.83269378               39.90284864                0.00010000                2.38460203               -0.99939976               -1.07254355               -6.58079970               29.52988905                1.54350354
              12.35446398                3.31536626               39.88979664                0.00010000                2.59776559               -1.19929099               -1.23385569               -6.59618199               29.67082849                3.81555003
              13.38155119                2.79513177               39.87626921                0.03796046                2.74511612               -1.40463775               -1.32052163               -6.44402275               29.71304325                6.24704914
              14.40936631                2.27097806               39.85997986                0.20124100                1.88766789               -1.38806831               -1.12492294               -3.31289138               15.66163036                7.70417888
              15.41930455                1.81080592               39.56077545                0.45545456                0.80191446                0.05277830               -1.74750344               -0.16598054                0.80276782                2.58270923
              16.42540460                1.35549498               39.24571434                0.83277991                0.61000448                1.49835306               -2.64330022               -0.02683565                0.03098319               -2.22232421
               6.70786697                7.20939714               40.44987329                0.91949975               -0.18035812               -0.41666300                1.11590813               -0.05092259                0.05031028                2.35507716
               7.70606339                6.77827840               40.12538964                0.39495638               -0.06600017                0.05739171                0.08485181                0.02496032                0.31251423               -2.01220980
               8.70654697                6.34695783               39.80618469                0.00273931                1.03749635                0.54474064               -0.90203343               -3.25688725               18.68587907               -6.31814798
               9.72681332                5.84761185               39.84901871                0.00010000                2.16997658                0.03461509               -1.00658277               -6.64069359               36.81979484               -3.56341332
              10.74994650                5.33895584               39.88885076                0.00010000                2.45636434               -0.50237457               -1.10191445               -7.15756967               36.77840609               -0.93889051
              11.77594061                4.82264223               39.92675741                0.00010000                2.72434434               -1.00175153               -1.17758745               -7.47272571               36.83828165                1.51686850
              12.80443339                4.30196152               39.96331179                0.00010000                2.91805842               -1.39989119               -1.21061548               -7.50957775               36.94013671                3.86471051
              13.83430178                3.77958014               39.99860316                0.04397479                2.83316439               -1.58341004               -1.17011863               -7.35895925               36.44029090                6.06924621
              14.86109668                3.25881749               40.02061618                0.21015987                1.69822042               -1.09690554               -0.65933053               -3.80559222               18.77455089                6.86821168
              15.86826618                2.81163549               39.69780076                0.46806274                0.61335296                0.08574705               -1.35358022               -0.15931992                0.80691762                2.12559313
              16.87336374                2.36903210               39.35912627                0.84047288                0.50975523                1.23001830               -2.33941450               -0.02676663                0.03652867               -2.56617629
               7.13611221                8.20566330               40.36293135                0.90899411               -0.09472447               -0.33083421                0.87879569               -0.05024442                0.05104916                2.36673698
               8.13516496                7.77926411               40.01670597                0.38115979                0.04077590                0.13993663               -0.24550255                0.02875617                0.35734226               -1.96795279
               9.13692773                7.35273507               39.67660422                0.00010000                1.34821559                0.61371682               -1.31482271               -3.70481292               22.41491269               -6.19576228
              10.16212927                6.84911182               39.77129197                0.00010000                2.58312214                0.25480201               -1.32437683               -7.54124090               44.19147041               -3.48379618
              11.18859017                6.33479972               39.86224884                0.00010000                2.75032036               -0.34012497               -1.31688359               -8.08431191               44.11469668               -0.94388794
              12.21713568                5.81265875               39.95047851                0.00010000                2.93721740               -0.96920575               -1.28662938               -8.39519472               44.14218813                1.46093543
              13.24733452                5.28736844               40.03675476                0.00010000                3.01901757               -1.46174932               -1.21631803               -8.40147275               44.18875297                3.81506597
              14.27751603                4.76346357               40.12066714                0.05014184                2.69323015               -1.61444100               -1.07548907               -7.95814964               42.92292929                6.12284284
              15.30119912                4.24903995               40.17680954                0.21915959                1.41937577               -0.89477899               -0.18696811               -4.00419146               21.67656071                6.50825823
              16.30590355                3.81252086               39.83105583                0.48081090                0.44384603                0.07364028               -0.96881337               -0.14122189                0.82959644                1.85208388
              17.31007604                3.38009535               39.46914564                0.84822462                0.41724911                0.99722876               -2.04904587               -0.02764447                0.04549834               -2.77905704
               7.55966046                9.20278045               40.27609536                0.89849815               -0.00937120               -0.24600051                0.64196355               -0.04989108                0.05134162                2.35337454
               8.55956675                8.78107713               39.90828231                0.36743428                0.14712714                0.22350460               -0.57516289                0.02842712                0.41671303               -1.94332201
               9.56260300                8.35923217               39.54773695                0.00010000                1.71785551                0.68501725               -1.72303952               -4.08475771               26.16004420               -6.09753266
              10.59392386                7.85270789               39.69446730                0.00010000                3.10551694                0.41248326               -1.62788704               -8.20250181               51.53505305               -3.31756968
              11.62471334                7.33215334               39.83603070                0.00010000                3.07720662               -0.26511577               -1.51890638               -8.70957594               51.38387975               -0.88938217
              12.65546799                6.80325812               39.97387817                0.00010000                3.04428863               -0.89658399               -1.39664721               -8.90427539               51.41363624                1.34358255
              13.68559911                6.27272653               40.10999721                0.00010000                2.89996419               -1.37316658               -1.24842554               -8.91388510               51.53420414                3.65581389
              14.71346727                5.74729132               40.24446977                0.05645565                2.31782234               -1.56411721               -1.04542808               -8.17810865               49.28450192                6.24670568
              15.73195556                5.24092191               40.33061354                0.22825084                1.04595351               -0.74922526                0.29046845               -4.01381976               24.35779684                6.29644329
              16.73438634                4.81310829               39.96212263                0.49360518                0.28531514                0.03285252               -0.58802781               -0.12481735                0.85062956                1.72129160
              17.73766186                4.38897667               39.57721453                0.85599367                0.32755192                0.78969529               -1.76508538               -0.03032089                0.05421530               -2.85917050
               7.97852103               10.20074329               40.18905331                0.88799572                0.07607573               -0.16181259                0.40361682               -0.04987717                0.06227669                2.33582609
               8.97928179                9.78373421               39.79992855                0.35377506                0.25403894                0.30971003               -0.90543540                0.02080507                0.50780746               -1.96342290
               9.98360181                9.36643542               39.41963734                0.00010000                2.29381410                0.74805123               -2.12739630               -4.45733655               30.00304400               -5.82613703
              11.02515807                8.85736149               39.62000212                0.00010000                4.01233068                0.24607554               -1.91153534               -8.48848680               58.89885724               -2.84014675
              12.06384842                8.32949740               39.81100758                0.00010000                3.66594530               -0.54061731               -1.69919136               -8.30891447               58.49159395               -0.72754321
              13.09847698                7.79472707               39.99613369                0.00010000                3.05875917               -0.78128375               -1.49605536               -8.21129266               58.54839029                1.07686243
              14.12502361                7.25990511               40.18119952                0.00010000                2.36407515               -0.92948924               -1.29821845               -8.42776650               59.01739279                3.09958673
              15.14575848                6.73218122               40.36948734                0.06300917                1.50410746               -1.21430968               -1.08179977               -7.99445542               55.67251798                5.97126867
              16.15510576                6.23405544               40.48274187                0.23750345                0.47969820               -0.62730399                0.77057768               -3.95811576               26.91434053                5.93556757
              17.15535244                5.81317791               40.09227140                0.50643155                0.13135520               -0.02660573               -0.20719492               -0.12376904                0.90820072                1.74194662
              18.15773286                5.39588925               39.68470736                0.86375160                0.23804166                0.60129848               -1.48185264               -0.03437800                0.07836408               -2.83951833
               8.39268109               11.19954420               40.10199922                0.87745122                0.16096394               -0.07859711                0.16501711               -0.04968963               -0.01329595                2.02203175
               9.39429072               10.78727133               39.69088191                0.34025877                0.35739514                0.39842171               -1.23997244               -0.00178505                0.78821516               -1.76633902
              10.39982899               10.37419319               39.29568054                0.00010000                3.34007065                0.77495394               -2.51201677               -5.06225662               34.23034007               -4.34043203
              11.46109214                9.85762940               39.55289830                0.00010000                6.06702426               -1.26952954               -2.15158058               -6.76829042               66.22449694               -1.67037126
              12.52116947                9.32134099               39.78898884                0.00010000                4.98711467               -1.07447363               -1.83948106               -5.70727453               65.15984283               -0.42627190
              13.56083443                8.78763244               40.01550663                0.00010000                2.92100769               -0.63866830               -1.56434936               -5.19836259               65.20759577                0.60667102
              14.57958963                8.25413675               40.24449778                0.00010000                0.92966997               -0.14220772               -1.33093163               -5.78689844               66.40986231                1.84453031
              15.57942783                7.72300513               40.48848431                0.06972669               -0.38965319                0.21596720               -1.17182757               -6.06364371               62.23617491                4.07840580
              16.57179656                7.22837584               40.62934666                0.24693535               -0.46753401               -0.45570680                1.23254534               -3.94813271               29.79937495                4.21860842
              17.57007715                6.81257618               40.22329184                0.51928790               -0.01224773               -0.09767546                0.17975016               -0.15046780                1.23437871                1.61100684
              18.57155161                6.40100264               39.79236289                0.87147672                0.14744586                0.43444126               -1.19670579               -0.04361827                0.01559365               -2.36134843
               8.80207298               12.19917135               40.00878528                0.93528529                0.25241154               -0.03728511               -0.09785465                0.19231853                0.94238384                1.71020805
               9.80459709               11.79170264               39.58618875                0.66578341                0.49628135                0.44313110               -1.55502507                0.16879419                2.60998935               -1.53192784
              10.81199861               11.38193449               39.19678879                0.48845023                6.90236855                0.77413009               -2.78997217               -6.76962533               39.08328923               -3.07033205
              11.94264447               10.83197090               39.50277727                0.44712682               10.38506434               -2.56585024               -2.30757471               -5.54109563               72.75921337               -1.00531010
              13.01969989               10.30800793               39.77193693                0.43684543                5.95347504               -1.33330633               -1.91978387               -2.64781793               70.90288901               -0.30778558
              14.06171397                9.78195370               40.03016553                0.44823694                2.71065285               -0.56787396               -1.58133597               -2.45939534               70.94521884                0.26694894
              15.07391295                9.25706095               40.29194995                0.48051980               -0.57337230                0.29242020               -1.29903474               -2.84032445               72.58192324                0.97110570
              16.05024652                8.73650057               40.57645484                0.53715972               -4.36704473                1.34954381               -1.15475833               -4.52411339               68.25866638                2.50503019
              16.98657205                8.22494131               40.74693132                0.62660354               -3.52651199               -0.34345300                1.55853040               -4.78625940               34.06684176                2.80783834
              17.97971628                7.81122440               40.35040463                0.76380150               -0.32822452               -0.13517800                0.54943998               -0.05424831                3.43285653                1.43504322
              18.98000756                7.40457808               39.90870413                0.93821213                0.02912845                0.35754367               -0.87440948                0.18096374                1.19699476               -1.89416232
               4.71383629                2.35313606               41.91433933                1.00000000               -0.66691183               -0.73097964                2.44408840               -0.13149467               -1.75746941                1.93923577
               5.70716717                1.87855090               41.67741355                0.87547568               -0.64663857               -0.48123173                1.82738748               -0.09804947               -2.16956711               -0.73418212
               6.70090352                1.40190171               41.43245626                0.61886282               -0.88715366               -0.25661301                1.12750923               -0.49903868               -1.91176625               -1.16934321
               7.68942410                0.91207393               41.20103955                0.50225469               -1.30463364               -0.13230281                0.48441719               -0.68057063                0.09811166               -0.20875188
               8.67481084                0.39614748               40.99704019                0.44866506               -1.24031934                0.06837476               -0.19763884               -0.60394084                2.55990490               -0.17905518
               9.66461771               -0.14812156               40.81553718                0.44803719               -0.40030354                0.26075797               -0.92462115               -0.34208005                3.71879386                0.01941889
              10.66680477               -0.70588179               40.63501466                0.49817581                0.67910223                0.45300516               -1.62693708               -0.34664235                2.68228306                0.19785318
              11.67819975               -1.25736716               40.43260255                0.60224544                1.23194698                0.63768907               -2.25565648               -0.42393072                0.43449123                0.31175157
              12.69144371               -1.79493739               40.20635778                0.76887806                1.25751532                0.79221347               -2.84050440               -0.33882180               -1.61631328                0.52284215
              13.70335006               -2.32205395               39.96182724                1.00000000                1.17685890                0.95152456               -3.43813064               -0.16593957               -2.06128247                1.08957713
              14.71498089               -2.84548085               39.72587481                1.00000000                1.16308299                1.19978659               -4.04754570               -0.15837393               -1.61809738               -1.52530574
               5.18710650                3.34582626               41.81892604                1.00000000               -0.53026479               -0.71927352                2.16510194               -0.04704921                0.28870316                2.29554638
               6.18180385                2.87373859               41.57888844                0.59661594               -0.39774404               -0.40883276                1.50378837               -0.05178082                1.00588674               -1.38938049
               7.17915162                2.39933558               41.35332171                0.13232876                0.18458258               -0.09483138                0.98353475               -0.73968604                3.14640960               -3.58583354
               8.18549550                1.91075090               41.15590284                0.00010000                0.98587807               -0.31848651                0.41343950               -1.87673388                5.54970401               -2.56004947
               9.19886918                1.39683123               40.97751294                0.00010000                1.33580211               -0.80598906               -0.19047383               -3.01817963                7.81881592               -0.12915988
              10.21221154                0.85448602               40.82422583                0.00010000                0.95459853               -0.37110229               -0.85855977               -3.69252143                9.22782320                0.70419368
              11.21796115                0.29864826               40.67252695                0.00010000                0.31383509                0.24060151               -1.50781951               -3.34952685                8.27807575                1.39727318
              12.21848825               -0.25099027               40.49872967                0.11522999                0.12188691                0.36034238               -2.07520763               -2.07174860                6.08085093                3.16282222
              13.22039889               -0.78701525               40.30200173                0.36372755                0.42370753                0.51282943               -2.60508591               -0.83563989                4.20701436                3.68335047
              14.22696240               -1.31253870               40.09015206                0.74079176                0.82125815                0.84054697               -3.11683904               -0.22659696                2.29243186                2.10737813
              15.23682405               -1.83348298               39.85489049                1.00000000                0.98616542                1.22441821               -3.68206579               -0.13028186                1.13660599               -1.97848915
               5.65707066                4.33875059               41.73088703                0.94369307               -0.44484222               -0.68407380                1.88370209               -0.07379802                0.27972856                2.56430589
               6.65262224                3.87037425               41.46732131                0.43117318               -0.39865890               -0.24813328                1.13000373               -0.08809915                1.37922451               -2.21951956
               7.64909748                3.40000508               41.22586900                0.02221054                0.08857635                0.25965282                0.51247182               -1.36831552                6.43956246               -7.30683391
               8.65439377                2.90570420               41.06368790                0.00010000                1.08073244               -0.79000417                0.26125409               -3.84831983               13.34497022               -3.46210593
               9.67071213                2.38002770               40.95885664                0.00010000                1.72782411               -1.35015071               -0.43915453               -5.68684164               15.92272071               -0.50406937
              10.68895025                1.84445639               40.84641978                0.00010000                1.72891972               -1.01735439               -0.96135531               -6.31800455               15.63345068                1.36705317
              11.70529053                1.29893024               40.73372319                0.00010000                1.67390250               -0.38056594               -1.44505421               -6.16739907               15.74812161                3.05888213
              12.72242830                0.74983968               40.62145912                0.02450734                1.54944106               -0.16178394               -1.93005647               -4.56186398               13.43481106                5.57017686
              13.73627935                0.21531920               40.46035466                0.18341458                1.14287784               -0.81734404               -2.14609259               -1.92134125                8.12040295                9.44531651
              14.74528585               -0.30524301               40.23852168                0.43637215                0.89922327                0.36690214               -2.68908855               -0.60843524                3.01998325                3.57186699
              15.75426381               -0.82099249               39.97462117                0.82351139                0.89779580                1.58250630               -3.39594058               -0.49188066                0.94343026               -2.25678954
               6.12238322                5.33214479               41.64110723                0.92814056               -0.35958463               -0.61344632                1.63655850               -0.05692801                0.06589688                2.43633092
               7.11878738                4.86877592               41.35216860                0.40920641               -0.29639321               -0.11219521                0.76177824               -0.01347196                0.48977827               -2.30555382
               8.11645536                4.40452863               41.07180382                0.01177116                0.48595536                0.47102474               -0.05668688               -2.18778308               11.43463127               -7.88256766
               9.12850648                3.89495081               41.00184522                0.00010000                1.49623958               -0.73332163               -0.32929194               -4.65112317               22.07386588               -2.89757263
              10.14638015                3.36982822               40.93242818                0.00010000                1.92212145               -0.89757199               -0.68771488               -5.70078646               22.51276992               -0.90957598
              11.16694891                2.83413893               40.86885837                0.00010000                2.14248630               -1.02142929               -1.06546003               -6.27919819               22.91085238                1.38110751
              12.18922988                2.29103695               40.80453106                0.00010000                2.19565472               -0.93322678               -1.39132020               -6.23415557               22.77993839                3.61017049
              13.21086201                1.74577405               40.73534972                0.02854656                2.39124410               -0.84193907               -1.63393042               -5.93844977               22.95564699                5.77555074
              14.23705476                1.19663787               40.67135374                0.18498929                2.01216867               -1.74213766               -1.71241129               -2.95477706               12.83080586               10.28023809
              15.25110538                0.69479934               40.39594481                0.42815169                1.07153149                0.01838998               -2.25138080               -0.24120614                1.20031830                3.48459032
              16.25848539                0.19816714               40.09736084                0.81458436                0.73800074                1.82061438               -3.06305380               -0.11320100                0.06530452               -2.07716460
               6.58266984                6.32648166               41.55086133                0.91770541               -0.27008842               -0.51979464                1.38650431               -0.05361010                0.05323023                2.42499290
               7.57996895                5.86813034               41.23876226                0.39546760               -0.17514553               -0.02264326                0.41579673                0.01748336                0.31985671               -2.17399891
               8.57916693                5.40942558               40.93206337                0.00576155                0.80513835                0.51187023               -0.51562049               -2.83969441               15.33830753               -6.90908036
               9.59607172                4.89103776               40.92027091                0.00010000                1.91706804               -0.22818094               -0.73354332               -5.85299333               30.09368324               -3.86400537
              10.61750829                4.36207626               40.90607327                0.00010000                2.30429180               -0.68381432               -0.95976189               -6.47302520               30.11491352               -1.02688184
              11.64215756                3.82402781               40.89163462                0.00010000                2.57320042               -1.01764514               -1.17431053               -6.83240967               30.26545308                1.38573035
              12.66897230                3.28026571               40.87693866                0.00010000                2.79504123               -1.22113814               -1.34323446               -6.86885884               30.45542876                3.73970490
              13.69805838                2.73300090               40.86254194                0.03429499                2.95931106               -1.42619952               -1.43198692               -6.78388908               30.65709411                6.25480824
              14.72815852                2.18047645               40.84802486                0.19349660                2.04370389               -1.43174756               -1.27510961               -3.53993989               16.33785197                7.94492298
              15.73893246                1.69512479               40.54283776                0.44000091                0.85528344                0.06829274               -1.84225471               -0.20758118                0.94978159                2.67006814
              16.74526419                1.21541980               40.21880940                0.82171429                0.63317274                1.57150516               -2.74225134               -0.02706844                0.03405426               -2.31765224
               7.03801366                7.32174890               41.46116692                0.90747273               -0.18205300               -0.42876625                1.14359130               -0.05237523                0.05136554                2.45718596
               8.03619313                6.86832305               41.12618103                0.38196598               -0.06298057                0.06143835                0.07330218                0.02881878                0.33672267               -2.10269295
               9.03675405                6.41476604               40.79693605                0.00010000                1.13013992                0.56682627               -0.94855952               -3.38445552               19.17593561               -6.58904418
              10.05879593                5.89038720               40.83856927                0.00010000                2.35877764                0.04756162               -1.08494630               -6.89383159               37.74874601               -3.81513207
              11.08392960                5.35615193               40.87735461                0.00010000                2.66576723               -0.50877101               -1.20053310               -7.42114461               37.71515221               -1.14858848
              12.11211128                4.81378603               40.91445831                0.00010000                2.94749999               -1.02445498               -1.28694058               -7.74481669               37.79837148                1.36245732
              13.14287960                4.26661418               40.95068351                0.00010000                3.14311046               -1.42786094               -1.32135103               -7.79688316               37.95049567                3.76924217
              14.17497348                3.71725006               40.98643214                0.04019406                3.06262359               -1.60123379               -1.27233100               -7.72799715               37.69968008                6.03403369
              15.20413208                3.16800292               41.01333338                0.20215799                1.85184606               -1.12092226               -0.80745453               -4.05514017               19.66692311                7.13008824
              16.21201041                2.69616519               40.68382160                0.45222516                0.66109596                0.10882844               -1.44528411               -0.19473915                0.96834412                2.20113450
              17.21735399                2.22959724               40.33523993                0.82914877                0.53435887                1.28882717               -2.44287324               -0.02637495                0.04207702               -2.68432335
               7.48847401                8.31790634               41.37183453                0.89726816               -0.09458295               -0.34066864                0.90269205               -0.05153776                0.05235630                2.46943268
               8.48752818                7.86935911               41.01414628                0.36858982                0.04698305                0.14641212               -0.26664062                0.03331264                0.38772989               -2.05718716
               9.48941367                7.42076210               40.66316284                0.00010000                1.46405062                0.63677080               -1.37383526               -3.84592467               23.00744428               -6.46162008
              10.51680920                6.89198900               40.75761412                0.00010000                2.81364446                0.26203944               -1.41333092               -7.82369804               45.31716931               -3.71334540
              11.54568656                6.35190084               40.84856337                0.00010000                2.99948868               -0.35577471               -1.42375736               -8.37581950               45.25468515               -1.13202664
              12.57679897                5.80353871               40.93707100                0.00010000                3.19420187               -1.00247028               -1.39978938               -8.68541983               45.30739377                1.31439138
              13.60957060                5.25170849               41.02409046                0.00010000                3.26553669               -1.49864492               -1.32290251               -8.69345655               45.40358537                3.70373232
              14.64210970                4.70097623               41.10953071                0.04620769                2.92849890               -1.63209327               -1.15977159               -8.33677466               44.52027008                6.03794369
              15.66814058                4.15805800               41.17430068                0.21090589                1.56668217               -0.90650944               -0.32663529               -4.26160041               22.81126255                6.78100700
              16.67344335                3.69730136               40.82094935                0.46452928                0.48660019                0.09898032               -1.05669676               -0.16879469                0.99720826                1.92188142
              17.67787258                3.24119634               40.44815118                0.83664073                0.44292358                1.04732509               -2.15564795               -0.02645175                0.05292181               -2.90911390
               7.93407736                9.31493552               41.28261051                0.88709255               -0.00737414               -0.25391511                0.66197264               -0.05108565                0.05289180                2.45457106
               8.93400362                8.87125130               40.90237866                0.35525820                0.15641540                0.23298109               -0.60601901                0.03289776                0.45515578               -2.03275646
               9.93720567                8.42750146               40.53015212                0.00010000                1.85898029                0.71032060               -1.79482540               -4.24424340               26.86160314               -6.35895530
              10.97118323                7.89562798               40.67770629                0.00010000                3.38289154                0.41063948               -1.72663061               -8.51478878               52.86164045               -3.52687979
              12.00486350                7.34903644               40.82029331                0.00010000                3.37060023               -0.29898386               -1.63219633               -9.01997848               52.71981039               -1.05338875
              13.03859523                6.79373662               40.95936242                0.00010000                3.33547248               -0.94771948               -1.51112168               -9.19437516               52.76520157                1.21144270
              14.07157295                6.23664128               41.09704076                0.00010000                3.16466216               -1.42206068               -1.34811161               -9.18868283               52.92386014                3.53329312
              15.10188848                5.68460819               41.23373181                0.05240111                2.55009923               -1.58938066               -1.10829250               -8.54047618               51.23784085                6.10381280
              16.12257494                5.14987273               41.33293971                0.21976824                1.18038477               -0.75207095                0.16272559               -4.26870435               25.76725185                6.57649478
              17.12549617                4.69814480               40.95585228                0.47690560                0.32300238                0.05784890               -0.67106246               -0.14594307                1.02031551                1.79109834
              18.12903498                4.25054375               40.55905243                0.84413721                0.35388132                0.83368630               -1.87395127               -0.02873310                0.06327333               -2.99226892
               8.37482075               10.31282804               41.19316552                0.87691490                0.07994548               -0.16808669                0.41958525               -0.05102756                0.06430773                2.43538283
               9.37562021                9.87401873               40.79067550                0.34204192                0.26656837                0.32232622               -0.94579369                0.02396352                0.55648862               -2.05512933
              10.38015212                9.43496851               40.39795113                0.00010000                2.46791166                0.77378501               -2.21101745               -4.64411500               30.82344564               -6.07467694
              11.42497844                8.90020179               40.60036108                0.00010000                4.35131193                0.21878834               -2.01898573               -8.82924319               60.43373006               -3.01514191
              12.46717836                8.34592117               40.79344022                0.00010000                4.01640898               -0.61097179               -1.81773841               -8.60567381               60.01630015               -0.85484694
              13.50530662                7.78458432               40.98061640                0.00010000                3.38735078               -0.85630639               -1.61124562               -8.46124777               60.06340654                0.97325185
              14.53492537                7.22326728               41.16776872                0.00010000                2.63810591               -0.99007233               -1.39139810               -8.64607353               60.54038515                2.98430684
              15.55806874                6.66918861               41.35844206                0.05873269                1.71522566               -1.24878765               -1.12862779               -8.29758323               57.99373564                5.77303919
              16.56922989                6.14301659               41.48993965                0.22876106                0.58923649               -0.62087296                0.65660162               -4.20217163               28.63560218                6.21114942
              17.56985347                5.69845834               41.08983914                0.48935058                0.16350701               -0.00323877               -0.28453459               -0.14148550                1.07881988                1.81772444
              18.57250003                5.25787007               40.66937162                0.85163936                0.26465594                0.64061171               -1.59192071               -0.03291976                0.08914698               -2.96971505
               8.81067542               11.31157379               41.10370604                0.86666853                0.16669946               -0.08338931                0.17709682               -0.05081887               -0.01561677                2.10847833
               9.81234242               10.87769782               40.67823793                0.32893418                0.37324485                0.41400327               -1.28971810               -0.00291339                0.85678296               -1.84967765
              10.81814032               10.44297716               40.27010198                0.00010000                3.56516479                0.79529764               -2.60503788               -5.29118023               35.19309640               -4.52429973
              11.88364571                9.90000375               40.53082044                0.00010000                6.51135880               -1.38251813               -2.26615506               -7.05765902               67.97394433               -1.77823813
              12.94836749                9.33681700               40.76999269                0.00010000                5.41892280               -1.18535325               -1.96292267               -5.91464354               66.85791631               -0.49708655
              13.99202417                8.77661049               40.99929267                0.00010000                3.28398453               -0.73388516               -1.68146922               -5.34536168               66.86439601                0.54975617
              15.01404718                8.21683984               41.23073746                0.00010000                1.20816668               -0.21559915               -1.42230848               -5.90476827               68.01293399                1.77172992
              16.01618750                7.65963244               41.47653872                0.06534830               -0.23927012                0.18327574               -1.21260873               -6.24397503               64.90547854                3.90833364
              17.00926178                7.13745527               41.64123197                0.23792999               -0.41872630               -0.42775512                1.13239255               -4.15541634               31.86551135                4.41792236
              18.00781298                6.69808002               41.22476114                0.50179746                0.01456677               -0.07610282                0.10901614               -0.16988925                1.41622953                1.68390110
              19.00955312                6.26335598               40.77987447                0.85911466                0.17401428                0.47036812               -1.30733951               -0.04299787                0.02386789               -2.46818831
               9.24155631               12.31116025               41.00783943                0.93000670                0.26022630               -0.04135383               -0.09064161                0.20194342                0.97953100                1.78379975
              10.24415857               11.88229880               40.57035517                0.66025475                0.52331380                0.46009761               -1.61264661                0.16732632                2.76418768               -1.60464551
              11.25202258               11.45087447               40.16840609                0.48747041                7.29134212                0.78973102               -2.88732527               -7.09914213               40.22307468               -3.20212436
              12.38998541               10.87255142               40.47911300                0.44717479               11.01280800               -2.74523285               -2.42733625               -5.79904805               74.67953028               -1.05935653
              13.47227874               10.32221410               40.75210927                0.43697496                6.41955673               -1.46029005               -2.04861484               -2.74111545               72.73844428               -0.34134739
              14.51837655                9.76990661               41.01375332                0.44800434                3.07646585               -0.67038798               -1.70368548               -2.52770234               72.72803369                0.23959313
              15.53380806                9.21895529               41.27847737                0.47954812               -0.29013711                0.21154542               -1.39538886               -2.87653663               74.27603651                0.93112561
              16.51257381                8.67285413               41.56464244                0.53494484               -4.30670426                1.32216886               -1.19987434               -4.58605997               71.15448697                2.37713894
              17.44767398                8.13446148               41.76207822                0.62203629               -3.60094182               -0.29937857                1.45974486               -4.95467316               36.42433292                2.94524009
              18.44055497                7.69693628               41.35559314                0.75493613               -0.32929104               -0.11437449                0.48387551               -0.08500302                3.71596470                1.50180272
              19.44108816                7.26727743               40.89944470                0.93193556                0.05331854                0.39214526               -0.98321331                0.18761916                1.25838405               -1.97836279
               4.93611059                2.46964086               42.93897244                1.00000000               -0.67769027               -0.74294786                2.48357925               -0.13675493               -1.78898548                2.00116324
               5.92933369                1.97095707               42.69579605                0.86472363               -0.66104840               -0.48410846                1.85114345               -0.10504147               -2.24479959               -0.81477274
               6.92288962                1.47008689               42.44374244                0.61459970               -0.91451459               -0.25758060                1.13144872               -0.51549992               -2.00169446               -1.16218776
               7.91104340                0.95541556               42.20580667                0.50094999               -1.33869196               -0.12909268                0.46964607               -0.69245713                0.01881769               -0.22107720
               8.89611578                0.41380896               41.99487183                0.44852323               -1.26327571                0.07592059               -0.23631602               -0.61158965                2.44187841               -0.18709439
               9.88577788               -0.15696617               41.80598220                0.44782043               -0.40494561                0.27199205               -0.98697357               -0.34744024                3.59039521                0.01468002
              10.88801687               -0.74200642               41.61833441                0.49674013                0.69875650                0.47007602               -1.71063521               -0.34707867                2.59473581                0.19778949
              11.89975301               -1.32125040               41.40957149                0.59829521                1.27816531                0.65963421               -2.35342032               -0.42682771                0.39836929                0.31644463
              12.91358018               -1.88658150               41.17751136                0.76063387                1.30918441                0.81982592               -2.94313358               -0.34595061               -1.62889617                0.51304586
              13.92593670               -2.44103988               40.92720691                0.99796081                1.20581299                0.96608516               -3.49772489               -0.17376821               -2.07072912                1.08614113
              14.93769644               -2.99160997               40.68523729                1.00000000                1.17597366                1.20750830               -4.09248943               -0.15606111               -1.62189736               -1.54257604
               5.43342683                3.46221138               42.84074822                1.00000000               -0.53665729               -0.73101984                2.19729144               -0.04964474                0.30595473                2.35805578
               6.42806026                2.96611599               42.59399395                0.57823224               -0.39607242               -0.40924017                1.51607931               -0.06166110                1.09741410               -1.49410487
               7.42550538                2.46751109               42.36318265                0.12610817                0.20987681               -0.08227079                0.98928782               -0.78451729                3.28381919               -3.74689196
               8.43225779                1.95412463               42.15997147                0.00010000                1.03426854               -0.35043141                0.40061675               -1.93859546                5.63446470               -2.61552243
               9.44619075                1.41456816               41.97543924                0.00010000                1.39766890               -0.81485976               -0.22398987               -3.10641296                7.83886018               -0.26894593
              10.46021117                0.84575375               41.81535280                0.00010000                1.02487238               -0.37732166               -0.91517426               -3.80443801                9.20801576                0.61340423
              11.46668820                0.26269434               41.65704476                0.00010000                0.37805511                0.24586958               -1.58737419               -3.47601529                8.30016999                1.36965735
              12.46777227               -0.31465406               41.47749418                0.10947118                0.16636062                0.38123811               -2.17163362               -2.19039451                6.16684631                3.15084369
              13.47001541               -0.87838324               41.27548882                0.35144116                0.44704906                0.52466395               -2.70554063               -0.88822072                4.33433620                3.79197491
              14.47671325               -1.43137903               41.05867801                0.71705666                0.83452508                0.85324803               -3.18378146               -0.25799210                2.40542993                2.16441825
              15.48670591               -1.97953488               40.81782221                1.00000000                0.99926594                1.24579495               -3.73880147               -0.14024375                1.22642336               -2.02799948
               5.92730848                4.45502046               42.74987828                0.93038746               -0.45077241               -0.69799246                1.91190413               -0.07909198                0.30092185                2.64784771
               6.92280076                3.96277227               42.47866543                0.41635823               -0.40589250               -0.24379911                1.13625922               -0.09699205                1.47116831               -2.34428188
               7.91919063                3.46844148               42.23095437                0.01853343                0.12068255                0.29264798                0.50314676               -1.47703070                6.78456860               -7.68382148
               8.92521441                2.94840693               42.06617039                0.00010000                1.15838863               -0.80451094                0.23224316               -3.99721642               13.64011813               -3.78549302
               9.94235841                2.39751176               41.95418777                0.00010000                1.81742693               -1.37168402               -0.49575373               -5.84306859               16.06509555               -0.76952244
              10.96156295                1.83548739               41.83642060                0.00010000                1.82729835               -1.03581036               -1.03919109               -6.53110667               15.87104918                1.18666760
              11.97890437                1.26291097               41.71879866                0.00010000                1.77298745               -0.38795285               -1.54028994               -6.39493978               15.99185332                2.98622555
              12.99702270                0.68637436               41.60160120                0.02102601                1.68181805               -0.16224201               -2.04172308               -4.78435865               13.80193701                5.61551283
              14.01254073                0.12391178               41.43843462                0.17571109                1.24529038               -0.85516700               -2.23487299               -2.06575086                8.46109292                9.64563444
              15.02192850               -0.42397492               41.21117177                0.42046781                0.93312698                0.36673359               -2.78341497               -0.66085596                3.11038355                3.69925563
              16.03120327               -0.96669407               40.94022858                0.81201144                0.92747681                1.64341992               -3.49548864               -0.51957968                0.95815774               -2.32476662
               6.41634138                5.44825153               42.65762937                0.91541888               -0.36419780               -0.62918664                1.66814425               -0.05878053                0.06299921                2.53832746
               7.41269940                4.96124000               42.35980221                0.39527471               -0.30056362               -0.10742003                0.76392355               -0.01333488                0.51563242               -2.41589316
               8.41033010                4.47336405               42.07112228                0.00854388                0.52718892                0.50424689               -0.08090666               -2.28699003               11.76255200               -8.25356552
               9.42324318                3.93803441               41.99827973                0.00010000                1.59594040               -0.69957821               -0.38491538               -4.83195284               22.62150934               -3.33744301
              10.44224891                3.38713448               41.92517858                0.00010000                2.04733263               -0.90643114               -0.76415485               -5.88243861               22.99694642               -1.18031723
              11.46418983                2.82503754               41.85773753                0.00010000                2.28267618               -1.03394748               -1.16110446               -6.48612983               23.39829366                1.20195753
              12.48790244                2.25493528               41.79008211                0.00010000                2.34472279               -0.94515308               -1.50154273               -6.45877850               23.32301449                3.53255456
              13.51108429                1.68210110               41.71844280                0.02499050                2.55736196               -0.86144226               -1.75129294               -6.19188404               23.60666014                5.84320454
              14.53904968                1.10451342               41.65350300                0.17745824                2.15088492               -1.80074560               -1.86081692               -3.14293355               13.32408426               10.48203831
              15.55410198                0.57595564               41.37293910                0.41307818                1.13514703                0.01527065               -2.34730017               -0.27963877                1.33731336                3.60437757
              16.56175262                0.05333351               41.06623644                0.80379498                0.76506316                1.89784569               -3.16628456               -0.11525663                0.06396410               -2.14715270
               6.90015592                6.44243673               42.56487956                0.90532167               -0.27343802               -0.53419355                1.41836185               -0.05505220                0.05386288                2.52893000
               7.89742154                5.96062387               42.24290549                0.38196628               -0.17497501               -0.01997445                0.41237098                0.02095003                0.34079257               -2.27327401
               8.89665642                5.47852641               41.92673804                0.00270779                0.86916854                0.53567186               -0.55128824               -2.94305813               15.73695921               -7.21256160
               9.91480492                4.93441536               41.91259364                0.00010000                2.05250390               -0.20342079               -0.80341792               -6.05083861               30.83411748               -4.17501639
              10.93770650                4.37938314               41.89602377                0.00010000                2.46173196               -0.68202598               -1.05285467               -6.67476596               30.84614498               -1.28636735
              11.96403955                3.81480844               41.87936242                0.00010000                2.74793698               -1.02912701               -1.28413534               -7.04929608               31.01236301                1.20970074
              12.99266524                3.24400791               41.86293195                0.00010000                2.97836601               -1.23703575               -1.46363121               -7.10479456               31.25230340                3.65193550
              14.02360687                2.66914552               41.84762947                0.03062525                3.15811393               -1.44145260               -1.55800131               -7.07749103               31.59214199                6.26112462
              15.05582752                2.08789687               41.83447767                0.18570374                2.19543814               -1.46849916               -1.44110093               -3.74095092               17.03082204                8.18725779
              16.06751564                1.57633049               41.52393036                0.42452077                0.91574385                0.07954707               -1.93990054               -0.25047448                1.13140789                2.76239600
              17.07414240                1.07126285               41.19086931                0.81068825                0.66267602                1.63351689               -2.85198480               -0.02596525                0.03906041               -2.42136804
               7.37886606                7.43756766               42.47274512                0.89543236               -0.18373431               -0.44141797                1.17313785               -0.05371972                0.05223681                2.56462236
               8.37702871                6.96084051               42.12685568                0.36896671               -0.05943062                0.06494384                0.06113362                0.03397648                0.36282817               -2.20038732
               9.37767744                6.48407748               41.78721350                0.00010000                1.21704832                0.58800933               -0.99694835               -3.49610869               19.67203025               -6.87658726
              10.40136968                5.93396599               41.82731979                0.00010000                2.53415341                0.06462704               -1.16711946               -7.11581552               38.68722517               -4.08330633
              11.42836051                5.37349396               41.86484009                0.00010000                2.86047307               -0.50813281               -1.30593365               -7.64952493               38.66742285               -1.37484283
              12.45857914                4.80445500               41.90101860                0.00010000                3.15544806               -1.03829905               -1.40630370               -7.97912395               38.77854999                1.19484490
              13.49146947                4.23019457               41.93688476                0.00010000                3.35331807               -1.44610364               -1.44582634               -8.04508391               38.98537234                3.66858245
              14.52564550                3.65327205               41.97315654                0.03634384                3.27881034               -1.61113720               -1.39262535               -8.04733942               38.95672442                6.00929710
              15.55704568                3.07514344               42.00446709                0.19411383                2.00405083               -1.14215546               -0.97644331               -4.27736317               20.58042100                7.40288573
              16.56572652                2.57754658               41.66889507                0.43642226                0.71614627                0.12986553               -1.54301906               -0.23290066                1.16907194                2.27870113
              17.57136861                2.08600385               41.31026881                0.81786838                0.56420866                1.34188613               -2.55777012               -0.02485215                0.04948354               -2.81398028
               7.85253582                8.43360837               42.38098520                0.88550373               -0.09445698               -0.35133920                0.92862911               -0.05276621                0.05382568                2.57683873
               8.85159125                7.96192274               42.01137315                0.35597400                0.05364752                0.15261366               -0.28858603                0.03888837                0.42219948               -2.15375202
               9.85360877                7.49028660               41.64912752                0.00010000                1.57404373                0.65936445               -1.43461825               -3.96924198               23.61148718               -6.74301377
              10.88307212                6.93570790               41.74302535                0.00010000                3.03091139                0.27286720               -1.50700208               -8.07101606               46.45949270               -3.95789392
              11.91422700                6.36922048               41.83377370                0.00010000                3.23421747               -0.36426238               -1.53839382               -8.62862690               46.41836035               -1.33296464
              12.94775647                5.79404246               41.92248272                0.00010000                3.43597591               -1.02567171               -1.52397722               -8.93446075               46.50331317                1.16000804
              13.98294652                5.21508583               42.01029671                0.00010000                3.49773696               -1.52402178               -1.44411268               -8.94411183               46.65848162                3.59407897
              15.01771121                4.63692277               42.09747171                0.04224678                3.15296032               -1.64079118               -1.26319426               -8.66762177               46.12178276                5.97190658
              16.04600572                4.06505376               42.17027683                0.20262182                1.71429992               -0.91652988               -0.49111447               -4.49302606               23.96592442                7.06902790
              17.05199721                3.57892780               41.80992189                0.44832497                0.53625487                0.12469435               -1.15306030               -0.19998906                1.20581665                1.99306271
              18.05673082                3.09810057               41.42603269                0.82511497                0.47336084                1.09535039               -2.27495372               -0.02480299                0.06241736               -3.05109273
               8.32118198                9.43054087               42.28933481                0.87565517               -0.00537347               -0.26264753                0.68390359               -0.05223752                0.05444330                2.56033198
               9.32112825                8.96389279               41.89616193                0.34306862                0.16627297                0.24248057               -0.63803357                0.03793027                0.49899433               -2.12913456
              10.32450744                8.49726477               41.51184044                0.00010000                1.99436135                0.73527114               -1.86865763               -4.38465400               27.58069067               -6.63556737
              11.36101548                7.93942334               41.65993469                0.00010000                3.64729862                0.41182961               -1.83051440               -8.78922998               54.21351810               -3.74887223
              12.39745342                7.36620872               41.80338677                0.00010000                3.65045499               -0.32596995               -1.75362717               -9.28948323               54.08860391               -1.22652015
              13.43402458                6.78394157               41.94365573                0.00010000                3.61267568               -0.98903063               -1.63649723               -9.44172286               54.15924819                1.07607054
              14.46970693                6.19971413               42.08303498                0.00010000                3.41502825               -1.45956460               -1.46097250               -9.42131026               54.37045318                3.41718124
              15.50232514                5.62045623               42.22230392                0.04825262                2.77365997               -1.60438368               -1.18775374               -8.85751167               53.20288004                5.98263282
              16.52518013                5.05681284               42.33386805                0.21123980                1.31773950               -0.75337969                0.00789108               -4.50003790               27.19385096                6.87447062
              17.52867993                4.58004047               41.94870138                0.46029989                0.36734446                0.08478655               -0.76458155               -0.17011599                1.23064048                1.86331759
              18.53252702                4.10791086               41.53973551                0.83234653                0.38470866                0.87861769               -1.99666851               -0.02695967                0.07410542               -3.13659661
               8.78478724               10.42835542               42.19744501                0.86576577                0.08387141               -0.17505079                0.43720722               -0.05215722                0.06650305                2.53954398
               9.78562596                9.96677235               41.78101267                0.33027810                0.27989474                0.33526569               -0.98770926                0.02694017                0.61229370               -2.15335984
              10.79038514                9.50499202               41.37541699                0.00010000                2.63588115                0.79937327               -2.29653167               -4.81134474               31.66765933               -6.33672971
              11.83834358                8.94394450               41.57962240                0.00010000                4.67669834                0.19446888               -2.13160606               -9.13130522               62.00235560               -3.19992076
              12.88391911                8.36270108               41.77465281                0.00010000                4.35365111               -0.67392559               -1.94422431               -8.86402470               61.58270768               -0.98786067
              13.92541660                7.77426185               41.96390878                0.00010000                3.70432733               -0.92254591               -1.73611000               -8.67267682               61.63184248                0.86956118
              14.95800565                7.18589454               42.15337156                0.00010000                2.90228327               -1.04257148               -1.49489155               -8.82657090               62.13563194                2.87680715
              15.98346227                6.60483510               42.34691479                0.05446052                1.92075335               -1.27423998               -1.18256131               -8.55953137               60.33555633                5.59285374
              16.99642072                6.04998617               42.49587390                0.21996512                0.70173024               -0.61085630                0.51482225               -4.42536612               30.37341653                6.50601376
              17.99749687                5.58062353               42.08658071                0.47232962                0.20150653                0.02298642               -0.37319586               -0.16169636                1.28972613                1.89738814
              19.00045085                5.11567292               41.65286894                0.83960943                0.29539763                0.68274654               -1.71616213               -0.03129649                0.10199385               -3.10970290
               9.24330497               11.42703986               42.10554116                0.85584535                0.17254802               -0.08874317                0.19068825               -0.05193191               -0.01813661                2.19919160
              10.24503045               10.97059810               41.66508755                0.31757745                0.39017195                0.43014463               -1.34150360               -0.00496938                0.93507827               -1.93847581
              11.25110841               10.51325224               41.24357978                0.00010000                3.78249320                0.81458782               -2.69996640               -5.49841271               36.18653288               -4.71750007
              12.32068031                9.94331272               41.50757520                0.00010000                6.93735808               -1.48729258               -2.38558089               -7.31668639               69.76410744               -1.89228942
              13.38985557                9.35273020               41.74973038                0.00010000                5.83486356               -1.28766370               -2.09374516               -6.09563552               68.60372836               -0.57037816
              14.43737758                8.76549065               41.98187724                0.00010000                3.63733483               -0.82187876               -1.80670837               -5.46887820               68.58193199                0.49391447
              15.46260226                8.17886270               42.21605161                0.00010000                1.48326536               -0.28454507               -1.51966465               -5.99901566               69.69845565                1.70423552
              16.46704289                7.59497143               42.46423214                0.06091734               -0.08589468                0.15004049               -1.24949983               -6.39969187               67.60542035                3.74851521
              17.46088437                7.04459572               42.65199451                0.22889770               -0.36418201               -0.39162724                1.00484747               -4.33919677               33.95316190                4.63238763
              18.45975925                6.58050020               42.22547216                0.48438524                0.04589718               -0.05135438                0.02725224               -0.19288556                1.63820511                1.76131103
              19.46180231                6.12156579               41.76621610                0.84680369                0.20430649                0.50987136               -1.43166255               -0.04237724                0.03403844               -2.58252264
               9.69663212               12.42658055               42.00697245                0.92470701                0.26820705               -0.04593045               -0.08210544                0.21218473                1.01871219                1.86113058
              10.69931419               11.97537525               41.55393581                0.65466785                0.55350740                0.47771458               -1.67244993                0.16353577                2.93395333               -1.68179246
              11.70770227               11.52128378               41.13904228                0.48646255                7.66088473                0.80315423               -2.98586806               -7.39944372               41.40084674               -3.34057979
              12.85253189               10.91419865               41.45423054                0.44720565               11.60630970               -2.91140712               -2.55153743               -6.03164092               76.64052466               -1.11465481
              13.93982846               10.33694781               41.73096464                0.43708155                6.86873286               -1.57823938               -2.18407144               -2.82142888               74.62194851               -0.37412180
              14.98990654                9.75782428               41.99609182                0.44778467                3.43580493               -0.76663723               -1.83304757               -2.58431235               74.57265789                0.21502484
              16.00854456                9.18020364               42.26404217                0.47857635               -0.00855636                0.13409406               -1.49474804               -2.90518863               76.05529019                0.89600437
              16.98973542                8.60783591               42.55245735                0.53265697               -4.22182756                1.28644824               -1.23616307               -4.63324825               74.08573226                2.25669116
              17.92410801                8.04215362               42.77612621                0.61743870               -3.65331644               -0.24420932                1.33547207               -5.08960908               38.81645601                3.09455494
              18.91666909                7.57959645               42.36008214                0.74609673               -0.33179435               -0.09037526                0.40892000               -0.12317985                4.04624111                1.57308461
              19.91747212                7.12587035               41.88903986                0.92571088                0.08030361                0.43045585               -1.10404412                0.19437111                1.32494771               -2.06818971
               5.16440935                2.58960777               43.96401092                1.00000000               -0.69081727               -0.75262352                2.52984766               -0.14233537               -1.81889469                2.06460537
               6.15750118                2.06585965               43.71443642                0.85393651               -0.67751685               -0.48725341                1.87980011               -0.10986016               -2.32231076               -0.90146190
               7.15085901                1.53977753               43.45508523                0.61032534               -0.94150610               -0.25917198                1.13808872               -0.52769703               -2.09725897               -1.15122592
               8.13867106                0.99932277               43.21043247                0.49966601               -1.36930668               -0.12460439                0.45519558               -0.69962182               -0.06805344               -0.23381746
               9.12347288                0.43127079               42.99231387                0.44836397               -1.28540091                0.08655882               -0.27597299               -0.61537928                2.31452067               -0.19530604
              10.11296304               -0.16656916               42.79579770                0.44756331               -0.41813400                0.28848674               -1.05086566               -0.35054396                3.45308434                0.00936347
              11.11511020               -0.77934670               42.60080196                0.49527924                0.70135762                0.49238528               -1.79687398               -0.34442717                2.49895594                0.19735404
              12.12699019               -1.38688365               42.38553414                0.59429661                1.30600827                0.68805396               -2.45870595               -0.42514249                0.35065252                0.32002601
              13.14123037               -1.98063139               42.14749510                0.75232285                1.36096775                0.85323696               -3.06472346               -0.35234294               -1.63549931                0.50905041
              14.15420955               -2.56327333               41.89187274                0.98274220                1.26259071                1.00581335               -3.63610127               -0.19073481               -2.06864119                1.07108574
              15.16648218               -3.14150221               41.64402502                1.00000000                1.22726348                1.24679454               -4.25411461               -0.16469281               -1.61454620               -1.60254848
               5.68673412                3.58208154               43.86287186                1.00000000               -0.54164223               -0.73906892                2.22112778               -0.05416923                0.32431691                2.42234506
               6.68131770                3.06098711               43.60921002                0.55969674               -0.39418189               -0.40896461                1.52742845               -0.07136935                1.19694485               -1.60168320
               7.67885048                2.53718581               43.37310747                0.11979793                0.23052558               -0.06942529                0.99724960               -0.82427545                3.42831481               -3.91330380
               8.68592821                1.99807673               43.16391518                0.00010000                1.07072865               -0.38183477                0.38855993               -1.98788827                5.71824497               -2.68180273
               9.70026506                1.43213637               42.97303314                0.00010000                1.44190650               -0.81864364               -0.25614337               -3.17350354                7.85521089               -0.42376679
              10.71476634                0.83631570               42.80592235                0.00010000                1.07790583               -0.38129093               -0.96862229               -3.88809581                9.18088555                0.50780498
              11.72182317                0.22557716               42.64077947                0.00010000                0.43073863                0.24820467               -1.66176721               -3.57410127                8.31211877                1.33063798
              12.72338111               -0.38000311               42.45529700                0.10367698                0.20393024                0.40424828               -2.26448176               -2.29176451                6.24115811                3.13002093
              13.72590178               -0.97209902               42.24789091                0.33907258                0.46782468                0.54245501               -2.81161198               -0.92559083                4.46937330                3.91521516
              14.73273761               -1.55321520               42.02647643                0.69343541                0.85811742                0.88771715               -3.30174878               -0.27226066                2.54485795                2.21054816
              15.74306413               -2.12903426               41.78011446                0.99222854                1.03265198                1.28000790               -3.87404350               -0.14034768                1.34353037               -2.11834106
               6.20551481                4.57482639               43.76912512                0.91708789               -0.45452915               -0.70857394                1.93624863               -0.08643324                0.32302627                2.73923720
               7.20096952                4.05768036               43.49004649                0.40160949               -0.41154588               -0.23845589                1.13520729               -0.10739775                1.56689997               -2.46783909
               8.19728389                3.53838902               43.23593193                0.01484788                0.14966036                0.32439224                0.49378303               -1.58079452                7.13558097               -8.07607087
               9.20396273                2.99168608               43.06833277                0.00010000                1.22399709               -0.81490107                0.19687398               -4.12694739               13.93547566               -4.13388269
              10.22176383                2.41489791               42.94894156                0.00010000                1.88988068               -1.38752502               -0.55374099               -5.96424153               16.20613110               -1.06524076
              11.24176034                1.82580502               42.82563596                0.00010000                1.90915779               -1.05397248               -1.11757714               -6.70178029               16.10953017                0.97551034
              12.25994699                1.22561740               42.70291739                0.00010000                1.85353686               -0.40112012               -1.63594205               -6.57209928               16.23711862                2.88600435
              13.27883108                0.62120131               42.58062466                0.01750752                1.79918233               -0.16935091               -2.15028560               -4.96032361               14.19245984                5.63971071
              14.29593064                0.03021771               42.41565720                0.16794552                1.34342482               -0.88326971               -2.31912354               -2.17909682                8.82178252                9.82388842
              15.30569957               -0.54551899               42.18285338                0.40467617                0.96913566                0.36717480               -2.87225115               -0.68695777                3.20308629                3.81720472
              16.31531335               -1.11590205               41.90471140                0.80059155                0.96137766                1.68088076               -3.60723900               -0.53301205                0.97135360               -2.41474759
               6.71929753                5.56791006               43.67447011                0.90274110               -0.36904159               -0.64409415                1.70310800               -0.06018431                0.05902461                2.65196553
               7.71560711                5.05621800               43.36744707                0.38139545               -0.30343280               -0.10344858                0.76513983               -0.01397977                0.54154547               -2.52788142
               8.71322887                4.54367365               43.07018568                0.00527393                0.56366293                0.53470480               -0.10913287               -2.37526120               12.09137586               -8.63934391
               9.72688037                3.98177871               42.99414691                0.00010000                1.68162055               -0.65943474               -0.44270066               -4.98910840               23.17177840               -3.80229126
              10.74686128                3.40438587               42.91714509                0.00010000                2.15654391               -0.91052570               -0.84437327               -6.03219438               23.48764766               -1.47909511
              11.77001125                2.81523625               42.84563628                0.00010000                2.40618027               -1.04321358               -1.26136702               -6.65474096               23.89282793                0.99364053
              12.79498489                2.21755475               42.77450020                0.00010000                2.47815383               -0.95578150               -1.61783732               -6.64110274               23.87642699                3.42721764
              13.81957433                1.61660987               42.70032386                0.02138775                2.70276275               -0.88458255               -1.87631065               -6.38973756               24.25681642                5.88911080
              14.84904014                1.01023559               42.63413740                0.16984611                2.27719415               -1.84801005               -2.01624813               -3.29690716               13.84613448               10.63648952
              15.86511821                0.45412830               42.34899881                0.39800518                1.20649285               -0.00321361               -2.43808590               -0.30914133                1.51137558                3.71694329
              16.87317000               -0.09541665               42.03403515                0.79308319                0.80517920                1.94310580               -3.28080911               -0.11178699                0.06626047               -2.22755358
               7.22769525                6.56194451               43.57922857                0.89298565               -0.27689190               -0.54871743                1.45328467               -0.05632550                0.05437683                2.64016554
               8.22492633                6.05561138               43.24700968                0.36851020               -0.17386432               -0.01851779                0.40773452                0.02564041                0.36289682               -2.37804853
               9.22421796                5.54908312               42.92103761                0.00010000                0.92710057                0.55855816               -0.59051175               -3.03061620               16.13867188               -7.53133901
              10.24346834                4.97849738               42.90420255                0.00010000                2.17222200               -0.17446737               -0.87661111               -6.21811247               31.58022946               -4.50636561
              11.26766240                4.39668740               42.88501618                0.00010000                2.60141509               -0.67403632               -1.15150419               -6.84193378               31.58791467               -1.57073331
              12.29549664                3.80494074               42.86595191                0.00010000                2.90444596               -1.03368108               -1.40237634               -7.22796387               31.77241910                1.00850043
              13.32575132                3.20650177               42.84766603                0.00010000                3.14294268               -1.24668431               -1.59591695               -7.29834273               32.06374491                3.54233820
              14.35835549                2.60350966               42.83138191                0.02691862                3.33613737               -1.45080530               -1.70046609               -7.31464701               32.52431567                6.25254801
              15.39247407                1.99325751               42.81920284                0.17790449                2.34067424               -1.49870564               -1.62324079               -3.90655559               17.75821835                8.41032029
              16.40516898                1.45441674               42.50403975                0.40916128                0.98467145                0.08096940               -2.03819498               -0.29127618                1.36015799                2.84248537
              17.41216750                0.92296007               42.16176971                0.79975094                0.69985167                1.67854546               -2.97379166               -0.02435751                0.04574049               -2.54355635
               7.73083727                7.55693571               43.48462968                0.88335393               -0.18559577               -0.45455428                1.20535726               -0.05483860                0.05330966                2.67726020
               8.72898131                7.05584764               43.12740371                0.35591401               -0.05533584                0.06832203                0.04765750                0.04063169                0.39216486               -2.30549735
               9.72973055                6.55484482               42.77699709                0.00010000                1.29662651                0.60958843               -1.04788744               -3.58925092               20.17570050               -7.18007682
              10.75491384                5.97828936               42.81522688                0.00010000                2.69243455                0.08594169               -1.25401579               -7.30275693               39.63599394               -4.37056222
              11.78357924                5.39090515               42.85123594                0.00010000                3.03618811               -0.49962642               -1.41895720               -7.83963631               39.63554631               -1.62173403
              12.81563761                4.79456263               42.88633223                0.00010000                3.34349364               -1.04195029               -1.53724087               -8.17192496               39.77886471                1.00818354
              13.85044912                4.19262107               42.92176698                0.00010000                3.54440196               -1.45309583               -1.58685826               -8.24844707               40.04481925                3.55510836
              14.88652564                3.58759376               42.95857963                0.03247009                3.47764202               -1.61213456               -1.53558346               -8.30749249               40.21353340                5.98517426
              15.92000196                2.98026147               42.99380452                0.18603732                2.15322421               -1.16099513               -1.16919594               -4.46556312               21.52891567                7.66929538
              16.92959013                2.45574768               42.65296121                0.42060280                0.77971172                0.14697847               -1.64686892               -0.27361817                1.42113398                2.34651243
              17.93559619                1.93815426               42.28408453                0.80668733                0.60060638                1.38738622               -2.68650977               -0.02274982                0.05933999               -2.96186348
               8.22877461                8.55285342               43.39040711                0.87371836               -0.09447578               -0.36266808                0.95717080               -0.05382391                0.05537848                2.68893530
               9.22782985                8.05697783               43.00837456                0.34333170                0.06083067                0.15907236               -0.31205231                0.04590139                0.46165588               -2.25795875
              10.22999122                7.56127489               42.63447047                0.00010000                1.67615084                0.68279067               -1.49878118               -4.07227199               24.22853325               -7.04065803
              11.26135287                6.98021621               42.72747408                0.00010000                3.23025884                0.28820640               -1.60624158               -8.27933011               47.61879750               -4.21946981
              12.29459640                6.38669487               42.81779550                0.00010000                3.44946755               -0.36391142               -1.66225239               -8.83895903               47.60533501               -1.55010299
              13.33034222                5.78410174               42.90659145                0.00010000                3.65774224               -1.03653302               -1.66188724               -9.13803186               47.72917629                0.99340185
              14.36775125                5.17743985               42.99520820                0.00010000                3.71115091               -1.53555030               -1.58454902               -9.14750303               47.95213727                3.48138358
              15.40456524                4.57126697               43.08426682                0.03818803                3.36288187               -1.63879967               -1.39263299               -8.94074386               47.72751636                5.91927984
              16.43500888                3.97003761               43.16447839                0.19428283                1.86192931               -0.92482035               -0.68547333               -4.69290604               25.15264763                7.36024935
              17.44180383                3.45735631               42.79788815                0.43217615                0.59452294                0.15023245               -1.25928864               -0.23392110                1.46708941                2.05721846
              18.44689934                2.95070779               42.40265211                0.81366134                0.50955166                1.14106467               -2.40976328               -0.02221954                0.07427193               -3.21045979
               8.72151199                9.54968235               43.29628858                0.86418016               -0.00341135               -0.27204281                0.70798140               -0.05328202                0.05608616                2.67056400
               9.72147788                9.05902909               42.88961799                0.33083722                0.17673671                0.25240447               -0.67175085                0.04412632                0.54958675               -2.23286555
              10.72504672                8.56850063               42.49277897                0.00010000                2.12146904                0.76098452               -1.94522738               -4.50356253               28.31863691               -6.92707583
              11.76390726                7.98405349               42.64109600                0.00010000                3.89339074                0.41733236               -1.94051107               -9.02184238               55.59039552               -3.98509798
              12.80291454                7.38362692               42.78522077                0.00010000                3.91123651               -0.34372643               -1.88510095               -9.51358915               55.48969400               -1.41125463
              13.84213199                6.77383197               42.92663248                0.00010000                3.87096426               -1.01738540               -1.77636038               -9.64171775               55.59504439                0.93475997
              14.88033382                6.16191006               43.06782131                0.00010000                3.64905113               -1.48265299               -1.59331203               -9.60667204               55.87268983                3.30512581
              15.91511301                5.55481777               43.20997673                0.04410488                2.98603385               -1.60747495               -1.29252930               -9.12163587               55.17670257                5.88452807
              16.94005450                4.96176507               43.33309753                0.20264961                1.45642555               -0.75136049               -0.18115226               -4.70210123               28.64664342                7.18321997
              17.94424152                4.45875233               42.94056065                0.44374337                0.41971653                0.11395047               -0.87026014               -0.19701917                1.49361331                1.93158242
              18.94844883                3.96097556               42.51911906                0.82065923                0.42073103                0.92438159               -2.13552795               -0.02447307                0.08756408               -3.29627714
               9.20901549               10.54741257               43.20190967                0.85460343                0.08786071               -0.18260810                0.45668980               -0.05326968                0.06882670                2.64825010
              10.20989410               10.06202591               42.77092131                0.31848497                0.29400429                0.34880374               -1.03175001                0.03047448                0.67722125               -2.25854702
              11.21489558                9.57649458               42.35202049                0.00010000                2.79478186                0.82506169               -2.38380577               -4.95632251               32.53706575               -6.61092075
              12.26578973                8.98856286               42.55772896                0.00010000                4.98252791                0.17481683               -2.25042584               -9.39021174               63.60411415               -3.39563630
              13.31454613                8.37982034               42.75455573                0.00010000                4.67174947               -0.72646527               -2.08080112               -9.07916753               63.19055337               -1.12816131
              14.35922472                7.76375403               42.94589420                0.00010000                4.00429362               -0.97631152               -1.87498020               -8.84119789               63.25364918                0.76454658
              15.39463201                7.14778679               43.13787089                0.00010000                3.15263972               -1.08280624               -1.61548279               -8.96544915               63.80471048                2.77723623
              16.42227752                6.53911747               43.33479083                0.05013999                2.12001444               -1.28787957               -1.25610480               -8.77681987               62.68946858                5.43744280
              17.43703229                5.95501040               43.50023609                0.21114101                0.81877169               -0.59571765                0.33796611               -4.62258282               32.13055513                6.81652429
              18.43865295                5.45963532               43.08237522                0.45534872                0.24655699                0.05262386               -0.47523731               -0.18505013                1.55232658                1.97686476
              19.44196343                4.96919542               42.63504837                0.82766186                0.33104832                0.72795270               -1.85727588               -0.02913031                0.11764627               -3.26275831
               9.69121990               11.54603019               43.10751980                0.84503314                0.17854523               -0.09461408                0.20576806               -0.05308603               -0.02094975                2.29404176
              10.69300536               11.06600516               42.65140786                0.30617553                0.40817116                0.44702528               -1.39570349               -0.00773093                1.02548024               -2.03293500
              11.69938333               10.58500186               42.21610265                0.00010000                3.98859512                0.83216442               -2.79605714               -5.68030620               37.21240193               -4.91877033
              12.77277726                9.98754982               42.48310882                0.00010000                7.33783459               -1.58076110               -2.51088105               -7.54102147               71.59466538               -2.01315938
              13.84614002                9.36909761               42.72811779                0.00010000                6.22821614               -1.37785912               -2.23408829               -6.24668911               70.39752681               -0.64696074
              14.89734158                8.75430574               42.96315851                0.00010000                3.97606905               -0.89880419               -1.94461715               -5.56581131               70.36175231                0.43867074
              15.92566140                8.14025394               43.20034417                0.00010000                1.75057124               -0.34462647               -1.63061052               -6.06646157               71.47232414                1.64423478
              16.93235301                7.52906018               43.45154872                0.05643326                0.07118004                0.12100271               -1.29633655               -6.52381666               70.32572958                3.60417623
              17.92708500                6.94985071               43.66132892                0.21983289               -0.29987571               -0.34606085                0.84215301               -4.49546780               36.05946180                4.85964741
              18.92635549                6.45980481               43.22530618                0.46699300                0.08305052               -0.02286556               -0.06764296               -0.22014544                1.91152205                1.84123699
              19.92874601                5.97553461               42.75124121                0.83460922                0.23905189                0.55353444               -1.57222197               -0.04160808                0.04686181               -2.70625939
              10.16800381               12.54552029               43.00619732                0.91936540                0.27639849               -0.05098989               -0.07229404                0.22300433                1.05984595                1.94206330
              11.17076780               12.07096642               42.53690617                0.64912227                0.58704886                0.49612572               -1.73491771                0.15712325                3.12190720               -1.76336949
              12.17974479               11.59313787               42.10868873                0.48543402                8.00528780                0.81360024               -3.08511971               -7.66479264               42.61890633               -3.48488637
              13.33087355               10.95694764               42.42808225                0.44725024               12.15558213               -3.06021833               -2.68092122               -6.23410573               78.64259940               -1.17141221
              14.42285643               10.35226316               42.70842785                0.43719149                7.29393092               -1.68344536               -2.32798627               -2.88684316               76.55414762               -0.40634865
              15.47675217                9.74577795               42.97709237                0.44754646                3.78459513               -0.85277931               -1.97343919               -2.62738575               76.48176102                0.19326489
              16.49854834                9.14089426               43.24858241                0.47762323                0.27261174                0.06403243               -1.60520861               -2.92332742               77.92744098                0.86825795
              17.48220441                8.54153753               43.53991918                0.53037529               -4.10850150                1.24773481               -1.27605381               -4.65511389               77.04653411                2.14707062
              18.41637831                7.94808918               43.78878766                0.61280356               -3.68191318               -0.17615327                1.17775058               -5.18864553               41.23863554                3.25412699
              19.40856614                7.45917801               43.36377154                0.73730656               -0.33533166               -0.06268055                0.32302758               -0.17008816                4.43508969                1.64799512
              20.40967167                6.98026611               42.87736382                0.91951765                0.11055285                0.47315020               -1.23889249                0.20137691                1.39782448               -2.16451086
               5.39888169                2.71321107               44.98956939                1.00000000               -0.70685295               -0.76669904                2.58644030               -0.14752798               -1.85590359                2.11597584
               6.39181316                2.16338063               44.73339206                0.84313348               -0.69666490               -0.49083788                1.91180112               -0.11462005               -2.40765909               -0.99614580
               7.38494839                1.61101789               44.46650421                0.60595622               -0.96797338               -0.26195885                1.14579914               -0.53852880               -2.20102186               -1.13576982
               8.37245369                1.04377380               44.21491058                0.49830178               -1.39537130               -0.11855163                0.43862334               -0.70334808               -0.16222986               -0.24748184
               9.35704097                0.44846428               43.98935237                0.44822876               -1.30511070                0.10008498               -0.31811638               -0.61541588                2.18069203               -0.20367261
              10.34635148               -0.17702819               43.78496488                0.44736384               -0.43907072                0.30997803               -1.11717927               -0.35082477                3.31263714                0.00416798
              11.34825955               -0.81801437               43.58239693                0.49381776                0.68607175                0.52060309               -1.88697204               -0.33773241                2.40396040                0.19687759
              12.36007291               -1.45437559               43.36039737                0.59028810                1.31360215                0.72314278               -2.57405169               -0.41777936                0.31092072                0.32504273
              13.37453159               -2.07719211               43.11621689                0.74401241                1.39805229                0.89510789               -3.20833767               -0.35331223               -1.65434068                0.50366053
              14.38803396               -2.68882554               42.85448488                0.96757311                1.32846774                1.06768348               -3.85032244               -0.19709546               -2.10691499                1.07301021
              15.40110095               -3.29583982               42.60015500                1.00000000                1.30669896                1.32517385               -4.52431190               -0.18147876               -1.65926171               -1.64757465
               5.94723685                3.70554408               44.88517077                0.99301347               -0.54733036               -0.75020578                2.24693832               -0.05495454                0.36074853                2.48981293
               6.94176355                3.15847225               44.62454252                0.54124770               -0.39351654               -0.41010960                1.54815962               -0.08134966                1.31244551               -1.71770273
               7.93936652                2.60839831               44.38312764                0.11350882                0.24667355               -0.05880251                1.00697459               -0.86081934                3.58142560               -4.08491436
               8.94669702                2.04258828               44.16774267                0.00010000                1.09606398               -0.41381289                0.37761978               -2.02362862                5.80439257               -2.76434583
               9.96128780                1.44946513               43.97031637                0.00010000                1.46927684               -0.81846394               -0.28638801               -3.21899107                7.87506241               -0.59698500
              10.97608256                0.82607159               43.79598035                0.00010000                1.11340628               -0.38440695               -1.01760882               -3.94236113                9.15799547                0.38163602
              11.98355593                0.18719166               43.62380941                0.00010000                0.47007170                0.24623444               -1.72928451               -3.64086282                8.33110983                1.27034939
              12.98548399               -0.44714416               43.43220454                0.09786517                0.23337609                0.42586494               -2.35177645               -2.36867593                6.32982411                3.09105860
              13.98822345               -1.06824103               43.21925658                0.32671917                0.49514363                0.56675855               -2.92288168               -0.93942348                4.60796711                4.03676029
              14.99538686               -1.67814870               42.99264304                0.66985022                0.90384985                0.93361655               -3.47034938               -0.27224925                2.67716346                2.28040566
              16.00630044               -2.28258808               42.74034134                0.97568210                1.09135824                1.34650583               -4.08734167               -0.15327029                1.45062172               -2.19391122
               6.49192626                4.69820696               44.78860326                0.90379525               -0.45943175               -0.71783447                1.97416766               -0.08629646                0.34732329                2.84923618
               7.48733194                4.15517844               44.50136957                0.38678537               -0.41551414               -0.23765315                1.13356150               -0.11569599                1.67304214               -2.59081033
               8.48361598                3.60984184               44.24083003                0.01110355                0.17911771                0.35365944                0.48563080               -1.67948212                7.49491585               -8.48799165
               9.49091430                3.03549754               44.07010787                0.00010000                1.27809290               -0.82347387                0.15397755               -4.23622591               14.23124200               -4.50918552
              10.50917783                2.43209500               43.94311295                0.00010000                1.94317144               -1.39935830               -0.61228438               -6.04945823               16.35465945               -1.39807939
              11.52977772                1.81528367               43.81406905                0.00010000                1.97401053               -1.07385952               -1.19620653               -6.82879818               16.35739745                0.72274512
              12.54865804                1.18691032               43.68607982                0.00010000                1.91771809               -0.42303375               -1.73237910               -6.69772454               16.49886041                2.74201837
              13.56813209                0.55414171               43.55859549                0.01395287                1.90448122               -0.18648860               -2.25725850               -5.08339138               14.62568657                5.61852937
              14.58674767               -0.06585694               43.39205215                0.16017458                1.44019718               -0.90307010               -2.39845634               -2.26104742                9.23350092                9.94646483
              15.59693603               -0.67015321               43.15372674                0.38891550                1.00833166                0.36284192               -2.96326229               -0.70039419                3.32384574                3.92602584
              16.60691430               -1.26890970               42.86808380                0.78928928                0.99782725                1.71561086               -3.73737209               -0.54041477                0.99862014               -2.51809797
               7.03156796                5.69118739               44.69169153                0.88996524               -0.37532192               -0.65632404                1.74462761               -0.05907148                0.05476469                2.77968677
               8.02781474                5.15371919               44.37510500                0.36749884               -0.30550902               -0.10360902                0.76718640               -0.00886982                0.56873880               -2.63842006
               9.02545778                4.61547150               44.06893962                0.00196515                0.59523019                0.56231930               -0.14093813               -2.44896855               12.42552309               -9.04350729
              10.03971934                4.02611880               43.98942572                0.00010000                1.75273627               -0.61447286               -0.50253689               -5.12384457               23.73031290               -4.29204223
              11.06051250                3.42147797               43.90829111                0.00010000                2.24859656               -0.91086919               -0.92846641               -6.14934013               23.98907909               -1.81216892
              12.08469127                2.80459440               43.83251019                0.00010000                2.51154457               -1.05005870               -1.36671374               -6.78433106               24.40009730                0.74597943
              13.11074339                2.17873099               43.75772537                0.00010000                2.59460724               -0.96612152               -1.74165037               -6.78081159               24.44799205                3.27947148
              14.13658342                1.54912607               43.68091659                0.01783725                2.82770119               -0.91005029               -2.01219539               -6.53045605               24.91857300                5.88896975
              15.16729742                0.91369757               43.61317804                0.16219061                2.39241644               -1.88534540               -2.18455195               -3.42157774               14.42376308               10.71223779
              16.18443175                0.32910814               43.32417738                0.38303357                1.28538631               -0.03145003               -2.52759734               -0.33787674                1.74304570                3.78688564
              17.19300514               -0.24827587               43.00062025                0.78243150                0.85733967                1.96260208               -3.40842265               -0.10425037                0.06975572               -2.34743181
               7.56568124                6.68508047               44.59394526                0.88059346               -0.28107953               -0.56265356                1.49278624               -0.05661008                0.05556942                2.75760608
               8.56287044                6.15310626               44.25106018                0.35504282               -0.17221230               -0.01767523                0.40166160                0.03488097                0.38833713               -2.48842459
               9.56223699                5.62108823               43.91492780                0.00010000                0.97802465                0.57857927               -0.63347655               -3.09938382               16.54737498               -7.86332200
              10.58243093                5.02320808               43.89506142                0.00010000                2.27392219               -0.14177918               -0.95345652               -6.35396250               32.33542780               -4.86103083
              11.60771543                4.41387762               43.87299369                0.00010000                2.72035730               -0.65990011               -1.25620833               -6.97359985               32.34254458               -1.88544324
              12.63683808                3.79428250               43.85131490                0.00010000                3.03973549               -1.03076341               -1.53038388               -7.36778038               32.54791839                0.77302686
              13.66851014                3.16758789               43.83101361                0.00010000                3.28591515               -1.24882127               -1.74289981               -7.44833613               32.89255063                3.39768652
              14.70255638                2.53594071               43.81362015                0.02315793                3.49119521               -1.45177223               -1.86405452               -7.49282584               33.46068246                6.20996346
              15.73833405                1.89643616               43.80201286                0.16999682                2.47977739               -1.52218871               -1.83102365               -4.03889609               18.54329285                8.59166959
              16.75215193                1.32921779               43.48316646                0.39380367                1.06316239                0.07601502               -2.13972520               -0.33281893                1.65322398                2.88856368
              17.75959730                0.77034234               43.13139348                0.78886881                0.74453651                1.70800233               -3.10939290               -0.02236386                0.05508981               -2.69671191
               8.09438419                7.67993432               44.49685227                0.87126363               -0.18795888               -0.46761512                1.24105814               -0.05550145                0.05472275                2.79508581
               9.09250460                7.15336568               44.12780883                0.34283895               -0.05079568                0.07215126                0.03247102                0.04996618                0.42656148               -2.41730612
              10.09336828                6.62704308               43.76625576                0.00010000                1.36730512                0.63016629               -1.10263540               -3.66197695               20.68998111               -7.49893133
              11.11985070                6.02328322               43.80223947                0.00010000                2.82989063                0.11206569               -1.34613414               -7.45355010               40.59697229               -4.67930253
              12.14996609                5.40827996               43.83646095                0.00010000                3.18873450               -0.48220120               -1.54068785               -7.99015968               40.62025712               -1.89442027
              13.18362539                4.78397913               43.87027379                0.00010000                3.50761865               -1.03361188               -1.68204472               -8.32180933               40.79912043                0.79475788
              14.22011846                4.15375456               43.90514760                0.00010000                3.71266208               -1.44643559               -1.74860687               -8.40423784               41.12801380                3.41801734
              15.25787864                3.52009062               43.94244487                0.02856002                3.65619735               -1.60147199               -1.70830799               -8.50328976               41.47301927                5.94765275
              16.29324241                2.88325380               43.98108317                0.17791321                2.29952761               -1.17352114               -1.39468114               -4.61794442               22.53142173                7.91202485
              17.30386919                2.33062844               43.63595769                0.40486715                0.85331839                0.16274743               -1.75912688               -0.31781318                1.73970975                2.38842718
              18.31030878                1.78588418               43.25653861                0.79557844                0.64395894                1.42572501               -2.83197365               -0.01987325                0.07181024               -3.13798183
               8.61770848                8.67572817               44.40012861                0.86202254               -0.09474771               -0.37423635                0.98847413               -0.05485443                0.05681055                2.80554140
               9.61676100                8.15454928               44.00513211                0.33068780                0.06857171                0.16615223               -0.33738266                0.05441883                0.50718575               -2.36926822
              10.61907991                7.63369156               43.61915189                0.00010000                1.76810229                0.70650759               -1.56641048               -4.15329946               24.86072802               -7.35349758
              11.65212305                7.02544939               43.71090052                0.00010000                3.40682061                0.30916416               -1.71187072               -8.44635398               48.79614471               -4.50009757
              12.68721633                6.40423359               43.80052865                0.00010000                3.64021219               -0.35282879               -1.79688668               -9.00472035               48.81497817               -1.78764034
              13.72492729                5.77361026               43.88924497                0.00010000                3.85487835               -1.03225573               -1.81676746               -9.29374431               48.98308038                0.80861542
              14.76431389                5.13865918               43.97860573                0.00010000                3.90320305               -1.53003033               -1.75006307               -9.30004940               49.28145008                3.35795719
              15.80299135                4.50391127               44.06961905                0.03417104                3.55617268               -1.62339257               -1.55689105               -9.14945551               49.33577974                5.87154107
              16.83543735                3.87296573               44.15656736                0.18592951                2.00869638               -0.92671298               -0.91949074               -4.85759255               26.38702867                7.64118339
              17.84316528                3.33247274               43.78473612                0.41601563                0.66254956                0.17783036               -1.37849756               -0.27237095                1.79601018                2.10340341
              18.84868834                2.79885684               43.37783742                0.80230983                0.55230573                1.18524343               -2.56349984               -0.01895600                0.08890214               -3.39472202
               9.13564488                9.67244959               44.30349444                0.85274266               -0.00152874               -0.28194882                0.73431497               -0.05448585                0.05776977                2.78501246
              10.13562959                9.15668873               43.88272691                0.31859116                0.18786471                0.26311327               -0.70755965                0.05110964                0.60841888               -2.34364792
              11.13940218                8.64117323               43.47293589                0.00010000                2.23759962                0.78791867               -2.02492965               -4.59916678               29.07730566               -7.23201518
              12.18038159                8.02946650               43.62112447                0.00010000                4.11543213                0.42847753               -2.05732699               -9.20911346               56.99231059               -4.23726394
              13.22171082                7.40122339               43.76568476                0.00010000                4.14716688               -0.34963768               -2.02858895               -9.68919410               56.92168862               -1.61067736
              14.26332492                6.76333402               43.90812852                0.00010000                4.10528249               -1.02917541               -1.93487261               -9.79111488               57.06996062                0.78340368
              15.30381647                6.12315396               44.05116874                0.00010000                3.86290233               -1.48713848               -1.75249339               -9.74109545               57.42720336                3.19374607
              16.34058297                5.48762277               44.19645334                0.03985773                3.18563078               -1.59496500               -1.43391035               -9.32696671               57.15401082                5.80577193
              17.36752908                4.86471954               44.33024500                0.19401282                1.59738473               -0.74402359               -0.41343657               -4.87138234               30.13846729                7.49394954
              18.37253066                4.33418504               43.93129617                0.42721186                0.48161904                0.14712758               -0.99150156               -0.22823224                1.82460607                1.98851447
              19.37716146                3.80958905               43.49702495                0.80905889                0.46307993                0.97193836               -2.29481196               -0.02114250                0.10441702               -3.47723838
               9.64814049               10.67008920               44.20657881                0.84346258                0.09190626               -0.19082773                0.47806903               -0.05451577                0.07111735                2.76133573
              10.64905956               10.15981155               43.76037767                0.30659200                0.30891552                0.36329051               -1.07824682                0.03441735                0.75343099               -2.37054880
              11.65431880                9.64944993               43.32774088                0.00010000                2.94155341                0.85176821               -2.47362650               -5.07696497               33.43414329               -6.89781992
              12.70789063                9.03401895               43.53461389                0.00010000                5.26230627                0.16148657               -2.37600807               -9.60160978               65.23835526               -3.60323792
              13.75956493                8.39724084               43.73303679                0.00010000                4.96419007               -0.76522554               -2.22970390               -9.24732962               64.83825571               -1.27778506
              14.80717443                7.75302675               43.92640918                0.00010000                4.28191496               -1.01340598               -2.03268132               -8.96315540               64.92698717                0.65575779
              15.84520323                7.10891641               44.12106190                0.00010000                3.38560065               -1.10590394               -1.76179482               -9.05863606               65.54535417                2.68499667
              16.87488644                6.47201197               44.32179269                0.04573580                2.31221010               -1.28480825               -1.36370893               -8.94206962               65.05262440                5.30947165
              17.89144743                5.85808526               44.50263323                0.20227104                0.94223421               -0.57412185                0.11550099               -4.79048064               33.91780024                7.13764148
              18.89373112                5.33541529               44.07707596                0.43847117                0.30050217                0.08717896               -0.59390224               -0.21214623                1.88123371                2.05097919
              19.89745747                4.81829560               43.61572343                0.81580993                0.37263509                0.77680530               -2.01873600               -0.02656760                0.13650297               -3.43298769
              10.15510986               11.66863304               44.10965652                0.83415406                0.18473449               -0.10112091                0.22234547               -0.05430772               -0.02385100                2.39303992
              11.15695721               11.16395454               43.63717348                0.29468889                0.42728085                0.46498387               -1.45282582               -0.01115339                1.13091479               -2.13300202
              12.16365548               10.65820860               43.18765864                0.00010000                4.18006365                0.84819804               -2.89458730               -5.83363973               38.27388180               -5.12938611
              13.24055848               10.03269623               43.45735758                0.00010000                7.70504707               -1.65977033               -2.64233710               -7.72677944               73.46491151               -2.14129985
              14.31775642                9.38591888               43.70504862                0.00010000                6.59138842               -1.45200610               -2.38619534               -6.36469818               72.23806754               -0.72786266
              15.37238625                8.74306590               43.94298490                0.00010000                4.29510561               -0.96024492               -2.10030881               -5.63351135               72.20296766                0.38301879
              16.40365853                8.10103588               44.18343940                0.00010000                2.00932388               -0.39120487               -1.76465920               -6.10379736               73.33575246                1.59071338
              17.41257273                7.46192661               44.43830541                0.05192386                0.23288062                0.10122224               -1.36928713               -6.61121827               73.06115107                3.48229991
              18.40831614                6.85323710               44.66883757                0.21069700               -0.22476639               -0.28832847                0.63405669               -4.62085307               38.19017142                5.09728991
              19.40807740                6.33592862               44.22411930                0.44970333                0.12766720                0.01051706               -0.17875419               -0.25241751                2.25084537                1.92103820
              20.41086949                5.82512516               43.73477166                0.82249061                0.27920905                0.60196575               -1.73208197               -0.04101762                0.06276407               -2.84135458
              10.65641134               12.66806678               44.00552656                0.91403491                0.28495899               -0.05662609               -0.06136419                0.23459277                1.10319975                2.02686200
              11.65926093               12.16911123               43.51923746                0.64357595                0.62464866                0.51566875               -1.80093555                0.14772814                3.33163725               -1.84944477
              12.66890431               11.66641389               43.07733989                0.48437882                8.31919127                0.82052943               -3.18596858               -7.88950070               43.88222345               -3.63644815
              13.82564476               11.00082354               43.40061212                0.44721877               12.64984939               -3.18726945               -2.81562961               -6.40203085               80.68562765               -1.22965074
              14.92190130               10.36820072               43.68440491                0.43731616                7.68712209               -1.77181571               -2.48223412               -2.93559603               78.53466805               -0.43844539
              15.97938720                9.73382185               43.95662304                0.44730777                4.11826348               -0.92440446               -2.12963772               -2.65532530               78.45485849                0.17412445
              17.00426657                9.10109231               44.23193800                0.47662671                0.55368269                0.00564345               -1.73617421               -2.92846809               79.89645397                0.84705577
              17.99046085                8.47403641               44.52693628                0.52805477               -3.96191080                1.21098031               -1.33506767               -4.64986830               80.02507513                2.05520486
              18.92502836                7.85231869               44.79968122                0.60819274               -3.68330675               -0.09184070                0.97666940               -5.24931769               43.69439001                3.42410913
              19.91679472                7.33562563               44.36654269                0.72852929               -0.33921507               -0.03029881                0.22331463               -0.22745669                4.89731073                1.72560596
              20.91824405                6.83033492               43.86426201                0.91340071                0.14493372                0.52097637               -1.39048092                0.20838520                1.47708915               -2.26840144
               5.63964595                2.84072453               46.01573972                1.00000000               -0.72327778               -0.78805980                2.64828027               -0.15290932               -1.90542020                2.15927024
               6.63241318                2.26363580               45.75267244                0.83225852               -0.71629496               -0.49802569                1.94488797               -0.12580674               -2.50196604               -1.08828135
               7.62532006                1.68381527               45.47800121                0.60165995               -0.99174382               -0.26535676                1.15293692               -0.55046339               -2.30978015               -1.12104426
               8.61257830                1.08870895               45.21920494                0.49700347               -1.41438198               -0.11164292                0.41838530               -0.70239329               -0.26023478               -0.26123248
               9.59703242                0.46526934               44.98595154                0.44807939               -1.32035371                0.11667566               -0.36393581               -0.61166399                2.04525701               -0.21162518
              10.58617123               -0.18851674               44.77345412                0.44710952               -0.46377444                0.33609961               -1.18827514               -0.34897460                3.17418049               -0.00088846
              11.58775693               -0.85823411               44.56306251                0.49233799                0.66087099                0.55353650               -1.98495717               -0.32759464                2.31581894                0.19659256
              12.59938865               -1.52399715               44.33405311                0.58624565                1.31495550                0.76170853               -2.70404626               -0.40599375                0.27955290                0.33023588
              13.61405604               -2.17663756               44.08332835                0.73567393                1.43722456                0.94384790               -3.38105662               -0.34995550               -1.67232293                0.49646026
              14.62813314               -2.81812943               43.81486629                0.95242747                1.39503404                1.12804857               -4.07720303               -0.20314311               -2.14422173                1.07519404
              15.64195672               -3.45482638               43.55353878                1.00000000                1.38235804                1.39850948               -4.79995233               -0.19737059               -1.71030356               -1.67583705
               6.21520559                3.83284393               45.90781063                0.97764138               -0.55958539               -0.77170846                2.29856934               -0.05470455                0.42205309                2.57409794
               7.20960974                3.25865554               45.64017321                0.52274434               -0.39633725               -0.41670656                1.58549408               -0.09459077                1.44371987               -1.84558479
               8.20727885                2.68116171               45.39324696                0.10718801                0.26087983               -0.04990310                1.01711510               -0.89695819                3.74264365               -4.26686873
               9.21482733                2.08759252               45.17146757                0.00010000                1.11248875               -0.44448162                0.36719926               -2.04996327                5.89823319               -2.86967613
              10.22952862                1.46643610               44.96730538                0.00010000                1.48029361               -0.81538781               -0.31548701               -3.24424223                7.90562166               -0.79224016
              11.24443321                0.81484425               44.78557017                0.00010000                1.13462800               -0.38765855               -1.06434404               -3.96823261                9.15049392                0.22804899
              12.25222118                0.14730125               44.60619378                0.00010000                0.50486119                0.23879619               -1.79441168               -3.67917371                8.37054980                1.17858390
              13.25453043               -0.51638006               44.40826147                0.09198041                0.27007219                0.44284990               -2.44145666               -2.42582493                6.44011815                3.02141220
              14.25762263               -1.16719908               44.18943328                0.31430858                0.53328429                0.59315541               -3.04923208               -0.95277629                4.75901551                4.15491102
              15.26519612               -1.80684895               43.95706944                0.64639007                0.95286656                0.97983058               -3.64724319               -0.28152480                2.80846916                2.35278422
              16.27667996               -2.44084128               43.69836763                0.95925272                1.14838406                1.41417270               -4.30855519               -0.16848700                1.54976493               -2.26287702
               6.78692864                4.82529036               45.80860847                0.89049586               -0.47250544               -0.73410697                2.04144684               -0.08085522                0.36342261                2.98319318
               7.78220359                4.25530167               45.51271772                0.37204975               -0.42423640               -0.24482759                1.14743818               -0.11745462                1.78983346               -2.72501095
               8.77844391                3.68281721               45.24564455                0.00740174                0.20505284                0.37720139                0.47692238               -1.76712895                7.86480291               -8.92215176
               9.78630464                3.07981932               45.07141232                0.00010000                1.32259618               -0.83041028                0.10429622               -4.32739118               14.53309598               -4.91606027
              10.80489584                2.44896158               44.93669587                0.00010000                1.98183870               -1.40871677               -0.67231491               -6.10297267               16.52054596               -1.77557219
              11.82594142                1.80373009               44.80171183                0.00010000                2.02509641               -1.09671274               -1.27684132               -6.91370193               16.62197424                0.41641780
              12.84539777                1.14654181               44.66826981                0.00010000                1.97155294               -0.45454261               -1.83309157               -6.77765442               16.78572350                2.53705572
              13.86537248                0.48485985               44.53547949                0.01035597                2.00358161               -0.21276675               -2.37226940               -5.16767853               15.11889576                5.53012430
              14.88546940               -0.16477445               44.36768807                0.15235431                1.53861842               -0.91406410               -2.47962341               -2.33803435                9.70095152                9.99383578
              15.89614485               -0.79853282               44.12358813                0.37330032                1.05511258                0.36376207               -3.07319086               -0.72138430                3.45920722                4.01773194
              16.90657165               -1.42654293               43.82996396                0.77810204                1.04268040                1.75831611               -3.89514116               -0.55103933                1.02958721               -2.64595847
               7.35356587                5.81816179               45.70936267                0.87732573               -0.38320771               -0.66772340                1.79286585               -0.05787270                0.05373387                2.91346190
               8.34973380                5.25375899               45.38279080                0.35358019               -0.30736264               -0.10813038                0.77118933                0.00254369                0.60263681               -2.74811396
               9.34741862                4.68870573               45.06736692                0.00010000                0.62006720                0.58416673               -0.17232303               -2.50271849               12.77105587               -9.46824215
              10.36213514                4.07098431               44.98409618                0.00010000                1.80698898               -0.56781524               -0.56424199               -5.23188026               24.30223673               -4.80630095
              11.38355840                3.43826176               44.89857576                0.00010000                2.32219009               -0.90764434               -1.01696270               -6.23551723               24.50531606               -2.18636275
              12.40857894                2.79291000               44.81830200                0.00010000                2.59899640               -1.05462015               -1.47900685               -6.87788463               24.92441329                0.44817125
              13.43553833                2.13821040               44.73966720                0.00010000                2.69570892               -0.97542719               -1.87690982               -6.88230388               25.04170348                3.07370146
              14.46249312                1.47936460               44.66007995                0.01421475                2.93581427               -0.93395981               -2.16574601               -6.62466716               25.59677607                5.82193615
              15.49425461                0.81451964               44.59044636                0.15452284                2.50218927               -1.90198938               -2.37908095               -3.53070494               15.07303141               10.67333766
              16.51253690                0.20042629               44.29844686                0.36808225                1.37123817               -0.05297383               -2.62662052               -0.37433038                2.04672090                3.80572296
              17.52167938               -0.40567496               43.96586670                0.77187709                0.91424709                1.98251974               -3.55203583               -0.09794499                0.07642064               -2.51195462
               7.91457679                6.81193589               45.60908429                0.86818415               -0.28662708               -0.57538617                1.53734444               -0.05704743                0.05677236                2.88121096
               8.91171052                6.25313906               45.25504291                0.34160218               -0.17062853               -0.01647017                0.39500400                0.04699554                0.41908634               -2.60308021
               9.91116422                5.69450055               44.90836807                0.00010000                1.02002457                0.59681844               -0.67956825               -3.14975646               16.96847215               -8.20881679
              10.93211101                5.06846301               44.88513342                0.00010000                2.35477940               -0.10600539               -1.03379806               -6.45894482               33.10387615               -5.24205939
              11.95825981                4.43080870               44.85989201                0.00010000                2.81620376               -0.63899907               -1.36778401               -7.07168277               33.11202762               -2.23639048
              12.98843509                3.78263768               44.83534424                0.00010000                3.15186364               -1.01911426               -1.67036709               -7.47105032               33.33980131                0.49344630
              14.02129708                3.12703327               44.81280804                0.00010000                3.40674032               -1.24105531               -1.90899266               -7.55785207               33.73891113                3.20400815
              15.05656989                2.46618066               44.79410082                0.01934187                3.62482640               -1.44083426               -2.05697229               -7.61450844               34.40216801                6.11456117
              16.09379361                1.79718576               44.78258237                0.16203348                2.61414723               -1.52860878               -2.07634755               -4.14550012               19.40613083                8.70779632
              17.10885284                1.20040770               44.46124525                0.37849798                1.15108252                0.07601387               -2.25212775               -0.38431566                2.02980542                2.88433379
              18.11681526                0.61310747               44.09958185                0.77809924                0.79624221                1.73128226               -3.26318369               -0.02046402                0.06772521               -2.89490735
               8.47001859                7.80665407               45.50945084                0.85916182               -0.19095347               -0.48069061                1.28064903               -0.05609632                0.05623479                2.91790642
               9.46810905                7.25342959               45.12805313                0.32976281               -0.04595241                0.07676612                0.01585808                0.06138990                0.46736892               -2.53447394
              10.46909954                6.70064210               44.75494438                0.00010000                1.42695198                0.65121258               -1.16099855               -3.71461137               21.21836588               -7.83083857
              11.49664809                6.06886421               44.78830420                0.00010000                2.94252666                0.14331270               -1.44364626               -7.56861642               41.57280795               -5.01237244
              12.52795007                5.42548178               44.82042218                0.00010000                3.31426361               -0.45452181               -1.67218596               -8.10223976               41.62161197               -2.19840412
              13.56293336                4.77252771               44.85269134                0.00010000                3.64441200               -1.01091867               -1.84351751               -8.43004131               41.83768209                0.54596953
              14.60083831                4.11338929               44.88679485                0.00010000                3.85585448               -1.42277067               -1.93652502               -8.51353508               42.23161426                3.24534033
              15.64005045                3.45054792               44.92441347                0.02461802                3.81396259               -1.57456664               -1.91958185               -8.63462618               42.73443265                5.88107869
              16.67711756                2.78394746               44.96591090                0.16976496                2.44392148               -1.17431579               -1.66712595               -4.73812869               23.60816710                8.11515455
              17.68892888                2.20194657               44.61777868                0.38919926                0.93764969                0.18390973               -1.88535995               -0.36978227                2.14385101                2.39103269
              18.69587056                1.62895068               44.22744506                0.78454163                0.69416741                1.46097736               -2.99800536               -0.01661268                0.08723356               -3.35272359
               9.01990383                8.80232208               45.41017659                0.85024731               -0.09535427               -0.38608336                1.02271435               -0.05557730                0.05845758                2.92680886
              10.01895029                8.25467438               45.00162691                0.31796351                0.07667731                0.17404892               -0.36458639                0.06492309                0.56092022               -2.48683918
              11.02143738                7.70752480               44.60314226                0.00010000                1.84743604                0.73146195               -1.63774717               -4.21246877               25.51075996               -7.68042765
              12.05589901                7.07132927               44.69323667                0.00010000                3.55570660                0.33653164               -1.82398441               -8.57250109               49.99202610               -4.80169276
              13.09255151                6.42171826               44.78185776                0.00010000                3.80138704               -0.32882736               -1.94375404               -9.12578863               50.04580068               -2.05017228
              14.13192675                5.76241931               44.87025610                0.00010000                4.02273335               -1.00959354               -1.99217835               -9.40132793               50.26123331                0.59855733
              15.17300617                5.09857785               44.96020694                0.00010000                4.06962258               -1.50302407               -1.94713569               -9.40076102               50.64056640                3.21454346
              16.21331920                4.43468932               45.05312900                0.03008456                3.73131053               -1.58941769               -1.76721783               -9.29059476               50.94269115                5.81756648
              17.24763238                3.77369945               45.14608857                0.17751159                2.15673865               -0.91846343               -1.20631995               -4.98699910               27.68763230                7.89867333
              18.25645397                3.20408590               44.77031820                0.39997093                0.74211986                0.21181044               -1.51487870               -0.31738079                2.21186284                2.12053984
              19.26247478                2.64232702               44.35138211                0.79102859                0.60208092                1.22970501               -2.73997446               -0.01543458                0.10710641               -3.61171129
               9.56420244                9.79893240               45.31097488                0.84125085                0.00023618               -0.29224394                0.76317766               -0.05536979                0.05978361                2.90403154
              10.56420480                9.25691057               44.87546680                0.30636599                0.19964227                0.27469937               -0.74581576                0.05946480                0.67757943               -2.46104698
              11.56819528                8.71527134               44.45228038                0.00010000                2.33999051                0.81453185               -2.10710356               -4.67054377               29.85910059               -7.55044263
              12.61100461                8.07559484               44.59994946                0.00010000                4.30744873                0.44678643               -2.18121297               -9.35020945               58.41845491               -4.50627107
              13.65434426                7.41890523               44.74464899                0.00010000                4.35213027               -0.34087409               -2.18589082               -9.81472737               58.38176132               -1.82835651
              14.69804721                6.75233584               44.88793502                0.00010000                4.31044112               -1.02032483               -2.11641002               -9.88819075               58.57899265                0.61681150
              15.74055308                6.08332881               45.03277144                0.00010000                4.05348758               -1.46808930               -1.94653908               -9.82134380               59.02626064                3.07669614
              16.77911697                5.41875957               45.18129853                0.03560322                3.37139653               -1.56172442               -1.62520735               -9.46555677               59.12998860                5.74094607
              17.80798101                4.76557819               45.32482880                0.18538995                1.74183661               -0.72643940               -0.70242449               -5.00520715               31.68656673                7.79570628
              18.81395370                4.20618278               44.92073062                0.41077194                0.55493073                0.18729397               -1.13269270               -0.26499785                2.24165457                2.02603691
              19.81907962                3.65354478               44.47322282                0.79753315                0.51259263                1.02309722               -2.47869569               -0.01761033                0.12472198               -3.68496862
              10.10284011               10.79647720               45.21147105                0.83224278                0.09605380               -0.19945882                0.50145401               -0.05555687                0.07368344                2.87924359
              11.10380064               10.26016837               44.74935637                0.29475516                0.32510608                0.37873840               -1.12771302                0.03774828                0.84320771               -2.48932022
              12.10934223                9.72381543               44.30254796                0.00010000                3.07301421                0.87718948               -2.56538667               -5.17108961               34.36098194               -7.19558480
              13.16526093                9.08026499               44.51020880                0.00010000                5.50868648                0.15653772               -2.50856585               -9.76168771               66.90387366               -3.82331199
              14.21951596                8.41490078               44.70996165                0.00010000                5.22392132               -0.78664963               -2.39290114               -9.36611944               66.52227400               -1.43912804
              15.26973935                7.74201281               44.90524058                0.00010000                4.53198091               -1.02917945               -2.21423820               -9.03608860               66.64640456                0.53990346
              16.31015558                7.06921607               45.10263500                0.00010000                3.60096634               -1.10683505               -1.94391249               -9.10275588               67.35056235                2.59679333
              17.34175868                6.40345483               45.30751666                0.04139105                2.49747262               -1.25984870               -1.52005897               -9.04922588               67.41511526                5.20911954
              18.36010503                5.75917066               45.50254611                0.19338266                1.07143728               -0.54148402               -0.16627758               -4.92647656               35.74870596                7.46121569
              19.36318743                5.20783178               45.07049718                0.42164369                0.36467699                0.12880321               -0.73370869               -0.24485402                2.29567747                2.11427753
              20.36739857                4.66278896               44.59467365                0.80402896                0.42111407                0.83120755               -2.20488440               -0.02343368                0.15964918               -3.62371379
              10.63570896               11.79494323               45.11196671                0.82324344                0.19125702               -0.10798832                0.24044271               -0.05549356               -0.02684131                2.49661667
              11.63762153               11.26448533               44.62235134                0.28323690                0.44839524                0.48405972               -1.51359958               -0.01707601                1.25359927               -2.23900423
              12.64467687               10.73281513               44.15821090                0.00010000                4.35319896                0.86154843               -2.99378491               -5.95436827               39.37383454               -5.34724583
              13.72468551               10.07872559               44.43026208                0.00010000                8.02985916               -1.72097249               -2.77996756               -7.86913662               75.37407895               -2.27687459
              14.80527405                9.40317224               44.68039388                0.00010000                6.91623213               -1.50595557               -2.55203009               -6.44752120               74.12173635               -0.81432794
              15.86301015                8.73175225               44.92115233                0.00010000                4.58909452               -1.00143290               -2.27913714               -5.67016131               74.10078043                0.32516771
              16.89705594                8.06119211               45.16505098                0.00010000                2.25838513               -0.41889420               -1.93265909               -6.10905288               75.28438639                1.54339610
              17.90817786                7.39356259               45.42416298                0.04734420                0.40092990                0.09625273               -1.48599620               -6.66197967               75.80081034                3.38494563
              18.90507454                6.75474851               45.67401006                0.20155424               -0.13697708               -0.21432998                0.36702614               -4.71245431               40.35550593                5.34171155
              19.90543831                6.20875884               45.22173110                0.43254959                0.18110200                0.05057814               -0.31051455               -0.29177164                2.67473429                1.99734906
              20.90869658                5.67016893               44.71659957                0.81047890                0.32582634                0.65642087               -1.91526151               -0.04017817                0.08285281               -2.98944107
              11.16264602               12.79431744               45.00497004                0.90866954                0.29412005               -0.06257902               -0.04961732                0.24691865                1.14873573                2.11583933
              12.16558722               12.26984957               44.50088746                0.63796337                0.66842922                0.53642313               -1.87126673                0.13301708                3.56641425               -1.94049912
              13.17601460               11.74104640               44.04496936                0.48334456                8.59669343                0.82312723               -3.28712802               -8.06642740               45.19445156               -3.79359585
              14.33752109               11.04584554               44.37176966                0.44719334               13.07621355               -3.28800489               -2.95522213               -6.52967919               82.76964652               -1.28953660
              15.43753887               10.38478167               44.65878316                0.43738444                8.03975852               -1.83905725               -2.64848224               -2.96658707               80.56096791               -0.47103797
              16.49831626                9.72198415               44.93449961                0.44709206                4.43126529               -0.97680983               -2.30671384               -2.66656381               80.48821339                0.15672183
              17.52616418                9.06083818               45.21385893                0.47563762                0.83232132               -0.03539274               -1.89776923               -2.91938933               81.95965985                0.83321181
              18.51496268                8.40537989               45.51321782                0.52575171               -3.77522452                1.18172976               -1.43275508               -4.61922340               83.01474352                1.98351232
              19.45065969                7.75488406               45.80832104                0.60352361               -3.65155552                0.01355451                0.71904177               -5.26831244               46.19219239                3.60295155
              20.44193157                7.20884334               45.36823783                0.71981958               -0.34424330                0.00844939                0.10530322               -0.29900812                5.45037831                1.80381320
              21.44377482                6.67591738               44.84955420                0.90732224                0.18432495                0.57484443               -1.56233556                0.21522860                1.56314844               -2.37990673
               5.88690785                2.97225466               47.04253500                1.00000000               -0.73954956               -0.80973682                2.71402724               -0.15963012               -1.95742529                2.21437358
               6.87951235                2.36661346               46.77228981                0.82135008               -0.73437765               -0.50981833                1.98087059               -0.13853096               -2.59792833               -1.17086171
               7.87222029                1.75810551               46.48956295                0.59725579               -1.01068387               -0.26879179                1.15903257               -0.55900492               -2.41879901               -1.10872479
               8.85929867                1.13402388               46.22327828                0.49555739               -1.42616827               -0.10365000                0.39590302               -0.69861237               -0.35781935               -0.27539915
               9.84369693                0.48152409               45.98207366                0.44791830               -1.32872807                0.13519041               -0.41385754               -0.60502617                1.91122529               -0.21945736
              10.83272411               -0.20127806               45.76119938                0.44681228               -0.48599937                0.36529216               -1.26616752               -0.34546387                3.03926733               -0.00567736
              11.83397694               -0.90034504               45.54269778                0.49085971                0.63370119                0.59010924               -2.09416865               -0.31560747                2.23279314                0.19615614
              12.84539813               -1.59618758               45.30631644                0.58222662                1.31475070                0.80452873               -2.85099503               -0.39151415                0.25102350                0.33396258
              13.86027195               -2.27947276               45.04859576                0.72738055                1.47704786                0.99702319               -3.57177153               -0.34463505               -1.69162667                0.48857152
              14.87493909               -2.95172795               44.77294082                0.93727057                1.46389692                1.19130926               -4.31311865               -0.20879460               -2.18465188                1.07497099
              15.88954989               -3.61901425               44.50415595                1.00000000                1.46108001                1.47434593               -5.08070311               -0.21368370               -1.76107774               -1.70406694
               6.49095275                3.96415729               46.93114216                0.96232835               -0.57511308               -0.79679385                2.36819436               -0.06078351                0.49130181                2.67632776
               7.48520161                3.36151528               46.65625240                0.50425061               -0.40138555               -0.42764121                1.62703190               -0.10797588                1.58197002               -1.97685538
               8.48292503                2.75541759               46.40346994                0.10084600                0.27008234               -0.04133315                1.02912607               -0.92653773                3.91228644               -4.46307991
               9.49060326                2.13298738               46.17508666                0.00010000                1.11863009               -0.47380738                0.35720478               -2.06576922                6.00629042               -3.00228363
              10.50529764                1.48287599               45.96400663                0.00010000                1.48003884               -0.81054528               -0.34461095               -3.25101031                7.95368344               -1.01387262
              11.52020404                0.80237486               45.77469347                0.00010000                1.14889948               -0.39208705               -1.11216680               -3.97003894                9.16484730                0.04158743
              12.52827563                0.10555605               45.58792118                0.00010000                0.54214063                0.22615309               -1.86407455               -3.69446211                8.43204536                1.04784669
              13.53104685               -0.58814230               45.38337541                0.08609502                0.31600804                0.45566490               -2.54165653               -2.46824864                6.56537511                2.91425013
              14.53459579               -1.26950253               45.15827194                0.30197115                0.57875219                0.62397291               -3.18863666               -0.96432275                4.91350025                4.26895686
              15.54262189               -1.93981486               44.91969817                0.62306244                1.00517861                1.02759806               -3.83141357               -0.29315370                2.94019491                2.43006887
              16.55469936               -2.60427080               44.65417023                0.94297214                1.20774641                1.48431584               -4.53403297               -0.18536854                1.65304654               -2.32732762
               7.09097621                4.95631878               46.82943219                0.87725802               -0.48836771               -0.75882421                2.11795219               -0.08413351                0.36441594                3.12391146
               8.08609253                4.35806064               46.52431834                0.35738457               -0.43793854               -0.25417786                1.17418927               -0.11891648                1.90797555               -2.87356365
               9.08221744                3.75727885               46.25036848                0.00363722                0.22161804                0.39827660                0.47132031               -1.84322121                8.24238002               -9.38123605
              10.09052489                3.12454773               46.07219379                0.00010000                1.35359022               -0.83578481                0.04992580               -4.40068448               14.84858055               -5.35962423
              11.10928924                2.46531318               45.92966665                0.00010000                2.00591922               -1.41607093               -0.73489065               -6.12760868               16.71071548               -2.20436140
              12.13064328                1.79088020               45.78853223                0.00010000                2.06578061               -1.12247188               -1.36221745               -6.96255496               16.90650406                0.04656467
              13.15060485                1.10417802               45.64941799                0.00010000                2.02242310               -0.49446311               -1.94293463               -6.82152968               17.09817265                2.25766120
              14.17109174                0.41292571               45.51115010                0.00672434                2.10266033               -0.24571190               -2.50225452               -5.22391971               15.67251986                5.36139966
              15.19265806               -0.26699330               45.34245968                0.14450363                1.63762749               -0.91137229               -2.57033226               -2.41531761               10.21828661                9.94935153
              16.20384429               -0.93117599               45.09226293                0.35775176                1.10481676                0.36901691               -3.19624625               -0.75053514                3.60393384                4.09427583
              17.21475439               -1.58932794               44.79018097                0.76703438                1.09101076                1.80689732               -4.06468587               -0.56546837                1.05876288               -2.79179346
               7.68578637                5.94898081               46.72754884                0.86458387               -0.39231524               -0.68511326                1.84908430               -0.05874712                0.05568046                3.04482874
               8.68186322                5.35643172               46.39052879                0.33964645               -0.31064279               -0.11391566                0.77939849                0.01390855                0.64530226               -2.86518155
               9.67957352                4.76338313               46.06549316                0.00010000                0.63460101                0.60277938               -0.20192373               -2.54307757               13.13097815               -9.91301623
              10.69455524                4.11627168               45.97814088                0.00010000                1.84197410               -0.51944313               -0.62718207               -5.31844616               24.88914304               -5.34635758
              11.71641300                3.45455457               45.88795186                0.00010000                2.37664318               -0.90048993               -1.11057452               -6.29451657               25.03854464               -2.60742465
              12.74208810                2.77992542               45.80293005                0.00010000                2.66932585               -1.05590545               -1.60063449               -6.94064917               25.46690536                0.09043607
              13.76979951                2.09566679               45.72018717                0.00010000                2.78258361               -0.98188075               -2.02804325               -6.95275138               25.65670068                2.79661870
              14.79773977                1.40694346               45.63760167                0.01052868                3.02958114               -0.95136511               -2.34343937               -6.68315410               26.28623527                5.66967811
              15.83039114                0.71227003               45.56559642                0.14680444                2.61030275               -1.89395761               -2.61481678               -3.63619034               15.80076757               10.49953724
              16.84994583                0.06756548               45.27164497                0.35319362                1.46513749               -0.06256792               -2.74335596               -0.42493039                2.43048509                3.77363188
              17.85969389               -0.56813285               44.92957954                0.76135746                0.97480574                2.00968838               -3.71482190               -0.09362282                0.08602114               -2.72642880
               8.27489944                6.94261652               46.62469214                0.85578654               -0.29310603               -0.58903302                1.58687231               -0.05752261                0.05816725                3.01177568
               9.27196838                6.35578232               46.25896026                0.32808476               -0.16917600               -0.01697570                0.38964343                0.06065707                0.45679682               -2.72206715
              10.27151592                5.76933444               45.90133644                0.00010000                1.05080692                0.61344974               -0.72605419               -3.18562252               17.40547141               -8.57064588
              11.29298452                5.11415887               45.87438545                0.00010000                2.41146240               -0.06695796               -1.11728830               -6.53786177               33.88835304               -5.65238105
              12.31974517                4.44730338               45.84563801                0.00010000                2.88667787               -0.61042229               -1.48697651               -7.13992938               33.89669519               -2.62927624
              13.35071808                3.76976209               45.81790756                0.00010000                3.23933054               -0.99693831               -1.82472550               -7.54223541               34.14657688                0.16047957
              14.38453178                3.08454040               45.79283375                0.00010000                3.50536679               -1.22021607               -2.09893603               -7.63172867               34.59821256                2.94796166
              15.42082541                2.39389841               45.77248070                0.01551968                3.73902280               -1.41297226               -2.28793474               -7.68506959               35.34356175                5.94895152
              16.45931224                1.69512755               45.76048591                0.15409579                2.74615712               -1.51096744               -2.37106658               -4.23381761               20.36021741                8.73973821
              17.47574856                1.06757265               45.43812391                0.36329911                1.24831790                0.09053301               -2.38276277               -0.44977508                2.50664994                2.82309219
              18.48427860                0.45086583               45.06612980                0.76735613                0.85300390                1.75811484               -3.43862451               -0.01934204                0.08397184               -3.14692983
               8.85830431                7.93720015               46.52246525                0.84708010               -0.19458699               -0.49381041                1.32419020               -0.05691667                0.05776922                3.04627940
               9.85635844                7.35609221               46.12812600                0.31665086               -0.04098957                0.08082522               -0.00134969                0.07486635                0.51630142               -2.65676406
              10.85748452                6.77565212               45.74303578                0.00010000                1.47353078                0.67062839               -1.22235572               -3.74951252               21.76393508               -8.17754690
              11.88582906                6.11493252               45.77336655                0.00010000                3.02633356                0.18057077               -1.54597360               -7.65212224               42.56458997               -5.37197638
              12.91801119                5.44234613               45.80301723                0.00010000                3.40886588               -0.41500206               -1.81432911               -8.17890674               42.63841230               -2.53919743
              13.95400637                4.75998665               45.83340344                0.00010000                3.75087127               -0.97121821               -2.02440879               -8.49994801               42.89050928                0.25312321
              14.99302862                4.07126247               45.86641710                0.00010000                3.97224321               -1.37834759               -2.15628351               -8.57910450               43.34863318                3.02510687
              16.03345124                3.37868402               45.90405323                0.02069346                3.95059639               -1.52604353               -2.17925613               -8.70368281               43.99084000                5.77025225
              17.07204054                2.68205068               45.94774066                0.16152180                2.58804040               -1.15531263               -2.00135836               -4.83096602               24.77930634                8.26239965
              18.08521205                2.06937614               45.59825050                0.37360218                1.03400731                0.21794743               -2.03215233               -0.43303927                2.65596921                2.34514193
              19.09272069                1.46702945               45.19657851                0.77359498                0.75086438                1.49895071               -3.18890511               -0.01346702                0.10687044               -3.61509464
               9.43597699                8.93274031               46.42058290                0.83842570               -0.09632590               -0.39821919                1.06024430               -0.05652835                0.06031955                3.05333195
              10.43501374                8.35739883               45.99784038                0.30538447                0.08541801                0.18230586               -0.39352818                0.07619686                0.62413245               -2.61051088
              11.43768536                7.78274701               45.58639695                0.00010000                1.91171672                0.75532777               -1.71146194               -4.25057678               26.18126894               -8.02025966
              12.47324807                7.11777028               45.67442083                0.00010000                3.67137747                0.37182140               -1.94217065               -8.65953250               51.20670827               -5.12602406
              13.51111290                6.43900334               45.76165357                0.00010000                3.92773552               -0.28968812               -2.10392948               -9.20416365               51.29466078               -2.34258532
              14.55180278                5.75033772               45.84940141                0.00010000                4.15697111               -0.96504393               -2.19146442               -9.46269698               51.55759046                0.35566640
              15.59425233                5.05697345               45.93966302                0.00010000                4.20803818               -1.45013205               -2.18257155               -9.45053105               52.01974403                3.04095442
              16.63596354                4.36337754               46.03427469                0.02592692                3.88742349               -1.53149905               -2.03517079               -9.36390057               52.54185364                5.74466320
              17.67200080                3.67202130               46.13244096                0.16907089                2.30727292               -0.89372777               -1.56186728               -5.08290778               29.07787230                8.12202413
              18.68210900                3.07193160               45.75443854                0.38399044                0.83509212                0.25753293               -1.67453512               -0.37093833                2.73835451                2.09997689
              19.68870264                2.48084484               45.32303793                0.77983610                0.65936363                1.27843432               -2.94450239               -0.01113594                0.12989362               -3.86901312
              10.00785671                9.92923576               46.31875799                0.82975428                0.00189722               -0.30290385                0.79479690               -0.05641823                0.06181377                3.02829159
              11.00787568                9.35973832               45.86781060                0.29408807                0.21224080                0.28708871               -0.78672941                0.06779864                0.75995098               -2.58503574
              12.01210153                8.79075868               45.43079382                0.00010000                2.42531929                0.84303517               -2.18990683               -4.71843536               30.66651728               -7.87857307
              13.05638207                8.12236895               45.57750021                0.00010000                4.46294756                0.47348996               -2.31203003               -9.44499871               59.86745016               -4.79378651
              14.10136048                7.43655237               45.72196694                0.00010000                4.52001280               -0.31449756               -2.35823220               -9.89087237               59.86543232               -2.06805692
              15.14678233                6.74068578               45.86580032                0.00010000                4.48088492               -0.98651046               -2.32501816               -9.93330726               60.11427220                0.42894451
              16.19097818                6.04225982               46.01223796                0.00010000                4.21715290               -1.42003586               -2.18378095               -9.84728340               60.65849655                2.94600776
              17.23112538                5.34805404               46.16394919                0.03132846                3.54250756               -1.50238181               -1.87979052               -9.53848084               61.09550714                5.68193349
              18.26182833                4.66417612               46.31619651                0.17668480                1.89221741               -0.69464876               -1.06591584               -5.10435049               33.31292158                8.08041238
              19.26896973                4.07452680               45.90864232                0.39442984                0.64215781                0.23843793               -1.29932598               -0.30849302                2.76950837                2.03653870
              20.27467149                3.49259813               45.44745103                0.78610518                0.57017531                1.07998675               -2.69222321               -0.01312294                0.14998712               -3.92532658
              10.57384351               10.92668223               46.21660789                0.82107740                0.10032822               -0.20846918                0.52689197               -0.05681003                0.07626362                3.00228903
              11.57484680               10.36314060               45.73782341                0.28289515                0.34212530                0.39525211               -1.18048921                0.04173965                0.95032805               -2.61467674
              12.58068602                9.79960771               45.27643315                0.00010000                3.18538060                0.90418052               -2.65854310               -5.23903088               35.32099893               -7.50156094
              13.63855441                9.12724008               45.48444257                0.00010000                5.71463062                0.16144633               -2.64740235               -9.87096536               68.59819038               -4.05648617
              14.69497863                8.43271339               45.68517877                0.00010000                5.44373841               -0.78707781               -2.57182493               -9.43460757               68.23725370               -1.61483378
              15.74742918                7.73060751               45.88212441                0.00010000                4.74798820               -1.01877806               -2.42440774               -9.05891147               68.40302789                0.41268289
              16.78993840                7.02857273               46.08218365                0.00010000                3.79242259               -1.07899776               -2.17117630               -9.09600877               69.20811984                2.50785255
              17.82327763                6.33332990               46.29139151                0.03694274                2.67513152               -1.20648426               -1.74321094               -9.09699694               69.76609259                5.13304151
              18.84344103                5.65812832               46.49930767                0.18445820                1.21197520               -0.49398625               -0.52406130               -5.02998662               37.64436013                7.78190872
              19.84751713                5.07670036               46.06240179                0.40489630                0.44282409                0.18040751               -0.90030338               -0.28354547                2.81964132                2.16133511
              20.85229751                4.50244458               45.57162574                0.79236061                0.47803764                0.89288263               -2.42135571               -0.01967259                0.18805718               -3.83900452
              11.13380378               11.92506638               46.11446537                0.81236750                0.19812255               -0.11526627                0.25992908               -0.05691673               -0.03014752                2.60473902
              12.13578500               11.36764336               45.60690149                0.27178924                0.47088262                0.50441999               -1.57825148               -0.02404950                1.39919307               -2.35052271
              13.14322143               10.80884229               45.12778294                0.00010000                4.50360389                0.87086775               -3.09073391               -6.04101809               40.51579402               -5.57017120
              14.22585708               10.12559788               45.40175823                0.00010000                8.30397341               -1.76112185               -2.92327003               -7.96810031               77.31850737               -2.41965713
              15.30930090                9.42081081               45.65400802                0.00010000                7.19438366               -1.53559991               -2.73285643               -6.49377925               76.04311839               -0.90795387
              16.36974475                8.72031021               45.89740216                0.00010000                4.85173570               -1.01728938               -2.48615624               -5.67422066               76.04640564                0.26281183
              17.40633561                8.02067987               46.14478622                0.00010000                2.49425531               -0.42160367               -2.14530084               -6.07913497               77.30703527                1.50018511
              18.41962986                7.32392435               46.40858548                0.04276550                0.57612653                0.11335327               -1.66661216               -6.66837472               78.53330738                3.31249198
              19.41785814                6.65429640               46.67617809                0.19239187               -0.03236476               -0.11862872                0.02337896               -4.76891192               42.57346336                5.58944935
              20.41898256                6.07813495               46.21790901                0.41540637                0.24657259                0.09940355               -0.46890908               -0.33943091                3.20718114                2.06744470
              21.42278959                5.51045579               45.69646643                0.79860094                0.38070294                0.71914763               -2.12788831               -0.03907728                0.10849907               -3.15234704
              11.68755121               12.92437691               46.00453422                0.90333721                0.30386879               -0.06894725               -0.03721724                0.25995274                1.19643943                2.20875753
              12.69058990               12.37322900               45.48181213                0.63229978                0.71799672                0.55856362               -1.94617690                0.11289749                3.83189784               -2.03597249
              13.70191115               11.81702506               45.01159733                0.48224510                8.83169905                0.81827762               -3.38497296               -8.19159611               46.55864151               -3.95403065
              14.86722388               11.09201765               45.34150768                0.44717542               13.42397820               -3.35802318               -3.09917268               -6.61450350               84.89332617               -1.35115706
              15.97039071               10.40200139               45.63143527                0.43749689                8.34259113               -1.88094160               -2.82743761               -2.97881475               82.62866529               -0.50506847
              17.03407570                9.71026173               45.91048876                0.44683474                4.71754244               -1.00484891               -2.50922774               -2.65994162               82.57383081                0.13989434
              18.06474156                9.02014066               46.19398261                0.47466121                1.11089507               -0.05392080               -2.10132289               -2.89264307               84.10716079                0.82583431
              19.05629360                8.33559697               46.49828117                0.52339374               -3.54446829                1.16726167               -1.58822411               -4.55287128               86.00300863                1.93398263
              19.99385219                7.65575575               46.81406206                0.59888607               -3.58622391                0.14593470                0.38666272               -5.24602191               48.74653071                3.78841922
              20.98456913                7.07868843               46.36864876                0.71115234               -0.34889530                0.05534813               -0.03696727               -0.38775454                6.11861181                1.88148249
              21.98687429                6.51682753               45.83301530                0.90129072                0.23051605                0.63717446               -1.76108362                0.22237945                1.65834518               -2.49956240
               6.14098782                3.10779768               48.07002027                1.00000000               -0.75611588               -0.83243876                2.78220890               -0.16809700               -2.00895044                2.27343382
               7.13342666                2.47229339               47.79228986                0.81040680               -0.75161046               -0.52034741                2.01800476               -0.14907496               -2.69295600               -1.25331082
               8.12595561                1.83382679               47.50118186                0.59286238               -1.02577241               -0.27322090                1.16607922               -0.56198652               -2.52760076               -1.09362933
               9.11291121                1.17958422               47.22712300                0.49422222               -1.43098911               -0.09528845                0.37385215               -0.69010237               -0.45608358               -0.28984365
              10.09733582                0.49701424               46.97767439                0.44774262               -1.32893821                0.15514016               -0.46724128               -0.59416975                1.77677254               -0.22674848
              11.08633244               -0.21561847               46.74813077                0.44657950               -0.50200471                0.39616273               -1.35087065               -0.34028539                2.90391862               -0.01038577
              12.08729573               -0.94475778               46.52117914                0.48944146                0.60893506                0.62957595               -2.21483203               -0.30242537                2.14912096                0.19529680
              13.09851115               -1.67143583               46.27703321                0.57819489                1.31516965                0.85071115               -3.01175235               -0.37543235                0.22113513                0.33696855
              14.11359912               -2.38621849               46.01189292                0.71899863                1.51843796                1.05346174               -3.77573753               -0.33836987               -1.71342723                0.48043901
              15.12887990               -3.09014471               45.72860392                0.92217490                1.53528914                1.25750371               -4.56008228               -0.21370844               -2.22772416                1.07384056
              16.14430491               -3.78893628               45.45192472                1.00000000                1.54250009                1.55234243               -5.36998165               -0.22997118               -1.81431503               -1.73110481
               6.77481114                4.09947329               47.95517452                0.94701516               -0.58897861               -0.82178883                2.43641191               -0.06549501                0.56358394                2.78411483
               7.76892135                3.46708991               47.67271385                0.48580291               -0.40604072               -0.43696893                1.66357201               -0.11892769                1.72907170               -2.10998204
               8.76669032                2.83109458               47.41382948                0.09448136                0.27475529               -0.03287586                1.04395834               -0.94990619                4.09534119               -4.66875995
               9.77441646                2.17863134               47.17861167                0.00010000                1.11525751               -0.50058072                0.34861733               -2.07310321                6.12982083               -3.16557342
              10.78899547                1.49856565               46.96041316                0.00010000                1.46995727               -0.80425595               -0.37500736               -3.24261473                8.01944168               -1.26434054
              11.80381560                0.78834315               46.76332684                0.00010000                1.15923398               -0.39783628               -1.16334920               -3.95199747                9.19831436               -0.18188067
              12.81218015                0.06153798               46.56891229                0.00010000                0.58357865                0.20934111               -1.94237941               -3.69121263                8.50856445                0.87389405
              13.81548718               -0.66292872               46.35742834                0.08022348                0.36948567                0.46487050               -2.65297273               -2.49759080                6.69842594                2.76490661
              14.81956987               -1.37568387               46.12566055                0.28950368                0.63072705                0.65532947               -3.33944811               -0.97588904                5.06949244                4.38118350
              15.82810172               -2.07756968               45.88044117                0.59980008                1.06134485                1.07753026               -4.02413734               -0.30533286                3.07313759                2.51075212
              16.84079676               -2.77341286               45.60768697                0.92680338                1.26950467                1.55740924               -4.76552441               -0.20402278                1.75913052               -2.39097828
               7.40444467                5.09136190               47.85096751                0.86401845               -0.50178595               -0.78374388                2.18890437               -0.08536680                0.36186078                3.26786936
               8.39942681                4.46355401               47.53620151                0.34276539               -0.45143077               -0.26382375                1.20190622               -0.12092293                2.02991100               -3.03044848
               9.39541606                3.83316927               47.25507096                0.00010000                0.22756328                0.41914324                0.47041049               -1.91228160                8.62087472               -9.86537393
              10.40397808                3.16957261               47.07241083                0.00010000                1.36778272               -0.83829186               -0.00770981               -4.45986515               15.17460516               -5.84224063
              11.42277171                2.48092913               46.92199806                0.00010000                2.01710413               -1.42118662               -0.80066414               -6.13015791               16.92773956               -2.68950592
              12.44432016                1.77642480               46.77446748                0.00010000                2.09858176               -1.14998818               -1.45486858               -6.98169760               17.21017398               -0.39435231
              13.46474335                1.05942904               46.62941111                0.00010000                2.07305088               -0.54054849               -2.06511812               -6.83713265               17.43269270                1.89481873
              14.48578118                0.33786158               46.48543440                0.00311210                2.19894771               -0.28218600               -2.64988924               -5.26097685               16.28525786                5.10042403
              15.50872230               -0.37311190               46.31628143                0.13664958                1.73605273               -0.89159826               -2.67360255               -2.48994487               10.78836448                9.79566516
              16.52050223               -1.06859411               46.05966321                0.34233322                1.15942569                0.38038142               -3.32690904               -0.78072153                3.75586571                4.14918559
              17.53191082               -1.75778810               45.74867024                0.75599913                1.14085812                1.86302458               -4.24019171               -0.58270371                1.08726790               -2.96430528
               8.02871959                6.08379842               47.74634435                0.85192061               -0.40240677               -0.70534500                1.91214599               -0.06053574                0.05669757                3.17910862
               9.02469552                5.46181344               47.39837877                0.32587404               -0.31467493               -0.12267493                0.79219348                0.02271899                0.69208958               -2.99360454
              10.02242609                4.83947745               47.06332845                0.00010000                0.63818893                0.61878658               -0.22976359               -2.57577718               13.50322050              -10.38021188
              11.03745930                4.16186550               46.97155253                0.00010000                1.85570144               -0.46914422               -0.69125001               -5.38685530               25.49110376               -5.91325203
              12.05954012                3.47014191               46.87636427                0.00010000                2.41112165               -0.88856639               -1.20995335               -6.33111054               25.58825802               -3.08031674
              13.08568174                2.76534339               46.78628931                0.00010000                2.72302990               -1.05254571               -1.73352825               -6.97820948               26.02598772               -0.33499998
              14.11400072                2.05072701               46.69910633                0.00010000                2.85634224               -0.98332350               -2.19827593               -6.99854936               26.28890655                2.43702671
              15.14280858                1.33142756               46.61321116                0.00675093                3.11129702               -0.95767280               -2.55026963               -6.71175242               26.97640360                5.41584302
              16.17622666                0.60648416               46.53815002                0.13902656                2.71774525               -1.85259066               -2.89827135               -3.73785798               16.61295065               10.16560545
              17.19716349               -0.06996205               46.24357974                0.33839321                1.56520055               -0.05709345               -2.87804385               -0.48984123                2.90790283                3.68463908
              18.20753067               -0.73615237               45.89157026                0.75094786                1.03671856                2.04790013               -3.89496971               -0.09042757                0.09743783               -3.00013010
               8.64720391                7.07725500               47.64082174                0.84338722               -0.30017489               -0.60547562                1.64157275               -0.05880529                0.05988720                3.14743129
               9.64420216                6.46110051               47.26283578                0.31464616               -0.16777296               -0.01996277                0.38648615                0.07295107                0.50227455               -2.84969039
              10.64384845                5.84554501               46.89384699                0.00010000                1.06871717                0.62766036               -0.77191153               -3.20995941               17.85821585               -8.94845903
              11.66557651                5.16018972               46.86278765                0.00010000                2.44115794               -0.02380983               -1.20345026               -6.59440325               34.68844357               -6.09530869
              12.69267161                4.46315780               46.83015248                0.00010000                2.92971857               -0.57298231               -1.61427058               -7.18372640               34.69523415               -3.06906217
              13.72417088                3.75537389               46.79884973                0.00010000                3.30082882               -0.96235325               -1.99528440               -7.58666396               34.96447528               -0.23414519
              14.75868819                3.03976257               46.77082932                0.00010000                3.58090499               -1.18324206               -2.31646746               -7.67526495               35.46269417                2.61710991
              15.79578898                2.31870813               46.74834213                0.01166401                3.83332832               -1.36342944               -2.56272289               -7.70955832               36.27406544                5.69456438
              16.83535475                1.58983629               46.73516103                0.14613801                2.87764814               -1.46218831               -2.72896030               -4.30821692               21.41983702                8.67428535
              17.85334194                0.93026402               46.41358999                0.34811560                1.35640749                0.12484092               -2.53724848               -0.53097257                3.10255453                2.69993319
              18.86248290                0.28316990               46.03080936                0.75674996                0.91409636                1.79465150               -3.63947528               -0.01834823                0.10504058               -3.46247353
               9.25985247                8.07168890               47.53593464                0.83497229               -0.19879284               -0.50795143                1.37186175               -0.05790466                0.05967020                3.18037882
              10.25786454                7.46141418               47.12802613                0.30367031               -0.03573905                0.08395271               -0.01861293                0.08792363                0.57416035               -2.78597142
              11.25913769                6.85203065               46.73049726                0.00010000                1.50469501                0.69082800               -1.28419048               -3.76955131               22.32856280               -8.53761847
              12.28795844                6.16138930               46.75738473                0.00010000                3.07718689                0.22426988               -1.65242575               -7.70741694               43.57316103               -5.76090070
              13.32068143                5.45868227               46.78413560                0.00010000                3.46926193               -0.36204759               -1.96748727               -8.22502223               43.66773826               -2.92195230
              14.35734368                4.74609633               46.81220316                0.00010000                3.82398762               -0.91190694               -2.22677633               -8.53609337               43.95149368               -0.09211377
              15.39716118                4.02706217               46.84366918                0.00010000                4.06000076               -1.30932457               -2.41240933               -8.60488837               44.46823970                2.74493385
              16.43854370                3.30415898               46.88082835                0.01663367                4.06726216               -1.45107501               -2.49634608               -8.71162123               45.22965025                5.59940694
              17.47850643                2.57724040               46.92588373                0.15336149                2.73333594               -1.10761079               -2.40971927               -4.89764911               26.06208286                8.33537565
              18.49321042                1.93253477               46.57713563                0.35808012                1.14227597                0.27147928               -2.20643354               -0.51087888                3.30136025                2.24339059
              19.50135194                1.29974066               46.16366695                0.76270785                0.81415276                1.54521613               -3.41095427               -0.00986191                0.13226046               -3.93512170
               9.86659526                9.06709598               47.43138148                0.82664532               -0.09763729               -0.41078284                1.10113346               -0.05758973                0.06239221                3.18551268
              10.86561888                8.46277957               46.99375635                0.29273100                0.09435240                0.19063181               -0.42402352                0.08845156                0.70000197               -2.74074592
              11.86848231                7.85936157               46.56891302                0.00010000                1.95788344                0.78165149               -1.78414334               -4.27030601               26.87445365               -8.36860177
              12.90477655                7.16467512               46.65439325                0.00010000                3.74909197                0.41540323               -2.06591569               -8.71113340               52.43894804               -5.47576837
              13.94346414                6.45591685               46.73977917                0.00010000                4.01462785               -0.23316864               -2.27767592               -9.24340066               52.55721455               -2.66945082
              14.98506911                5.73713575               46.82642682                0.00010000                4.25318133               -0.89522996               -2.41715336               -9.48114065               52.86361107                0.07211808
              16.02852777                5.01357608               46.91655551                0.00010000                4.31546067               -1.36669191               -2.46245560               -9.45180805               53.40547610                2.82608016
              17.07137832                4.28968663               47.01242558                0.02176660                4.02491026               -1.44387804               -2.37134234               -9.36835761               54.11992432                5.63922136
              18.10902598                3.56768407               47.11485123                0.16060184                2.46228866               -0.84603325               -2.00255006               -5.14765664               30.57923846                8.29574964
              19.12062410                2.93569361               46.73682749                0.36811671                0.94239528                0.32077695               -1.86456175               -0.43654590                3.40377701                2.03421229
              20.12787388                2.31407423               46.29249206                0.76874188                0.72497850                1.33548912               -3.18375016               -0.00643857                0.15862112               -4.17483655
              10.46733350               10.06347325               47.32687082                0.81831487                0.00344867               -0.31401877                0.82895140               -0.05768909                0.06377576                3.15791573
              11.46736799                9.46522682               46.85973221                0.28180873                0.22512581                0.30021899               -0.83012107                0.07767492                0.85973023               -2.71536770
              12.47183602                8.86766368               46.40848224                0.00010000                2.49062549                0.87167659               -2.27435256               -4.74343539               31.50312280               -8.21700982
              13.51718050                8.16969737               46.55370886                0.00010000                4.57583867                0.51010662               -2.44805279               -9.49711141               61.33659600               -5.10056446
              14.56335279                7.45401890               46.69748435                0.00010000                4.64405704               -0.26769107               -2.54604578               -9.91952997               61.36683727               -2.33375070
              15.61006164                6.72819173               46.84143466                0.00010000                4.61106775               -0.92355553               -2.56387207               -9.92823248               61.66508544                0.21311237
              16.65557414                5.99972833               46.98909582                0.00010000                4.35034592               -1.33756100               -2.47172868               -9.81936054               62.30819418                2.79298092
              17.69706855                5.27528141               47.14370272                0.02701752                3.69860834               -1.41036281               -2.21180113               -9.54152056               63.03710403                5.61676434
              18.72954631                4.56031973               47.30351048                0.16797288                2.05103945               -0.64284097               -1.52177470               -5.16875646               35.04414929                8.33803580
              19.73808934                3.93895031               46.89474410                0.37820693                0.74578136                0.30490901               -1.49839688               -0.36155969                3.43872946                2.01381700
              20.74446194                3.32645044               46.41937836                0.77480228                0.63725937                1.14596261               -2.94235648               -0.00808995                0.18140148               -4.20378224
              11.06193433               11.06081560               47.22200889                0.80989162                0.10476172               -0.21807860                0.55429342               -0.05815150                0.07900955                3.13066544
              12.06298195               10.46878394               46.72574659                0.27110310                0.36043601                0.41296728               -1.23656879                0.04496677                1.07817586               -2.74621627
              13.06914305                9.87679510               46.24937710                0.00010000                3.27485841                0.92919194               -2.74875869               -5.28033490               36.31809691               -7.81537151
              14.12847911                9.17487725               46.45726075                0.00010000                5.87180693                0.17849876               -2.79133482               -9.92909923               70.31921500               -4.30302823
              15.18657919                8.45056302               46.65852516                0.00010000                5.61579563               -0.76311163               -2.76680264               -9.45364580               69.97565277               -1.80788420
              16.24079503                7.71866464               46.85675242                0.00010000                4.92358429               -0.97737940               -2.66694553               -9.03198686               70.18487352                0.26905972
              17.28505087                6.98682486               47.05921147                0.00010000                3.95807419               -1.01657387               -2.45291631               -9.03730477               71.09996774                2.41171945
              18.31995651                6.26147937               47.27265244                0.03245608                2.84655397               -1.11793236               -2.04969923               -9.08070182               72.09357593                5.07427069
              19.34198195                5.55482725               47.49206489                0.17556001                1.36528400               -0.42683078               -0.97899284               -5.10068059               39.63141043                8.09287834
              20.34726219                4.94179179               47.05249111                0.38827256                0.53649301                0.24552293               -1.10051213               -0.33147561                3.48367626                2.18713508
              21.35271181                4.33699348               46.54624654                0.78081936                0.54496224                0.96409936               -2.67508401               -0.01534176                0.22321274               -4.08216125
              11.65023378               12.05911167               47.11716529                0.80144556                0.20540445               -0.12303521                0.28076908               -0.05831772               -0.03335497                2.71783370
              12.65228782               11.47348617               46.59078631                0.26025091                0.49511143                0.52624485               -1.64715764               -0.03420169                1.57361141               -2.46751874
              13.66013601               10.88624752               46.09639622                0.00010000                4.62713794                0.87709584               -3.18490765               -6.09349938               41.70534644               -5.79521648
              14.74483058               10.17326734               46.37179668                0.00010000                8.51782398               -1.77768740               -3.06990507               -8.02101501               79.29536115               -2.57082342
              15.83049249                9.43875666               46.62573675                0.00010000                7.41647407               -1.53686136               -2.92879070               -6.50356503               77.99450682               -1.01011204
              16.89316006                8.70864414               46.87142921                0.00010000                5.07604142               -1.00279054               -2.72533275               -5.64546549               78.02700262                0.19306168
              17.93201332                7.97939685               47.12214497                0.00010000                2.71460311               -0.39313899               -2.41309904               -6.01286306               79.38557136                1.45663708
              18.94745213                7.25292277               47.39083074                0.03818683                0.76034818                0.15943956               -1.93116841               -6.63134185               81.24408141                3.26489786
              19.94722028                6.55178312               47.67447763                0.18321646                0.09207390                0.00286312               -0.41825882               -4.79106163               44.86829339                5.83597867
              20.94929360                5.94386077               47.21235292                0.39843954                0.32657212                0.16008504               -0.66106953               -0.39811523                3.87854609                2.12838765
              21.95375172                5.34573243               46.67404181                0.78680690                0.44581179                0.79174541               -2.37688633               -0.03799206                0.14065612               -3.33175000
              12.23201899               13.05835490               47.00422570                0.89797587                0.31430719               -0.07567783               -0.02425730                0.27391577                1.24665909                2.30613459
              13.23516206               12.47930884               46.46196392                0.62669965                0.77364455                0.58226763               -2.02639835                0.08652982                4.13596258               -2.13610457
              14.24749188               11.89433701               45.97726990                0.48114440                9.01938050                0.80894914               -3.48048143               -8.26367937               47.98706812               -4.11963032
              15.41554967               11.13932351               46.30978621                0.44712689               13.68196045               -3.39438382               -3.24381765               -6.65365174               87.05447962               -1.41483226
              16.52113109               10.41982580               46.60223441                0.43757320                8.58479267               -1.89308648               -3.01870044               -2.97187353               84.73186589               -0.54144368
              17.58724553                9.69860883               46.88431506                0.44661879                4.96919459               -1.00353113               -2.74064013               -2.63463962               84.69904197                0.12195968
              18.62051498                8.97896208               47.17183247                0.47365123                1.38489410               -0.04347721               -2.35687885               -2.84686661               86.32176942                0.82221659
              19.61494341                8.26466816               47.48145334                0.52107723               -3.26461322                1.17453941               -1.82374939               -4.45475004               88.97075928                1.90909752
              20.55522272                7.55488451               47.81605430                0.59421576               -3.47964198                0.31013980               -0.04248994               -5.18348968               51.38052916                3.97911517
              21.54535057                6.94499349               47.36749849                0.70252388               -0.35070376                0.11327215               -0.21139560               -0.49710984                6.93159219                1.95737882
              22.54820864                6.35282839               46.81433253                0.89531964                0.28580742                0.70959550               -1.99399847                0.22918188                1.76206639               -2.62811014
               6.40218966                3.24741484               49.09817918                1.00000000               -0.76980287               -0.85224940                2.84463977               -0.17594966               -2.05723737                2.33646256
               7.39449163                2.58069925               48.81264991                0.79951197               -0.76772650               -0.52952646                2.05247205               -0.16021244               -2.78624802               -1.33243467
               8.38683513                1.91093769               48.51288454                0.58850220               -1.04035777               -0.27843852                1.17804380               -0.56258827               -2.63845728               -1.07581984
               9.37368448                1.22524967               48.23075533                0.49280877               -1.43052615               -0.08615914                0.35276655               -0.67815436               -0.55943412               -0.30471516
              10.35822461                0.51151156               47.97272883                0.44754004               -1.31933749                0.17539424               -0.52345123               -0.58170945                1.63692472               -0.23434858
              11.34729773               -0.23187791               47.73418197                0.44642793               -0.50838454                0.42784433               -1.44262829               -0.33350089                2.76409841               -0.01477857
              12.34805692               -0.99190540               47.49840114                0.48792366                0.59046648                0.67073560               -2.34594424               -0.28917847                2.06073136                0.19378948
              13.35910706               -1.75023847               47.24608139                0.57412203                1.31878904                0.89931114               -3.18530588               -0.35868640                0.18655742                0.33972889
              14.37443270               -2.49739923               46.97308100                0.71063314                1.56228747                1.11318692               -3.99313440               -0.33034784               -1.73958399                0.47246315
              15.39035281               -3.23392564               46.68173918                0.90719047                1.60946422                1.32665332               -4.81880374               -0.21753959               -2.27361821                1.07157910
              16.40662198               -3.96516085               46.39675632                1.00000000                1.62691762                1.63249707               -5.66906578               -0.24668351               -1.86933009               -1.75841027
               7.06714575                4.23889234               48.97987040                0.93178976               -0.60176711               -0.84542501                2.50236020               -0.07104724                0.64038382                2.89892070
               8.06112808                3.57540398               48.68952384                0.46727323               -0.41058568               -0.44562487                1.69793527               -0.13216829                1.88446465               -2.24529613
               9.05893404                2.90815330               48.42434911                0.08811383                0.27439568               -0.02326409                1.06226516               -0.97127195                4.29084970               -4.88336525
              10.06661600                2.22438808               48.18205900                0.00010000                1.10186316               -0.52438070                0.34124944               -2.07411929                6.26421701               -3.36194527
              11.08097130                1.51326551               47.95650648                0.00010000                1.45276022               -0.79698030               -0.40731088               -3.22123841                8.10031800               -1.54582684
              12.09567120                0.77240053               47.75142649                0.00010000                1.16870544               -0.40457083               -1.22067241               -3.91637886                9.24663100               -0.44468540
              13.10434541                0.01480196               47.54907359                0.00010000                0.62979542                0.18928743               -2.02970724               -3.67055107                8.59575670                0.65376849
              14.10826711               -0.74124536               47.33031595                0.07425401                0.43136959                0.46949179               -2.77490714               -2.51248963                6.83734794                2.56959720
              15.11297280               -1.48626736               47.09148297                0.27709026                0.68955559                0.69148777               -3.50006441               -0.98249502                5.22738436                4.48855285
              16.12205822               -2.22065910               46.83921542                0.57665026                1.12087778                1.12973926               -4.22400877               -0.31742693                3.20859656                2.59392209
              17.13539036               -2.94883588               46.55885975                0.91075518                1.33321389                1.63317600               -5.00238983               -0.22449231                1.86878003               -2.45616026
               7.72774544                5.23050634               48.87321028                0.85091072               -0.51581288               -0.80917930                2.26207429               -0.08667175                0.35785352                3.41845523
               8.72258731                4.57178675               48.54835646                0.32816364               -0.46599167               -0.27393139                1.22959289               -0.12205491                2.15636868               -3.19789077
               9.71842560                3.91047241               48.25977669                0.00010000                0.22512909                0.44247750                0.47165673               -1.97472915                8.99766833              -10.37756411
              10.72708989                3.21476205               48.07203960                0.00010000                1.36808910               -0.83791266               -0.06795052               -4.50874769               15.50885167               -6.36588166
              11.74578738                2.49557196               47.91365337                0.00010000                2.01719059               -1.42358440               -0.87095854               -6.11306527               17.17123337               -3.23434736
              12.76743370                1.76003067               47.75943486                0.00010000                2.12522011               -1.17786770               -1.55608122               -6.97485075               17.53089261               -0.91153236
              13.78829179                1.01188035               47.60811563                0.00010000                2.12464411               -0.59064196               -2.20089641               -6.82844622               17.78649458                1.44081041
              14.80992658                0.25915137               47.45815231                0.00010000                2.29523788               -0.32010200               -2.81666218               -5.27463908               16.95806924                4.73666803
              15.83419654               -0.48356947               47.28898763                0.12884135                1.83231018               -0.85150559               -2.78844444               -2.55867246               11.41795533                9.51371440
              16.84657279               -1.21133085               47.02572475                0.32702000                1.21445708                0.39952905               -3.46215373               -0.81512116                3.91985118                4.17433244
              17.85848569               -1.93249733               46.70537714                0.74519894                1.19128991                1.92806545               -4.41978563               -0.60308513                1.11521080               -3.17384672
               8.38285149                6.22270876               48.76579176                0.83930200               -0.41305762               -0.72657429                1.97917548               -0.06215684                0.05754716                3.31637650
               9.37872092                5.56992536               48.40637266                0.31196566               -0.31936670               -0.13228019                0.80636769                0.03477038                0.74335884               -3.13506608
              10.37646416                4.91700285               48.06089789                0.00010000                0.63102883                0.63620158               -0.25679918               -2.59963868               13.88625283              -10.87561596
              11.39134149                4.20762982               47.96431588                0.00010000                1.84886111               -0.41707767               -0.75691539               -5.44255105               26.10700959               -6.50791718
              12.41344138                3.48479382               47.86375279                0.00010000                2.42621517               -0.87105760               -1.31551781               -6.34931235               26.15326955               -3.60842233
              13.43986580                2.74884318               47.76825948                0.00010000                2.76072071               -1.04326696               -1.87872890               -6.99538276               26.59895863               -0.83410326
              14.46865579                2.00298912               47.67622165                0.00010000                2.91791787               -0.97802967               -2.38914306               -7.02445487               26.93295395                1.98488280
              15.49822415                1.25235260               47.58659628                0.00301776                3.18128899               -0.94894253               -2.78822406               -6.71190842               27.65682049                5.04439453
              16.53228157                0.49670253               47.50763099                0.13125795                2.82297505               -1.77754871               -3.22656269               -3.83782787               17.51756414                9.63897947
              17.55468365               -0.21266852               47.21408410                0.32367692                1.66900191               -0.03268609               -3.02960757               -0.56992805                3.49459684                3.52560058
              18.56566161               -0.91027457               46.85168014                0.74062334                1.09779582                2.10084958               -4.09210726               -0.08785531                0.11156134               -3.34950974
               9.03206910                7.21597485               48.65752360                0.83105849               -0.30804830               -0.62303866                1.70094330               -0.06020815                0.06191896                3.28763539
              10.02898862                6.56914115               48.26668998                0.30122578               -0.16703689               -0.02365732                0.38431230                0.08898502                0.55563177               -2.98877836
              11.02872836                5.92319644               47.88589821                0.00010000                1.07296421                0.64154330               -0.81789989               -3.22438136               18.32774590               -9.34684578
              12.05044790                5.20642050               47.85031645                0.00010000                2.44297091                0.02395432               -1.29189148               -6.63665924               35.50404883               -6.57296948
              13.07758778                4.47815081               47.81335259                0.00010000                2.94414219               -0.52567155               -1.74977208               -7.20745121               35.50543882               -3.55948250
              14.10933075                3.73916533               47.77800187                0.00010000                3.33527415               -0.91379441               -2.18287051               -7.60970852               35.78882701               -0.69751734
              15.14429327                2.99231976               47.74650440                0.00010000                3.63221292               -1.12770846               -2.56338740               -7.69401922               36.32382520                2.19968439
              16.18197501                2.24017252               47.72122624                0.00777765                3.90839233               -1.28819508               -2.88468079               -7.69173333               37.17958718                5.33274349
              17.22246111                1.48087955               47.70590670                0.13815812                3.00881590               -1.38172648               -3.15762159               -4.37318722               22.59950493                8.49171051
              18.24215132                0.78801543               47.38737894                0.33305599                1.47397803                0.18374860               -2.71916605               -0.62937587                3.84076303                2.50481653
              19.25194067                0.10951966               46.99334030                0.74620410                0.97893491                1.84594396               -3.87011888               -0.01749431                0.13174308               -3.85578573
               9.67531474                8.21024798               48.54990248                0.82295610               -0.20357079               -0.52302302                1.42340594               -0.05927748                0.06170553                3.32007754
              10.67327903                7.56945221               48.12775374                0.29058649               -0.03087784                0.08683415               -0.03617488                0.10396724                0.64398392               -2.92392752
              11.67469718                6.92983372               47.71735197                0.00010000                1.51874555                0.70967773               -1.34435593               -3.77670739               22.91427678               -8.91267856
              12.70365394                6.20810891               47.74031803                0.00010000                3.09251715                0.27551446               -1.76219278               -7.74201773               44.59705847               -6.18144807
              13.73654752                5.47428039               47.76366749                0.00010000                3.49243677               -0.29426127               -2.13130003               -8.24528835               44.70623440               -3.35079264
              14.77350268                4.73056729               47.78886791                0.00010000                3.86103519               -0.83083723               -2.45146097               -8.54387608               45.01346499               -0.49755872
              15.81376823                3.98043495               47.81816891                0.00010000                4.11635081               -1.21256746               -2.70766379               -8.59543869               45.57768957                2.39212207
              16.85582969                3.22658870               47.85412631                0.01263373                4.16033461               -1.34424578               -2.87614125               -8.66378218               46.43665896                5.34973788
              17.89697492                2.46906800               47.89954627                0.14509123                2.88131672               -1.02850094               -2.90699109               -4.94298540               27.47878793                8.31955368
              18.91345603                1.79100645               47.55412182                0.34263118                1.26641674                0.34959777               -2.41491965               -0.60156515                4.10684721                2.07863468
              19.92230325                1.12664431               47.12835942                0.75202040                0.88472278                1.60585221               -3.67130082               -0.00595134                0.16446349               -4.32305950
              10.31247510                9.20551439               48.44260557                0.81488754               -0.09928726               -0.42406592                1.14514236               -0.05892097                0.06460472                3.32346314
              11.31148223                8.57087783               47.98935991                0.28005395                0.10312090                0.19942568               -0.45607423                0.10277195                0.79278642               -2.87817577
              12.31453752                7.93738999               47.55071408                0.00010000                1.98393262                0.80603406               -1.85708922               -4.27284425               27.59426736               -8.73249684
              13.35116088                7.21193079               47.63310251                0.00010000                3.78430580                0.46906287               -2.19312131               -8.73332345               53.68632332               -5.85112286
              14.39022363                6.47226558               47.71610005                0.00010000                4.05688921               -0.15745099               -2.46441407               -9.24791505               53.82839515               -3.03509585
              15.43229866                5.72254859               47.80105834                0.00010000                4.30697230               -0.79724355               -2.67039391               -9.46136451               54.16912069               -0.25996919
              16.47636308                4.96806841               47.89041390                0.00010000                4.38838239               -1.24857329               -2.79083027               -9.40776043               54.78141731                2.55751130
              17.52006631                4.21328760               47.98684784                0.01757597                4.14102872               -1.32131140               -2.78475529               -9.30678813               55.65983009                5.48389704
              18.55918366                3.46030953               48.09238996                0.15214461                2.62386983               -0.76724081               -2.54562694               -5.17926012               32.21866555                8.40387374
              19.57254371                2.79500738               47.71714731                0.35233133                1.06811345                0.40665361               -2.09269279               -0.51262040                4.24128405                1.91657703
              20.58054592                2.14163671               47.25936293                0.75780185                0.80022149                1.40618514               -3.46608966               -0.00068092                0.19509859               -4.53632248
              10.94340944               10.20176667               48.33533702                0.80684676                0.00494270               -0.32566633                0.86562917               -0.05893413                0.06607461                3.29349751
              11.94345887                9.57344072               47.85120818                0.26967865                0.23889496                0.31421719               -0.87610775                0.08738031                0.97889836               -2.85226873
              12.94818734                8.94595440               47.38530677                0.00010000                2.53265090                0.89981505               -2.35652262               -4.74771401               32.37247678               -8.56295362
              13.99411188                8.21749017               47.52853915                0.00010000                4.63920424                0.55804533               -2.58761832               -9.50966297               62.82511277               -5.42768757
              15.04097142                7.47113137               47.67104602                0.00010000                4.71803378               -0.19811393               -2.74842604               -9.90456823               62.87822522               -2.62917871
              16.08847256                6.71462242               47.81452288                0.00010000                4.69512917               -0.82772129               -2.83465624               -9.87631088               63.21845699               -0.03788002
              17.13487401                5.95546348               47.96280339                0.00010000                4.44901224               -1.21552137               -2.81620188               -9.73926459               63.95496741                2.60629589
              18.17745280                5.20016247               48.11971317                0.02269226                3.83979645               -1.28001510               -2.63393347               -9.47554419               64.93650015                5.53134650
              19.21166993                4.45372318               48.28576102                0.15928540                2.22118203               -0.56453986               -2.08886683               -5.19880228               36.90831987                8.55352382
              20.22187644                3.79913952               47.87867438                0.36207354                0.86805251                0.39134283               -1.73814602               -0.42449371                4.28532425                1.95178234
              21.22903098                3.15476801               47.38860391                0.76360503                0.71545407                1.22505995               -3.23786841               -0.00190172                0.22127496               -4.52565800
              11.56794830               11.19900107               48.22769375                0.79874781                0.10937966               -0.22802091                0.58363307               -0.05962886                0.08199246                3.26520582
              12.56904210               10.57716217               47.71309204                0.25914454                0.37927472                0.43174656               -1.29617444                0.04763326                1.23509380               -2.88428141
              13.57553380                9.95538630               47.22145797                0.00010000                3.33742774                0.95453808               -2.83330525               -5.29699143               37.35680802               -8.13105658
              14.63579065                9.22309169               47.42861587                0.00010000                5.97331102                0.20828927               -2.93786684               -9.93855502               72.06140608               -4.56384357
              15.69500002                8.46830330               47.62984271                0.00010000                5.73248391               -0.71160274               -2.97670783               -9.42552234               71.72879559               -2.02102246
              16.75044033                7.70599416               47.82878550                0.00010000                5.05188587               -0.90068036               -2.94403444               -8.95706453               71.97623526                0.10327227
              17.79603774                6.94375798               48.03312533                0.00010000                4.09276989               -0.91359353               -2.79707258               -8.92676805               73.00308626                2.29977225
              18.83229573                6.18768730               48.25039753                0.02798686                3.00964126               -0.98705330               -2.45430227               -9.00066147               74.37543332                5.02228421
              19.85623056                5.44901874               48.47972782                0.16657404                1.53566371               -0.33483110               -1.55505294               -5.14105837               41.74109628                8.38439193
              20.86300900                4.80283424               48.04039155                0.37178335                0.65101732                0.32779018               -1.34275433               -0.38839812                4.32672107                2.18701525
              21.86925091                4.16613791               47.51812406                0.76939804                0.62419021                1.04833921               -2.97525154               -0.00993579                0.26704382               -4.35590017
              12.18589464               12.19720625               48.12008075                0.79054990                0.21316591               -0.13111342                0.30299937               -0.06007766               -0.03682674                2.83645126
              13.18802630               11.58207566               47.57395834                0.24890662                0.52116737                0.54947548               -1.72072536               -0.04691179                1.78361498               -2.59030563
              14.19631799               10.96504516               47.06408479                0.00010000                4.71987373                0.87494072               -3.27266156               -6.10616387               42.94913404               -6.02509051
              15.28242378               10.22165595               47.34036013                0.00010000                8.66202598               -1.76748750               -3.21644449               -8.02937722               81.30066910               -2.72815321
              16.36955851                9.45689931               47.59543220                0.00010000                7.57264078               -1.50630513               -3.13839894               -6.47739899               79.96606616               -1.12280422
              17.43387659                8.69660881               47.84289550                0.00010000                5.25435001               -0.95324733               -2.99895644               -5.58447743               80.02569008                0.11252627
              18.47464551                7.93719161               48.09652424                0.00010000                2.91511140               -0.32739960               -2.74501325               -5.90932381               81.49484728                1.40862539
              19.49217882                7.18042141               48.36996212                0.03357873                0.95281593                0.24232061               -2.29922643               -6.54869119               83.91121979                3.23501732
              20.49370183                6.44702656               48.66781292                0.17405709                0.24052466                0.15829926               -0.98330273               -4.77695067               47.27278818                6.07735267
              21.49698931                5.80569532               48.20468762                0.38159479                0.42615535                0.23553139               -0.89560266               -0.46890141                4.72764947                2.17688678
              22.50222493                5.17573480               47.64892870                0.77513139                0.52356223                0.87729910               -2.67091869               -0.03622153                0.18168696               -3.52732300
              12.79700794               13.19637880               48.00404907                0.89265381                0.32570135               -0.08274512               -0.01092667                0.28861814                1.29939811                2.40838076
              13.80026495               12.58815168               47.44128416                0.62111205                0.84111445                0.60760292               -2.11236838                0.04918044                4.48452667               -2.24121979
              14.81383022               11.97288511               46.94198770                0.48003705                9.15420052                0.78399464               -3.56327480               -8.26926346               49.48188088               -4.28903060
              15.98334896               11.18774194               47.27663132                0.44707570               13.83344770               -3.39140062               -3.38609638               -6.64287706               89.25322663               -1.47991893
              17.09049918               10.43817720               47.57106126                0.43765048                8.75547628               -1.87221135               -3.21994983               -2.94656952               86.86127725               -0.58176394
              18.15845848                9.68692921               47.85567596                0.44635926                5.17697430               -0.96795959               -3.00260133               -2.59017119               86.84786876                0.10077508
              19.19403866                8.93720999               48.14684504                0.47265142                1.65142372                0.00183755               -2.67272916               -2.78045970               88.57717085                0.82024732
              20.19148696                8.19253371               48.46180619                0.51870014               -2.93105179                1.21123042               -2.16212323               -4.32044934               91.89706245                1.90419276
              21.13541763                7.45218472               48.81321226                0.58953235               -3.32821098                0.51581607               -0.59325102               -5.07786212               54.12343720                4.17189601
              22.12492274                6.80754487               48.36442085                0.69397526               -0.34850482                0.18495410               -0.42723480               -0.63169893                7.92662325                2.02903689
              23.12844753                6.18368389               47.79313533                0.88942168                0.35247923                0.79490904               -2.26999133                0.23616191                1.87604669               -2.76340725
               6.67090160                3.39114449               50.12691306                0.99502096               -0.79052640               -0.87238869                2.92431480               -0.18373427               -2.10252620                2.42495587
               7.66299634                2.69189683               49.83333930                0.78860943               -0.79102783               -0.54193864                2.09821675               -0.17460295               -2.87986025               -1.40538775
               8.65508104                1.98938124               49.52474274                0.58402653               -1.05590524               -0.28461170                1.19490468               -0.56160134               -2.75432578               -1.05897975
               9.64187823                1.27088257               49.23417833                0.49131980               -1.42166834               -0.07744060                0.33150570               -0.66394414               -0.67212962               -0.31969475
              10.62664768                0.52477197               48.96720536                0.44740878               -1.29680661                0.19526007               -0.58345363               -0.56561552                1.49019140               -0.24146594
              11.61594210               -0.25040308               48.71927820                0.44615493               -0.50183730                0.45996428               -1.54207807               -0.32604120                2.61813992               -0.01921790
              12.61661093               -1.04222689               48.47426026                0.48640234                0.58101670                0.71257501               -2.48761678               -0.27587504                1.96558518                0.19193511
              13.62756243               -1.83311037               48.21332709                0.57005128                1.32693650                0.95026756               -3.37129931               -0.34108199                0.14498176                0.34237347
              14.64314966               -2.61357316               47.93203023                0.70230478                1.60848973                1.17537200               -4.22292164               -0.32092083               -1.77101086                0.46510392
              15.65973223               -3.38366563               47.63222784                0.89220159                1.68671801                1.39888231               -5.09071255               -0.22044407               -2.32293867                1.06795956
              16.67688402               -4.14831134               47.33854341                1.00000000                1.71517933                1.71544585               -5.98153370               -0.26460142               -1.92662003               -1.78785144
               7.36831192                4.38242060               50.00522172                0.91642353               -0.61799904               -0.86674246                2.58172340               -0.07392714                0.72350546                3.03304671
               8.36213193                3.68647744               49.70667256                0.44893175               -0.41698807               -0.45747244                1.73896867               -0.14470166                2.05095880               -2.38180360
               9.35997216                2.98653513               49.43507479                0.08161117                0.27057482               -0.01560148                1.08340309               -0.98820165                4.49827343               -5.11113588
              10.36754343                2.27010816               49.18543666                0.00010000                1.08310942               -0.54422354                0.33326836               -2.07051788                6.40844277               -3.59393831
              11.38163435                1.52672457               48.95226695                0.00010000                1.43188439               -0.78880500               -0.44368517               -3.18790800                8.19475934               -1.85927928
              12.39618111                0.75419656               48.73891339                0.00010000                1.17857372               -0.41178789               -1.28573248               -3.86460239                9.30889900               -0.74769878
              13.40520582               -0.03510114               48.52831814                0.00010000                0.68218189                0.16620367               -2.12538949               -3.63297003                8.69503781                0.38483994
              14.40982475               -0.82360769               48.30193019                0.06835777                0.50061301                0.47124932               -2.90603655               -2.51050914                6.98336793                2.32256281
              15.41521808               -1.60181944               48.05565926                0.26472103                0.75360623                0.72937683               -3.66754180               -0.98548985                5.38910560                4.58964779
              16.42489688               -2.36967680               47.79596099                0.55376803                1.18328203                1.18447480               -4.42957840               -0.32799578                3.34777624                2.67797769
              17.43888372               -3.13115689               47.50763917                0.89484368                1.39868462                1.71129562               -5.24473034               -0.24669679                1.98293726               -2.52623475
               8.06130938                5.37380964               49.89620900                0.83780177               -0.53216022               -0.83039888                2.34048383               -0.08638503                0.35331858                3.58069114
               9.05598778                4.68274738               49.56079336                0.31352278               -0.48115470               -0.28494216                1.25829178               -0.12078911                2.29181694               -3.37437169
              10.05168629                3.98906921               49.26450409                0.00010000                0.21453246                0.46542397                0.47205135               -2.02567550                9.37381512              -10.92022556
              11.06027843                3.25999810               49.07105182                0.00010000                1.35574160               -0.83389290               -0.13118481               -4.54360895               15.85386814               -6.93380787
              12.07880112                2.50899587               48.90457889                0.00010000                2.00986636               -1.42251636               -0.94649257               -6.08046898               17.44212216               -3.84042988
              13.10047576                1.74136116               48.74334586                0.00010000                2.14773303               -1.20511224               -1.66619152               -6.94438747               17.86787296               -1.50786197
              14.12175578                0.96109719               48.58539319                0.00010000                2.17974011               -0.64314882               -2.35028375               -6.79646783               18.15627305                0.88855922
              15.14407056                0.17631462               48.42910116                0.00010000                2.38765976               -0.35753915               -3.00012552               -5.26859569               17.69337530                4.25844698
              16.16950898               -0.59898563               48.26051254                0.12102609                1.92195972               -0.79179345               -2.91015431               -2.62093548               12.11155867                9.07679110
              17.18250975               -1.35997613               47.99042013                0.31187778                1.27006354                0.42862894               -3.59597536               -0.84952065                4.09764152                4.15711115
              18.19491025               -2.11408543               47.66027453                0.73447906                1.24004937                2.00255826               -4.59884468               -0.62662591                1.14245814               -3.43350105
               8.74870875                6.36581263               49.78592786                0.82670460               -0.42521696               -0.74563233                2.05044712               -0.06339546                0.05921587                3.45864634
               9.74445658                5.68077860               49.41450612                0.29821977               -0.32504078               -0.14017570                0.81952759                0.04916941                0.80142666               -3.28836285
              10.74220793                4.99584361               49.05819246                0.00010000                0.61440080                0.65423955               -0.28423257               -2.61288398               14.28435455              -11.40208765
              11.75674459                4.25343030               48.95641423                0.00010000                1.82269889               -0.36349580               -0.82468817               -5.48223476               26.73796068               -7.12943879
              12.77866191                3.49827424               48.85005391                0.00010000                2.42237276               -0.84712079               -1.42739655               -6.35210711               26.73275416               -4.19294596
              13.80519205                2.73009431               48.74871474                0.00010000                2.78305490               -1.02730211               -2.03629885               -6.99592519               27.18359265               -1.41144724
              14.83432301                1.95203589               48.65132347                0.00010000                2.96718035               -0.96440942               -2.60037417               -7.03341271               27.58455225                1.43127853
              15.86453565                1.16924153               48.55744668                0.00010000                3.23835590               -0.92408265               -3.05612516               -6.68916669               28.32155161                4.53900384
              16.89909012                0.38234469               48.47361877                0.12350872                2.92353071               -1.66295782               -3.59662866               -3.93312835               18.52627876                8.88107629
              17.92300627               -0.36110423               48.18298759                0.30902130                1.77398406                0.01493786               -3.19848489               -0.66182785                4.20425858                3.27875354
              18.93456980               -1.09110572               47.80972811                0.73039731                1.15635366                2.17301714               -4.30886942               -0.08590961                0.12976668               -3.79543429
               9.43010953                7.35889699               49.67484060                0.81882568               -0.31693407               -0.64020701                1.76420682               -0.06154673                0.06408872                3.43326488
              10.42694019                6.67994386               49.27052202                0.28789691               -0.16663140               -0.02564469                0.38143519                0.10475820                0.61892646               -3.13843273
              11.42677690                6.00215400               48.87748899                0.00010000                1.06314539                0.65588016               -0.86376580               -3.22823389               18.81667754               -9.76500943
              12.44820310                5.25272818               48.83694982                0.00010000                2.41590336                0.07719861               -1.38230149               -6.66305202               36.33570259               -7.08529429
              13.47509497                4.49205345               48.79515704                0.00010000                2.92962556               -0.46776417               -1.89309030               -7.21593666               36.32554653               -4.10268798
              14.50679561                3.72081512               48.75519232                0.00010000                3.34226735               -0.85028170               -2.38720782               -7.61624723               36.61551113               -1.23540850
              15.54194032                2.94180900               48.71956157                0.00010000                3.65914093               -1.05203891               -2.83962361               -7.69242909               37.17350652                1.68435485
              16.57997843                2.15783297               48.69064851                0.00382999                3.96259222               -1.18546962               -3.25382506               -7.63449585               38.04722492                4.84364114
              17.62119216                1.36775522               48.67200860                0.13015626                3.13725886               -1.25982403               -3.65763161               -4.42568985               23.91526275                8.15769140
              18.64272360                0.64032263               48.35920667                0.31808279                1.60014419                0.27216583               -2.93265280               -0.74261814                4.74539896                2.22406633
              19.65319504               -0.07062509               47.95340698                0.73577585                1.04714405                1.91812811               -4.13667241               -0.01496059                0.16578691               -4.34380203
              10.10538407                8.35300849               49.56440276                0.81097505               -0.20893408               -0.53831465                1.47819823               -0.06082122                0.06415016                3.46559353
              11.10329473                7.68026570               49.12730264                0.27766167               -0.02625681                0.09088737               -0.05477050                0.11893162                0.72877754               -3.07039735
              12.10485893                7.00896121               48.70361015                0.00010000                1.51446861                0.73014134               -1.40302087               -3.77216404               23.52432869               -9.30289314
              13.13358410                6.25497428               48.72214087                0.00010000                3.06986527                0.33516798               -1.87386650               -7.75641468               45.63572394               -6.63319471
              14.16625624                5.48891896               48.74150960                0.00010000                3.47637272               -0.21085305               -2.30468910               -8.24521713               45.75058164               -3.82866136
              15.20311156                4.71308868               48.76317394                0.00010000                3.86001673               -0.72668623               -2.69800595               -8.52908934               46.06939822               -0.97018198
              16.24345657                3.93099511               48.78951590                0.00010000                4.13939818               -1.08585837               -3.04245764               -8.55651249               46.66507318                1.95363063
              17.28589952                3.14553213               48.82330552                0.00856575                4.23150461               -1.20276290               -3.32102702               -8.56132320               47.59211394                5.00047267
              18.32808667                2.35714821               48.86774391                0.13688927                3.03173451               -0.91042099               -3.50122757               -4.96426904               29.04986364                8.18812156
              19.34653421                1.64433909               48.52883724                0.32728154                1.40396773                0.45749828               -2.66437168               -0.70690768                5.10707077                1.84028521
              20.35616602                0.94725684               48.09024094                0.74130234                0.96318112                1.68641908               -3.97857977               -0.00074617                0.20583621               -4.79205707
              10.77437867                9.34813070               49.45428432                0.80318863               -0.10125704               -0.43767380                1.19212147               -0.06047862                0.06711176                3.46794755
              11.77336610                8.68176161               48.98463486                0.26748704                0.11231894                0.20918078               -0.49001090                0.11537999                0.90423028               -3.02294306
              12.77662505                8.01675683               48.53177124                0.00010000                1.98754769                0.83497568               -1.92793277               -4.26172158               28.34410545               -9.10436699
              13.81311705                7.25943154               48.61053083                0.00010000                3.77255878                0.53279916               -2.32159883               -8.72805207               54.94954267               -6.25344839
              14.85207622                6.48783639               48.69049089                0.00010000                4.05103093               -0.06131513               -2.66238510               -9.22364125               55.10232717               -3.44258981
              15.89413767                5.70628139               48.77301894                0.00010000                4.31451952               -0.66908578               -2.95074899               -9.40913520               55.46370854               -0.64832868
              16.93836661                4.92009183               48.86073891                0.00010000                4.42305976               -1.09261424               -3.16928984               -9.32385259               56.13020248                2.22162959
              17.98259887                4.13377771               48.95673048                0.01337969                4.23666041               -1.15867355               -3.28098593               -9.18018154               57.13988486                5.25758278
              19.02309982                3.34954680               49.06393869                0.14369466                2.79389742               -0.65479263               -3.20629182               -5.18201458               34.02154117                8.42814619
              20.03847681                2.64947259               48.69497364                0.33663493                1.21223984                0.52013147               -2.36791646               -0.60123854                5.28990676                1.73931327
              21.04734462                1.96310329               48.22317027                0.74693904                0.88678039                1.49596565               -3.80207825                0.00618870                0.24161161               -4.96261519
              11.43691268               10.34425501               49.34418340                0.79545988                0.00635226               -0.33773604                0.90472862               -0.06062160                0.06835616                3.43579400
              12.43697620                9.68444932               48.84221006                0.25732501                0.25209480                0.32932724               -0.92481577                0.09796097                1.12548849               -2.99579993
              13.44195457                9.02566072               48.36135179                0.00010000                2.54836498                0.93195588               -2.43288672               -4.73443671               33.28018908               -8.91424357
              14.48794350                8.26563026               48.50195649                0.00010000                4.64894956                0.61739346               -2.72771199               -9.48813122               64.32886375               -5.77542444
              15.53493356                7.48769266               48.64251583                0.00010000                4.73649567               -0.10399980               -2.96304449               -9.85070245               64.39223123               -2.95747975
              16.58267341                6.69970696               48.78474154                0.00010000                4.72748212               -0.69619633               -3.13716737               -9.78251914               64.75998580               -0.33167659
              17.62948321                5.90914283               48.93277179                0.00010000                4.50837560               -1.04961890               -3.22055278               -9.61071713               65.57595845                2.37289496
              18.67284092                5.12235866               49.09102405                0.01835219                3.96341425               -1.10508011               -3.15497939               -9.34133263               66.77035717                5.40715925
              19.70875149                4.34405235               49.26173315                0.15059574                2.40560091               -0.45418025               -2.78917905               -5.19534524               38.93718889                8.71021960
              20.72095294                3.65474172               48.85998118                0.34600192                1.01384500                0.50231336               -2.02856630               -0.49763204                5.35192399                1.84465687
              21.72902839                2.97717615               48.35462099                0.75245907                0.80754489                1.32236936               -3.59088168                0.00559586                0.27223843               -4.89643793
              12.09277762               11.34137598               49.23368155                0.78755758                0.11419881               -0.23848136                0.61493331               -0.06131210                0.08529722                3.40653417
              13.09391960               10.68834816               48.69982310                0.24731769                0.39888778                0.45193052               -1.35960802                0.04999293                1.42755209               -3.02877927
              14.10075537               10.03539595               48.19271100                0.00010000                3.37014440                0.97776302               -2.91298627               -5.29032096               38.44530640               -8.45167673
              15.16132249                9.27177941               48.39850341                0.00010000                6.01150486                0.25292847               -3.08208374               -9.90432503               73.82210097               -4.83755992
              16.22098547                8.48575640               48.59899100                0.00010000                5.78573134               -0.63053111               -3.19883886               -9.35385370               73.48659886               -2.25718207
              17.27703712                7.69235747               48.79787173                0.00010000                5.12575519               -0.78513794               -3.25578880               -8.83742621               73.75930352               -0.09108506
              18.32350057                6.89909945               49.00327002                0.00010000                4.19127825               -0.76465873               -3.20840319               -8.76604599               74.88986636                2.16124199
              19.36086268                6.11167611               49.22356639                0.02350397                3.16546424               -0.80721042               -2.97168246               -8.85446731               76.58517506                4.96179029
              20.38680986                5.34046319               49.46096383                0.15764952                1.72688438               -0.21033134               -2.27447868               -5.14790989               44.00997428                8.64292840
              21.39540037                4.65951886               49.02563602                0.35538443                0.78889038                0.43137417               -1.63752619               -0.45673214                5.39627789                2.15671751
              22.40258767                3.98955068               48.48674151                0.75806135                0.71872937                1.14992723               -3.33407871               -0.00307259                0.32192940               -4.66309056
              12.74174208               12.33948538               49.12322528                0.77974595                0.22140071               -0.13950522                0.32654749               -0.06178700               -0.04045934                2.96094769
              13.74395609               11.69348793               48.55637180                0.23736964                0.54874084                0.57423219               -1.79902974               -0.06375181                2.03926323               -2.71880156
              14.75271690               11.04521598               48.03094299                0.00010000                4.77702305                0.86773140               -3.34652723               -6.08860682               44.25624412               -6.25089323
              15.83949655               10.27068883               48.30746779                0.00010000                8.72807679               -1.72983389               -3.35842726               -7.99578955               83.33071741               -2.89343450
              16.92727844                9.47508203               48.56296877                0.00010000                7.65426400               -1.44119939               -3.35826947               -6.41790472               81.94689138               -1.24749551
              17.99258183                8.68400421               48.81145008                0.00010000                5.37826054               -0.86470275               -3.30715956               -5.49251900               82.02264212                0.01729320
              19.03484365                7.89384965               49.06724470                0.00010000                3.09030051               -0.21870120               -3.14709265               -5.76810759               83.60302244                1.34969129
              20.05438784                7.10621445               49.34484621                0.02897435                1.15534473                0.36938852               -2.78793557               -6.41745877               86.50487500                3.21256597
              21.05795054                6.33984573               49.65481158                0.16494896                0.41714852                0.35302791               -1.70075887               -4.72891525               49.82205822                6.30651877
              22.06273081                5.66336920               49.19444086                0.36480201                0.54763778                0.32944568               -1.18321505               -0.55557171                5.80333381                2.21058337
              23.06890330                5.00017470               48.62062344                0.76359260                0.61724851                0.97981519               -3.02284731               -0.03380320                0.23482713               -3.74024144
              13.38353678               13.33858588               49.00400716                0.88728646                0.33771865               -0.08995058                0.00278434                0.30416228                1.35464229                2.51534770
              14.38691397               12.69983280               48.41971656                0.61545974                0.91227774                0.63448709               -2.20383522                0.00402282                4.89604338               -2.35112805
              15.40178234               12.05275058               47.90600440                0.47892385                9.23133409                0.75345941               -3.63023851               -8.22595973               51.06002233               -4.45111824
              16.57154065               11.23718273               48.24206428                0.44695582               13.87648314               -3.35060965               -3.52004653               -6.58649853               91.48234145               -1.54955156
              17.67931200               10.45693241               48.53783541                0.43771564                8.84392372               -1.81496260               -3.42709544               -2.90260979               89.00904679               -0.62707403
              18.74841912                9.67506341               48.82426303                0.44613892                5.33080875               -0.89407953               -3.29437696               -2.52661962               89.00071267                0.07362329
              19.78592817                8.89472543               49.11837789                0.47167479                1.90491544                0.08757797               -3.05471955               -2.69152398               90.83953646                0.81594062
              20.78651743                8.11906388               49.43821088                0.51631549               -2.54256853                1.28494226               -2.61962664               -4.14712486               94.74846496                1.91341336
              21.73507680                7.34752375               49.80418928                0.58487799               -3.12787337                0.76780228               -1.29656334               -4.93517898               57.00318210                4.36137929
              22.72395997                6.66610777               49.35895379                0.68546853               -0.33880966                0.27385686               -0.69527713               -0.79592289                9.15101681                2.09545965
              23.72830061                6.00914698               48.76893270                0.88355551                0.43406446                0.89722845               -2.60305050                0.24365253                2.00329843               -2.90579244
               6.94728667                3.53929664               51.15666547                0.98642146               -0.82219209               -0.90392963                3.04426729               -0.19441487               -2.16929805                2.53280955
               7.93906475                2.80592497               50.85461424                0.77767245               -0.81885454               -0.56111268                2.16788105               -0.18718742               -2.99098134               -1.48268286
               8.93090958                2.06909400               50.53678263                0.57965390               -1.06427440               -0.29247668                1.21429995               -0.55670999               -2.87994954               -1.04230258
               9.91777926                1.31633912               50.23738544                0.48988286               -1.39905081               -0.07033015                0.30934339               -0.64540339               -0.79203308               -0.33447562
              10.90292857                0.53655908               49.96105976                0.44713665               -1.25868158                0.21473154               -0.64825588               -0.54746810                1.33714957               -0.24814000
              11.89260563               -0.27153264               49.70334041                0.44589432               -0.48044159                0.49115390               -1.64947318               -0.31784208                2.46474512               -0.02384042
              12.89331973               -1.09618247               49.44864881                0.48493416                0.58155425                0.75482948               -2.63895489               -0.26226559                1.86153661                0.19021918
              13.90423672               -1.92059721               49.17865541                0.56597366                1.33959980                1.00290368               -3.56835880               -0.32297322                0.09476036                0.34487859
              14.92011173               -2.73535520               48.88862257                0.69400142                1.65720717                1.23984943               -4.46486092               -0.31053791               -1.80988004                0.45827515
              15.93738086               -3.54003274               48.57992493                0.87730938                1.76733637                1.47409042               -5.37682350               -0.22241365               -2.37815957                1.06385966
              16.95545846               -4.33910941               48.27712564                1.00000000                1.80775967                1.80177205               -6.30953666               -0.28423895               -1.98851206               -1.81968609
               7.67871419                4.53025734               51.03150486                0.90123964               -0.64199962               -0.89413087                2.68534068               -0.07652958                0.80458230                3.18170780
               8.67229420                3.80031384               50.72430322                0.43052916               -0.42893914               -0.47296079                1.79383152               -0.15121515                2.22493168               -2.52640462
               9.67013541                3.06616924               50.44601717                0.07524650                0.26492484               -0.00718918                1.10479411               -0.99720826                4.71807693               -5.35295012
              10.67759269                2.31563582               50.18872437                0.00010000                1.06271767               -0.56153955                0.32155249               -2.05748268                6.56436767               -3.86028028
              11.69138976                1.53870639               49.94763278                0.00010000                1.41026462               -0.77913418               -0.48641953               -3.14248428                8.30438445               -2.20372286
              12.70579798                0.73337890               49.72571184                0.00010000                1.19197998               -0.41976390               -1.35763931               -3.79846674                9.38919883               -1.09164892
              13.71522936               -0.08863417               49.50656580                0.00010000                0.73976839                0.14143379               -2.22826411               -3.58024285                8.80729483                0.06409560
              14.72059335               -0.91056817               49.27219522                0.06236301                0.57473785                0.47005111               -3.04348325               -2.49422567                7.13802593                2.01897653
              15.72672412               -1.72295671               49.01813214                0.25232663                0.82202389                0.76810191               -3.84031214               -0.98633272                5.55733812                4.68091953
              16.73703383               -2.52529184               48.75062386                0.53095286                1.24843104                1.24087576               -4.63991154               -0.33761099                3.49216514                2.76461809
              17.75169274               -3.32109169               48.45396514                0.87910112                1.46589095                1.79265636               -5.49261124               -0.27160552                2.10255843               -2.60209664
               8.40564308                5.52141402               50.92001996                0.82469558               -0.55145223               -0.85036305                2.42546819               -0.08657171                0.35049310                3.75239217
               9.40012856                4.79646576               50.57352230                0.29914388               -0.49998160               -0.29422024                1.28826481               -0.11365753                2.44000513               -3.56004375
              10.39564345                4.06895022               50.26921771                0.00010000                0.19819488                0.49034811                0.46988399               -2.06248481                9.75489235              -11.48840334
              11.40409245                3.30510833               50.06941590                0.00010000                1.33461747               -0.82463850               -0.19741739               -4.56636305               16.21279389               -7.54224934
              12.42233579                2.52097639               49.89472352                0.00010000                1.99422058               -1.41748212               -1.02701255               -6.03150248               17.74208416               -4.50703822
              13.44397686                1.72007208               49.72611103                0.00010000                2.16630762               -1.23055632               -1.78508153               -6.89300400               18.22097224               -2.18548142
              14.46566195                0.90664621               49.56110995                0.00010000                2.23489373               -0.69597607               -2.51171353               -6.74413698               18.54364177                0.23121282
              15.48867474                0.08880382               49.39814980                0.00010000                2.47233987               -0.39232517               -3.19678500               -5.24364208               18.49677195                3.65192902
              16.51510874               -0.71999316               49.23078455                0.11321393                2.00444440               -0.71076522               -3.04019782               -2.67384601               12.88395626                8.46508712
              17.52876363               -1.51521523               48.95380524                0.29678240                1.32586568                0.47059239               -3.72560218               -0.88187349                4.29781924                4.08362649
              18.54162606               -2.30325629               48.61340025                0.72386944                1.28624312                2.08879926               -4.77707385               -0.64994792                1.17169568               -3.76122326
               9.12687929                6.51325008               50.80680071                0.81420119               -0.43944429               -0.76243867                2.12639118               -0.06481649                0.06099214                3.60935139
              10.12248485                5.79442944               50.42276321                0.28445502               -0.33180739               -0.14448885                0.83183378                0.06581597                0.87043196               -3.44936831
              11.12024314                5.07597620               50.05521324                0.00010000                0.58772045                0.67641742               -0.31176137               -2.61478621               14.70173815              -11.94813511
              12.13423926                4.29914305               49.94782212                0.00010000                1.77764065               -0.30601800               -0.89455434               -5.51089950               27.38619274               -7.77547784
              13.15579596                3.51035675               49.83520486                0.00010000                2.40144179               -0.81675184               -1.54522441               -6.34274218               27.32747989               -4.83396406
              14.18226809                2.70876777               49.72753351                0.00010000                2.79094677               -1.00370655               -2.20559345               -6.98254357               27.77912128               -2.07054656
              15.21161489                1.89744631               49.62421417                0.00010000                3.00458957               -0.94158923               -2.83028777               -7.02685963               28.24171386                0.76762943
              16.24235988                1.08158533               49.52547377                0.00010000                3.28256760               -0.88086586               -3.35070946               -6.64102935               28.96581475                3.88069791
              17.27726624                0.26282799               49.43569842                0.11581079                3.01498004               -1.50492958               -4.00410007               -4.01829282               19.64988975                7.85504247
              18.30265948               -0.51587999               49.15011440                0.29440012                1.87548296                0.09311661               -3.38808261               -0.76231994                5.05283203                2.91802898
              19.31477590               -1.27931571               48.76550276                0.72026064                1.21164176                2.26935417               -4.55159862               -0.08208527                0.15378685               -4.36878710
               9.84198803                7.50616525               50.69280774                0.80656995               -0.32692742               -0.65669737                1.83106345               -0.06299180                0.06650747                3.58623388
              10.83871876                6.79357598               50.27431868                0.27462622               -0.16769583               -0.02490061                0.37729424                0.12378349                0.69566909               -3.29555118
              11.83863412                6.08247857               49.86862289                0.00010000                1.03875761                0.67587066               -0.90758478               -3.22428197               19.32960093              -10.19508459
              12.85949391                5.29898797               49.82267042                0.00010000                2.36110537                0.13604822               -1.47400277               -6.68037519               37.18529817               -7.63045425
              13.88585622                4.50464136               49.77549079                0.00010000                2.88712647               -0.39917221               -2.04328047               -7.21299414               37.15484629               -4.69921297
              14.91723644                3.69999795               49.73025771                0.00010000                3.32254897               -0.77153735               -2.60721181               -7.61053425               37.44164534               -1.85255319
              15.95230720                2.88781442               49.68971193                0.00010000                3.66180157               -0.95580401               -3.14349161               -7.67441166               38.00617164                1.06020156
              16.99047247                2.07118650               49.65614974                0.00010000                3.99505022               -1.05345710               -3.66711419               -7.54110494               38.86614061                4.20572334
              18.03220821                1.24990824               49.63275407                0.12210173                3.25942272               -1.09638226               -4.22294210               -4.46825800               25.38354934                7.63794504
              19.05566092                0.48664710               49.32872588                0.30323063                1.73237915                0.39625879               -3.18472425               -0.86682614                5.83948599                1.83921817
              20.06685579               -0.25786920               48.91060685                0.72547485                1.11948646                2.01777944               -4.44800571               -0.00979706                0.20950014               -4.94994851
              10.55079799                8.50011613               50.57946645                0.79892954               -0.21507966               -0.55362712                1.53661937               -0.06205922                0.06719846                3.61897591
              11.54864720                7.79393143               50.12665833                0.26464481               -0.02262392                0.09677857               -0.07502649                0.13693193                0.83280046               -3.22431137
              12.55034551                7.08949361               49.68929156                0.00010000                1.49108828                0.75412219               -1.45964498               -3.75889362               24.16346177               -9.70106376
              13.57846896                6.30186401               49.70284070                0.00010000                3.00902853                0.40291187               -1.98543957               -7.75910667               46.69001476               -7.11498422
              14.61052609                5.50237331               49.71757370                0.00010000                3.42076897               -0.11168986               -2.48587033               -8.23005677               46.79810446               -4.35662814
              15.64688434                4.69333703               49.73490779                0.00010000                3.82060130               -0.59917651               -2.96486906               -8.49773493               47.11348509               -1.51606851
              16.68693811                3.87833023               49.75731976                0.00010000                4.12798110               -0.92846548               -3.41541287               -8.49362271               47.71943685                1.41642546
              17.72944396                3.06051619               49.78770577                0.00449903                4.27511825               -1.02328833               -3.82932006               -8.41190642               48.68157362                4.52800795
              18.77244048                2.24090034               49.82952172                0.12860825                3.18282230               -0.75125142               -4.19460702               -4.96539444               30.80087552                7.90835357
              19.79310041                1.49204518               49.50083439                0.31209636                1.55860508                0.60013024               -2.96324702               -0.82055612                6.33266082                1.51581316
              20.80361258                0.76103988               49.04878783                0.73081544                1.05121686                1.79367760               -4.34324571                0.00592469                0.25855796               -5.35641289
              11.25311626                9.49509271               50.46644800                0.79150225               -0.10363428               -0.45154074                1.24212847               -0.06185280                0.06979088                3.62035004
              12.25207992                8.79551155               49.97955969                0.25489475                0.12036994                0.22025290               -0.52611802                0.13106784                1.04144721               -3.17449322
              13.25552366                8.09756101               49.51215543                0.00010000                1.96760812                0.86180797               -1.99233159               -4.23830887               29.13007943               -9.48366346
              14.29143208                7.30704620               49.58667054                0.00010000                3.71292049                0.60725406               -2.44840693               -8.70486466               56.22633084               -6.68031769
              15.32978207                6.50240756               49.66285235                0.00010000                3.99463708                0.05541792               -2.86885988               -9.17634317               56.37403816               -3.89382104
              16.37132482                5.68801442               49.74204336                0.00010000                4.27367602               -0.51004680               -3.25631619               -9.33152366               56.73741334               -1.10006436
              17.41525559                4.86924511               49.82702811                0.00010000                4.41697014               -0.89699782               -3.59717204               -9.20605692               57.43517300                1.80368291
              18.45966423                4.05072073               49.92122812                0.00922721                4.30578639               -0.95232210               -3.86143540               -8.99536381               58.53832781                4.93631201
              19.50137132                3.23488322               50.02826413                0.13517416                2.97230199               -0.49989531               -3.99494206               -5.15274578               36.02150773                8.33861817
              20.51911027                2.49864971               49.66978898                0.32102344                1.38067880                0.66625435               -2.70097975               -0.69760993                6.59174881                1.49343609
              21.52898489                1.77800435               49.18332136                0.73612547                0.98746288                1.61140675               -4.20456228                0.01464090                0.30126445               -5.46330816
              11.94872325               10.49108532               50.35343159                0.78398897                0.00769984               -0.35014192                0.94633427               -0.06213919                0.07126154                3.58584430
              12.94880025                9.79833649               49.83271186                0.24521594                0.26607175                0.34566455               -0.97653943                0.10641137                1.30542795               -3.14575973
              13.95404468                9.10672977               49.33664904                0.00010000                2.53624362                0.96002720               -2.50162609               -4.70457208               34.23358139               -9.26945897
              14.99952512                8.31400909               49.47398491                0.00010000                4.59931595                0.68914965               -2.86313746               -9.43637574               65.84660707               -6.14126649
              16.04603100                7.50348167               49.61178513                0.00010000                4.69455979                0.01495768               -3.18636706               -9.76456962               65.90036526               -3.32097523
              17.09341632                6.68313609               49.75177953                0.00010000                4.70398304               -0.52752520               -3.46931877               -9.65344178               66.27512883               -0.67584182
              18.14011066                5.86039027               49.89839233                0.00010000                4.52411348               -0.83676049               -3.68528230               -9.43907678               67.14791701                2.07812368
              19.18389859                5.04146974               50.05661358                0.01398344                4.06729599               -0.88098947               -3.78008005               -9.14233180               68.51023649                5.21940166
              20.22145658                4.23090244               50.22997744                0.14191648                2.60642467               -0.30421729               -3.64124772               -5.15551884               41.16908495                8.78801792
              21.23602708                3.50537027               49.83810306                0.33006280                1.18697679                0.64295944               -2.38178701               -0.57939025                6.68916528                1.68606496
              22.24519612                2.79326801               49.31678627                0.74147099                0.91690406                1.44346517               -4.01583923                0.01445591                0.33684828               -5.32208980
              12.63737115               11.48808987               50.23999242                0.77644967                0.11925480               -0.24928648                0.64826429               -0.06304470                0.08875915                3.55569394
              13.63856369               10.80242484               49.68589987                0.23543857                0.41942332                0.47348415               -1.42706839                0.04826476                1.66348524               -3.17985852
              14.64575961               10.11676156               49.16319825                0.00010000                3.36944888                1.00020616               -2.97871407               -5.26467216               39.59236627               -8.76742072
              15.70595267                9.32082920               49.36697420                0.00010000                5.98020323                0.31086513               -3.21867294               -9.82838091               75.59911868               -5.12346260
              16.76536368                8.50270671               49.56586594                0.00010000                5.76973562               -0.51883387               -3.42861712               -9.24411154               75.23793209               -2.51844642
              17.82134738                7.67746392               49.76366973                0.00010000                5.13883629               -0.62863582               -3.60006229               -8.67798107               75.51516949               -0.32092977
              18.86814040                6.85250990               49.96895726                0.00010000                4.24790192               -0.56563486               -3.68886878               -8.55819061               76.72954052                1.98335260
              19.90630542                6.03310094               50.19096388                0.01903032                3.31100047               -0.57207515               -3.61098816               -8.64500897               78.69175867                4.87275315
              20.93436041                5.22879887               50.43423824                0.14872059                1.94257298               -0.04854757               -3.16147608               -5.12501470               46.47504653                8.85065227
              21.94515688                4.51150890               50.00764102                0.33914514                0.95590572                0.56094763               -1.99694973               -0.53540820                6.74541458                2.09199656
              22.95347853                3.80687365               49.45144248                0.74682546                0.83216450                1.27353797               -3.76534413                0.00448616                0.39055876               -5.00571981
              13.31879241               12.48609959               50.12661170                0.76890178                0.23014463               -0.14839391                0.35131355               -0.06379986               -0.04426226                3.09196234
              14.32109385               11.80780617               49.53797774                0.22595043                0.57772386                0.60073893               -1.88220121               -0.08704061                2.35531188               -2.85280176
              15.33034688               11.12673389               48.99715424                0.00010000                4.79592445                0.84891853               -3.40086509               -6.03282201               45.63917152               -6.47236866
              16.41701234               10.32022639               49.27319158                0.00010000                8.70835825               -1.66356312               -3.48838277               -7.92084012               85.37985951               -3.06475196
              17.50451405                9.49310499               49.52826681                0.00010000                7.65205809               -1.34021393               -3.58309188               -6.32726663               83.92534654               -1.38588924
              18.57005350                8.67056338               49.77675231                0.00010000                5.43978888               -0.73440732               -3.64755031               -5.37222666               83.99593253               -0.09704606
              19.61330983                7.84907757               50.03358238                0.00010000                3.23279676               -0.06237359               -3.62235219               -5.58969947               85.67401945                1.27154380
              20.63470944                7.03002824               50.31420340                0.02426253                1.36192532                0.54858482               -3.40928271               -6.24033222               88.98910596                3.18694440
              21.64054833                6.22993148               50.63379774                0.15573543                0.62673468                0.59290197               -2.60152178               -4.65305370               52.56141384                6.51167760
              22.64724413                5.51658922               50.18102332                0.34814826                0.70040013                0.44596527               -1.53644685               -0.65749705                7.16508459                2.22733826
              23.65455634                4.81873877               49.58847175                0.75212960                0.73122031                1.10379256               -3.44734780               -0.03118745                0.30250997               -3.97079418
              13.99268199               13.48512199               50.00410476                0.88196115                0.35065852               -0.09776008                0.01703898                0.32072145                1.41320604                2.62768638
              14.99618858               12.81443962               49.39720745                0.60990267                1.00004774                0.66334510               -2.30151450               -0.05963083                5.38030432               -2.46537977
              16.01268295               12.13373993               48.86938293                0.47778239                9.24880990                0.70060318               -3.67521160               -8.11047810               52.73920594               -4.61973543
              17.18116478               11.28755793               49.20623039                0.44683116               13.78992083               -3.26684599               -3.63698442               -6.47663131               93.74534683               -1.62052742
              18.28848136               10.47590244               49.50251935                0.43781380                8.83827461               -1.72025527               -3.63402194               -2.84237675               91.16411825               -0.67964230
              19.35793027                9.66277577               49.78978842                0.44589130                5.42000926               -0.77876028               -3.61271082               -2.44432393               91.13665833                0.03736009
              20.39688155                8.85126243               50.08575064                0.47062890                2.13572989                0.21848602               -3.50510265               -2.57798457               93.07107814                0.80373893
              21.40064487                8.04407264               50.40941365                0.51396734               -2.10715972                1.40443989               -3.20770074               -3.93673362               97.48435773                1.92897915
              22.35473835                7.24065691               50.78728099                0.58025719               -2.87226067                1.07254248               -2.18655712               -4.76321976               60.06982443                4.54429561
              23.34319965                6.52042820               50.35051530                0.67705205               -0.30913375                0.38389791               -1.02910699               -0.98981853               10.66540431                2.15620405
              24.34855568                5.82894950               49.74107432                0.87777434                0.53560274                1.02107286               -3.00829332                0.25206413                2.14492275               -3.05524226
               7.23161809                3.69212190               52.18779841                0.97784536               -0.85585416               -0.94216204                3.18087451               -0.20679009               -2.25441003                2.63609306
               8.22305955                2.92286523               51.87669692                0.76681999               -0.84536180               -0.58239284                2.24936436               -0.19691915               -3.11571469               -1.56750889
               9.21471086                2.15006610               51.54902874                0.57514320               -1.06495552               -0.30250649                1.23766355               -0.54733246               -3.01321735               -1.02252187
              10.20176044                1.36151520               51.24036520                0.48842427               -1.36375776               -0.06431015                0.28647015               -0.62467558               -0.91583208               -0.34977310
              11.18743570                0.54666313               50.95424024                0.44698199               -1.20562449                0.23232251               -0.71714645               -0.52701117                1.17708715               -0.25456347
              12.17764795               -0.29562276               50.68628874                0.44569391               -0.44545202                0.52157173               -1.76329913               -0.30756899                2.30234977               -0.02771334
              13.17852666               -1.15425649               50.42148116                0.48339405                0.59179627                0.79761199               -2.79917946               -0.24931606                1.74690826                0.18836053
              14.18948388               -2.01329242               50.14195992                0.56192597                1.35779405                1.05698667               -3.77640304               -0.30500943                0.03397458                0.34756123
              15.20568254               -2.86342679               49.84273301                0.68570755                1.70910441                1.30637634               -4.71920961               -0.29932688               -1.85771833                0.45198313
              16.22366596               -3.70378630               49.52469137                0.86251413                1.85149004                1.55215404               -5.67720915               -0.22374171               -2.44029640                1.05941146
              17.24271234               -4.53838406               49.21235267                1.00000000                1.90463785                1.89106356               -6.65294277               -0.30577736               -2.05625529               -1.85547525
               7.99880686                4.68270028               52.05892854                0.88611843               -0.66886065               -0.92801266                2.79985783               -0.08107419                0.88158083                3.33123157
               8.99211826                3.91704130               51.74254919                0.41225595               -0.44471581               -0.48893580                1.85669618               -0.15643309                2.40486615               -2.68081625
               9.98991255                3.14704104               51.45717067                0.06888001                0.25484592                0.00194887                1.12680328               -0.99947628                4.95313158               -5.60372594
              10.99721517                2.36087210               51.19186771                0.00010000                1.04110109               -0.57299171                0.30626985               -2.03933131                6.73830217               -4.15736800
              12.01073457                1.54898635               50.94253856                0.00010000                1.39084475               -0.76900518               -0.53418554               -3.08835797                8.43416697               -2.57714684
              13.02503207                0.70959296               50.71176060                0.00010000                1.20668838               -0.42736916               -1.43503755               -3.72029522                9.48811082               -1.47712468
              14.03486834               -0.14628037               50.48375286                0.00010000                0.79934328                0.11647820               -2.33647779               -3.51261711                8.93521957               -0.31249646
              15.04101893               -1.00272256               50.24106053                0.05648817                0.65339376                0.46835355               -3.18580473               -2.46175672                7.30506172                1.65230986
              16.04793621               -1.85036303               49.97885302                0.23995163                0.89441222                0.80883147               -4.01711638               -0.98460380                5.73486862                4.75634061
              17.05890718               -2.68826476               49.70316276                0.50827210                1.31580589                1.29960762               -4.85370159               -0.34629573                3.64402977                2.85243478
              18.07425233               -3.51947342               49.39778695                0.86346361                1.53451491                1.87682709               -5.74506065               -0.29877606                2.22874392               -2.68941625
               8.76131457                5.67356164               51.94471836                0.81175623               -0.57244399               -0.87442006                2.51848003               -0.08767738                0.34817479                3.93033663
               9.75559013                4.91308651               51.58655866                0.28473727               -0.52120170               -0.30232269                1.32099515               -0.10610663                2.60172167               -3.75501551
              10.75089053                4.15010508               51.27390177                0.00010000                0.17191884                0.52173424                0.46809020               -2.08799514               10.14761233              -12.07975130
              11.75902850                3.35005536               51.06710348                0.00010000                1.30285736               -0.81029343               -0.26374103               -4.57802043               16.58875320               -8.18536108
              12.77694768                2.53128302               50.88403864                0.00010000                1.97401326               -1.40793302               -1.11236359               -5.97299787               18.07301457               -5.23218645
              13.79850877                1.69582986               50.70764423                0.00010000                2.18210800               -1.25281323               -1.91200139               -6.82384266               18.59228625               -2.94685265
              14.82058984                0.84807308               50.53515892                0.00010000                2.29113180               -0.74665673               -2.68377965               -6.67032668               18.95070190               -0.53912731
              15.84433140               -0.00392535               50.36516546                0.00010000                2.54714138               -0.42109490               -3.40443007               -5.19872357               19.37395203                2.90447771
              16.87153267               -0.84725016               50.19970858                0.10536769                2.07595187               -0.60804771               -3.18082645               -2.71788544               13.74896245                7.65751031
              17.88585044               -1.67779414               49.91590809                0.28191206                1.38107414                0.53002348               -3.85128131               -0.91229799                4.53033639                3.93535078
              18.89915415               -2.50084751               49.56473305                0.71342772                1.33037080                2.18926771               -4.95538338               -0.67451185                1.20339227               -4.18278491
               9.51800358                6.66521187               51.82845568                0.80167319               -0.45508963               -0.78028550                2.20716799               -0.06654215                0.06288600                3.77045404
              10.51345268                5.91099484               51.43114280                0.27078687               -0.34098960               -0.14743931                0.84487252                0.08560695                0.95316409               -3.61531381
              11.51118379                5.15747572               51.05195724                0.00010000                0.55120699                0.70344559               -0.33890613               -2.61009803               15.14367392              -12.51210908
              12.52447682                4.34466623               50.93852314                0.00010000                1.71581628               -0.24774265               -0.96484262               -5.53176853               28.05506659               -8.44246611
              13.54550011                3.52082769               50.81914942                0.00010000                2.36441700               -0.77913365               -1.66810521               -6.32363038               27.93832995               -5.53090422
              14.57176516                2.68453670               50.70460287                0.00010000                2.78584511               -0.97200456               -2.38583690               -6.95712956               28.38575077               -2.81441338
              15.60121702                1.83878650               50.59471771                0.00010000                3.03012695               -0.90828179               -3.07722810               -7.00496366               28.90515215               -0.01506222
              16.63236770                0.98885554               50.49043249                0.00010000                3.31151388               -0.81796040               -3.66706234               -6.56913901               29.59143550                3.05129617
              17.66744729                0.13747602               50.39353677                0.10801273                3.09454336               -1.30295112               -4.44294404               -4.08827441               20.90126164                6.52897504
              18.69425857               -0.67766429               50.11522594                0.28003603                1.97107681                0.20905706               -3.60028689               -0.86769905                6.05008555                2.41271704
              19.70686883               -1.47568807               49.71869614                0.71022750                1.26102599                2.39691919               -4.82247870               -0.07892983                0.18432936               -5.10209745
              10.26841778                7.65795593               51.71146187                0.79442274               -0.33793692               -0.67320658                1.90186812               -0.06478609                0.06917714                3.74904031
              11.26503841                6.91013772               51.27806791                0.26121704               -0.17002990               -0.02281873                0.37261729                0.14455028                0.79090646               -3.45823162
              12.26501719                6.16417399               50.85933730                0.00010000                1.00013751                0.69658373               -0.94678628               -3.21376013               19.87270951              -10.64020581
              13.28504116                5.34510051               50.80746977                0.00010000                2.27937087                0.20041225               -1.56532403               -6.69241081               38.05391109               -8.20469396
              14.31060460                4.51570035               50.75429143                0.00010000                2.81831033               -0.32014273               -2.19904024               -7.20298076               37.99285166               -5.34855031
              15.34140737                3.67638977               50.70304808                0.00010000                3.27835576               -0.67775178               -2.84164705               -7.59614357               38.26537669               -2.55285080
              16.37617172                2.82990744               50.65669174                0.00010000                3.64258666               -0.83895262               -3.47251312               -7.64220065               38.81845992                0.31598468
              17.41425910                1.97971544               50.61730623                0.00010000                4.00576459               -0.89208177               -4.11886989               -7.41276474               39.63173296                3.39668296
              18.45628701                1.12669081               50.58754976                0.11415441                3.37007192               -0.88353993               -4.84157700               -4.49000913               27.01575556                6.88682458
              19.48166054                0.32638700               50.29551219                0.28840419                1.86680501                0.56282704               -3.48414064               -0.99685971                7.13798453                1.32882167
              20.49362311               -0.45290913               49.86444687                0.71522455                1.19625675                2.15510681               -4.81447803               -0.00153860                0.26636006               -5.69838852
              11.01234428                8.65174774               51.59513515                0.78705705               -0.22186481               -0.56916876                1.59848231               -0.06426159                0.06983954                3.78163498
              12.01012563                7.91053847               51.12580211                0.25177879               -0.01992397                0.10402459               -0.09681130                0.15544275                0.96021098               -3.38403811
              13.01194580                7.17140740               50.67441725                0.00010000                1.44883110                0.77760441               -1.51204322               -3.73826952               24.83890904              -10.11063121
              14.03910225                6.34867447               50.68243208                0.00010000                2.91027216                0.47902316               -2.09389165               -7.75384888               47.76082758               -7.62269034
              15.07015124                5.51442484               50.69179219                0.00010000                3.32664761                0.00240959               -2.67279131               -8.20566251               47.84606968               -4.93462292
              16.10563520                4.67098166               50.70387656                0.00010000                3.74480468               -0.44907052               -3.25004713               -8.45572920               48.14060987               -2.14023112
              17.14504733                3.82200744               50.72120764                0.00010000                4.08469156               -0.74072605               -3.82355545               -8.41270809               48.73282967                0.76731872
              18.18732903                2.97101391               50.74671912                0.00042474                4.29641098               -0.80596515               -4.39638531               -8.21659644               49.68662236                3.90630959
              19.23097555                2.11980522               50.78385177                0.12041653                3.32961428               -0.54136870               -4.97778043               -4.93697720               32.74840669                7.43305542
              20.25392132                1.33359225               50.46957230                0.29699978                1.72273788                0.78428252               -3.32536659               -0.93985671                7.81550331                1.08963137
              21.26543031                0.56741407               50.00337602                0.72030654                1.15089916                1.93739069               -4.78100876                0.01628333                0.32711331               -6.03555366
              11.74955110                9.64657256               51.47912689                0.77978567               -0.10634858               -0.46601352                1.29514894               -0.06377955                0.07262471                3.78186306
              12.74848761                8.91221822               50.97411250                0.24238184                0.12823458                0.23277362               -0.56439517                0.14476044                1.21110963               -3.33225270
              13.75211579                8.17972608               50.49192461                0.00010000                1.92295678                0.89106626               -2.04646407               -4.20649447               29.96019766               -9.86653420
              14.78694675                7.35468098               50.56156269                0.00010000                3.60341875                0.69133987               -2.56936486               -8.66701223               57.51602371               -7.12840634
              15.82418416                6.51574854               50.63311369                0.00010000                3.88817155                0.19173633               -3.08062436               -9.11388033               57.63803014               -4.38918737
              16.86471018                5.66740836               50.70789261                0.00010000                4.18505718               -0.32089496               -3.58426860               -9.23610169               57.98107445               -1.62140243
              17.90788531                4.81509292               50.78879546                0.00010000                4.37096115               -0.66156507               -4.07141858               -9.06260276               58.68109454                1.28893427
              18.95212940                3.96359614               50.87950177                0.00489683                4.35419063               -0.70014830               -4.52363655               -8.75489827               59.82899310                4.49168536
              19.99496912                3.11586344               50.98403985                0.12677985                3.15625768               -0.29833115               -4.90845968               -5.09276645               38.23966850                8.09572676
              21.01525456                2.34207265               50.64095404                0.30558184                1.56680111                0.85093619               -3.10576772               -0.80093301                8.18869666                1.16758450
              22.02630514                1.58583868               50.13907902                0.72550542                1.10505876                1.75995838               -4.68993714                0.02503452                0.37823603               -6.05068950
              12.47977737               10.64242747               51.36311009                0.77262749                0.00899432               -0.36314056                0.99066454               -0.06401338                0.07416943                3.74503868
              13.47986731                9.91519394               50.82267927                0.23307662                0.27878891                0.36334453               -1.03145844                0.11485621                1.52898521               -3.30207348
              14.48535315                9.18922872               50.31131927                0.00010000                2.49361161                0.99081231               -2.55412565               -4.66400419               35.24174832               -9.61821923
              15.52973954                8.36250127               50.44469374                0.00010000                4.48965504                0.77112587               -2.98886879               -9.36393661               67.37517791               -6.52282940
              16.57514625                7.51825956               50.57878848                0.00010000                4.59146235                0.15786232               -3.41374217               -9.65365451               67.39424077               -3.72040824
              17.62156879                6.66456376               50.71535516                0.00010000                4.62306267               -0.32211322               -3.82752630               -9.49722074               67.74963456               -1.07742882
              18.66760750                5.80877614               50.85906614                0.00010000                4.49458777               -0.57582331               -4.20775161               -9.23204475               68.64752120                1.70611276
              19.71146055                4.95701094               51.01542245                0.00965537                4.15181055               -0.60273962               -4.51004161               -8.88250371               70.12393625                4.94125133
              20.75064371                4.11383860               51.18890819                0.13322412                2.82334340               -0.11037528               -4.65223635               -5.08677212               43.63591704                8.75292522
              21.76792742                3.35061098               50.81234543                0.31425274                1.38776073                0.81829411               -2.81231482               -0.66877436                8.34913535                1.46949170
              22.77839893                2.60261324               50.27430421                0.73058801                1.04715124                1.59560587               -4.52916134                0.02476484                0.41886039               -5.80759335
              13.20273789               11.63930975               51.24664684                0.76532296                0.12455928               -0.26075904                0.68354888               -0.06509424                0.09223321                3.71347186
              14.20398348               10.91948511               50.67128173                0.22369209                0.43952420                0.49651872               -1.49840676                0.04425287                1.95864067               -3.33715779
              15.21152838               10.19954233               50.13313672                0.00010000                3.33268456                1.01776005               -3.02190737               -5.22241350               40.81004882               -9.07106104
              16.27063718                9.37010349               50.33412996                0.00010000                5.87601037                0.38181623               -3.34026899               -9.71974558               77.38655676               -5.41822142
              17.32904858                8.51890579               50.53041866                0.00010000                5.68060043               -0.37743627               -3.66009820               -9.10295043               76.97172804               -2.80596050
              18.38424918                7.66096610               50.72587049                0.00010000                5.08743246               -0.43095865               -3.97261756               -8.48566086               77.22422906               -0.59302536
              19.43079723                6.80357645               50.92949264                0.00010000                4.25838458               -0.31444996               -4.23687151               -8.30796566               78.49041511                1.75120514
              20.46941688                5.95154134               51.15134663                0.01453052                3.44182058               -0.27536891               -4.37550225               -8.37132309               80.65631341                4.73005816
              21.49963364                5.11365593               51.39773431                0.13977507                2.18437746                0.15989671               -4.23667521               -5.06938111               49.18401735                8.98296565
              22.51310443                4.35843853               50.98569703                0.32297061                1.15811375                0.72153548               -2.43654137               -0.62370292                8.43770583                1.98895795
              23.52279592                3.61775080               50.41143463                0.73574038                0.96914937                1.42568706               -4.28685289                0.01411191                0.47788746               -5.38554079
              13.91812477               12.63721229               51.13025155                0.75799986                0.23950231               -0.15781254                0.37752724               -0.06591651               -0.04771895                3.23064163
              14.92051979               11.92512432               50.51872778                0.21449176                0.60808630                0.62903366               -1.97067669               -0.11849840                2.74794000               -2.99300679
              15.93028649               11.20958393               49.96292569                0.00010000                4.77306921                0.81780834               -3.42479854               -5.94857891               47.11394041               -6.68032006
              17.01598117               10.37013760               50.23770014                0.00010000                8.59690730               -1.57044656               -3.59741721               -7.80995470               87.44395979               -3.23983481
              18.10222464                9.51071084               50.49130694                0.00010000                7.56018690               -1.20356487               -3.80570895               -6.21026272               85.88820418               -1.53885661
              19.16718491                8.65594459               50.73849907                0.00010000                5.43241517               -0.56138527               -4.01527390               -5.22759417               85.92239621               -0.23498564
              20.21087294                7.80248714               50.99479766                0.00010000                3.33848467                0.14436178               -4.16974484               -5.37568764               87.66830964                1.16427570
              21.23395460                6.95150357               51.27666055                0.01961585                1.57429824                0.78408087               -4.17079965               -6.00966266               91.31485860                3.13990148
              22.24235891                6.11703653               51.60278114                0.14659763                0.87019431                0.88936107               -3.70753958               -4.53619398               55.53933955                6.67670594
              23.25135849                5.36504169               51.16371193                0.33165198                0.88488584                0.59046759               -1.97098068               -0.77696246                8.88335884                2.22407214
              24.26005662                4.63112698               50.55167648                0.74085500                0.86981320                1.25431034               -3.96169593               -0.02721514                0.38882929               -4.21915135
              14.62559551               13.63615350               51.00434794                0.87661752                0.36463704               -0.10587958                0.03174609                0.33830309                1.47535609                2.74700594
              15.62924188               12.93206578               50.37368627                0.60429754                1.09740026                0.69414634               -2.40608721               -0.14054059                5.96344968               -2.58586681
              16.64754352               12.21589849               49.83250017                0.47668206                9.20346430                0.63145698               -3.68183273               -7.94285826               54.53385041               -4.77468526
              17.81331117               11.33869456               50.16932459                0.44677259               13.57464089               -3.14430346               -3.72830328               -6.32020055               96.03479543               -1.69565258
              18.91903634               10.49483449               50.46515498                0.43787852                8.73049133               -1.58763469               -3.83257702               -2.76663877               93.31661797               -0.74039235
              19.98792100                9.64973839               50.75200882                0.44566972                5.43440844               -0.62061996               -3.95196985               -2.34493167               93.23343768               -0.01160475
              21.02772450                8.80646369               51.04827583                0.46961526                2.33766214                0.39765443               -4.02193809               -2.44061508               95.23029666                0.77686095
              22.03467424                7.96722296               51.37405686                0.51159279               -1.61764310                1.57193962               -3.93525812               -3.67906321              100.04767698                1.93891636
              22.99537164                7.13144316               51.76045814                0.57562814               -2.55997560                1.44066268               -3.28246433               -4.54748031               63.35862183                4.70480987
              23.98347473                6.37024788               51.33837165                0.66875321               -0.26453048                0.52061939               -1.44466755               -1.21868378               12.53963633                2.20879917
              24.99008103                5.64283701               50.70876684                0.87207199                0.66063064                1.17100291               -3.50185261                0.26135375                2.30361229               -3.20999445
               7.52440146                3.84975825               53.22028296                0.96940533               -0.88813281               -0.97962277                3.31472098               -0.21849500               -2.34303274                2.73642405
               8.51552013                3.04287025               52.89960153                0.75591043               -0.87122515               -0.60344755                2.33173753               -0.20700124               -3.24478584               -1.65599605
               9.50697695                2.23235971               52.56153590                0.57079558               -1.06345056               -0.31380216                1.26520477               -0.53632403               -3.15143458               -1.00011566
              10.49425112                1.40633864               52.24311484                0.48700753               -1.32150926               -0.05884586                0.26364342               -0.60045290               -1.04388083               -0.36407068
              11.48054677                0.55487119               51.94671683                0.44675045               -1.14197020                0.24938753               -0.78875149               -0.50511910                1.00995397               -0.26066395
              12.47141171               -0.32303063               51.66807442                0.44539813               -0.39800225                0.55115472               -1.88343160               -0.29807406                2.12951229               -0.03232207
              13.47258672               -1.21695866               51.39266522                0.48203804                0.61263203                0.83968012               -2.96744804               -0.23611890                1.61899881                0.18659991
              14.48366435               -2.11184721               51.10312735                0.55791286                1.38195907                1.11196940               -3.99380376               -0.28683636               -0.03893395                0.35033705
              15.50022590               -2.99855554               50.79423838                0.67740740                1.76454602                1.37500809               -4.98636690               -0.28766849               -1.91641317                0.44648285
              16.51895527               -3.87578729               50.46638074                0.84790426                1.93924238                1.63274307               -5.99184668               -0.22407474               -2.51132442                1.05494603
              17.53901075               -4.74708747               50.14406679                0.99293677                2.00554783                1.98270770               -7.01147179               -0.32916965               -2.13060874               -1.89707194
               8.32910450                4.83996202               53.08750202                0.87102472               -0.69551170               -0.96323218                2.91484563               -0.08639835                0.96094692                3.48210746
               9.32214939                4.03683578               52.76143714                0.39417622               -0.46124911               -0.50492074                1.92164921               -0.16404405                2.59313461               -2.84373136
              10.31987952                3.22922169               52.46855324                0.06245648                0.24207313                0.01044590                1.15156507               -1.00058378                5.20411691               -5.86112808
              11.32699085                2.40575018               52.19484977                0.00010000                1.01503443               -0.57964822                0.29027126               -2.01885464                6.93144906               -4.48105929
              12.34018021                1.55736506               51.93694907                0.00010000                1.36775238               -0.75746953               -0.58388955               -3.02803455                8.58633845               -2.97947178
              13.35434590                0.68248092               51.69701109                0.00010000                1.22268079               -0.43383035               -1.51651986               -3.63181607                9.60976797               -1.90675918
              14.36463383               -0.20856186               51.45983625                0.00010000                0.86242676                0.09287341               -2.44820756               -3.43202021                9.08148421               -0.74936242
              15.37159443               -1.10072752               51.20847913                0.05056032                0.73427171                0.46843070               -3.33063052               -2.41519209                7.48667722                1.21721235
              16.37931926               -1.98480546               50.93778981                0.22761388                0.96930302                0.85144156               -4.19684279               -0.98064417                5.92500632                4.80697551
              17.39098049               -2.85945986               50.65354982                0.48588856                1.38499905                1.36079498               -5.06930763               -0.35321616                3.80483476                2.93992527
              18.40701924               -3.72726040               50.33906393                0.84813351                1.60387487                1.96331488               -5.99979588               -0.32839245                2.36215857               -2.79210454
               9.12892598                5.83049360               52.97038956                0.79880855               -0.59463968               -0.90231833                2.61875627               -0.08926260                0.34456687                4.11503200
              10.12297958                5.03277184               52.59994220                0.27054138               -0.54375509               -0.31109309                1.35739633               -0.10138932                2.77619406               -3.96073090
              11.11805088                4.23256863               52.27857952                0.00010000                0.13755335                0.55384015                0.46783086               -2.10847048               10.55066730              -12.68717435
              12.12573065                3.39474567               52.06414108                0.00010000                1.26022298               -0.79113737               -0.32616373               -4.58446395               16.98548702               -8.86404990
              13.14325534                2.53972180               51.87247625                0.00010000                1.94858324               -1.39395929               -1.20153214               -5.90751438               18.43474993               -6.01533549
              14.16470231                1.66829277               51.68787100                0.00010000                2.19497091               -1.27026325               -2.04614363               -6.73770335               18.98279361               -3.79600260
              15.18715475                0.78489881               51.50743436                0.00010000                2.34509009               -0.79129509               -2.86614655               -6.57584404               19.38072913               -1.43100539
              16.21160411               -0.10247860               51.33006120                0.00010000                2.60953049               -0.44010008               -3.62219343               -5.13252069               20.32705543                2.00328631
              17.23934536               -0.98152671               51.16716802                0.09755382                2.13708851               -0.48141153               -3.33740296               -2.74570106               14.71920082                6.63309776
              18.25434589               -1.84857139               50.87677961                0.26709854                1.43493082                0.61150554               -3.96936368               -0.93865657                4.80622028                3.69116939
              19.26804398               -2.70782118               50.51429258                0.70312201                1.36980951                2.30944607               -5.12907364               -0.69983646                1.23737608               -4.72178333
               9.92276279                6.82191565               52.85094407                0.78925335               -0.47162084               -0.80135082                2.29324705               -0.06849793                0.06493998                3.94135769
              10.91804658                6.03061391               52.43966066                0.25720776               -0.35132551               -0.15099005                0.85994557                0.10323575                1.05103386               -3.78753999
              11.91573628                5.24029849               52.04843512                0.00010000                0.50509105                0.73229075               -0.36109902               -2.60254573               15.61414986              -13.09035752
              12.92814840                4.38992743               51.92852526                0.00010000                1.63732762               -0.18802639               -1.03392589               -5.54626304               28.74515875               -9.12965150
              13.94848283                3.52948588               51.80184276                0.00010000                2.31332094               -0.73471079               -1.79512801               -6.29860830               28.56395044               -6.28325445
              14.97441482                2.65707565               51.67981677                0.00010000                2.77027383               -0.93127627               -2.57688028               -6.92161428               29.00280417               -3.64666868
              16.00388831                1.77561224               51.56266961                0.00010000                3.04773600               -0.86273100               -3.34051817               -6.96708358               29.57694756               -0.92540922
              17.03536954                0.89047048               51.45213253                0.00010000                3.33048633               -0.73439371               -4.00338646               -6.47004705               30.20175492                2.03379869
              18.07049803                0.00556631               51.34683954                0.10019162                3.15661434               -1.05717745               -4.89303374               -4.13641179               22.29331086                4.87318083
              19.09850182               -0.84722975               51.07810866                0.26571803                2.05120266                0.37242835               -3.84434692               -0.97300789                7.20582995                1.72543487
              20.11152208               -1.68107147               50.66905318                0.70031211                1.30202604                2.56521586               -5.12942850               -0.07069039                0.22667406               -6.04070327
              10.71015950                7.81446659               52.73084510                0.78215921               -0.34980378               -0.69159208                1.97716746               -0.06655093                0.07218208                3.92267046
              11.70666146                7.02975204               52.28177103                0.24799863               -0.17365264               -0.02039201                0.36832162                0.16352978                0.90961459               -3.62672832
              12.70668645                6.24721444               51.84968717                0.00010000                0.94782697                0.71975943               -0.98078451               -3.20047245               20.45020279              -11.09274308
              13.72561800                5.39098514               51.79136394                0.00010000                2.17242502                0.26949261               -1.65339224               -6.70123471               38.94047296               -8.80497462
              14.75013495                4.52502758               51.73150998                0.00010000                2.72628325               -0.23136467               -2.35938263               -7.18988669               38.83727866               -6.05026428
              15.78014366                3.64966724               51.67342477                0.00010000                3.21416541               -0.56938918               -3.08994030               -7.57585594               39.08434552               -3.33990690
              16.81441825                2.76764419               51.62026167                0.00010000                3.60527205               -0.70196836               -3.82503350               -7.59849342               39.60975162               -0.55812131
              17.85224911                1.88283353               51.57377234                0.00010000                3.99495520               -0.70118249               -4.60147211               -7.25758496               40.34536993                2.39244202
              18.89431736                0.99732974               51.53592253                0.10619419                3.46372019               -0.62474726               -5.49991646               -4.49494748               28.81950284                5.87090982
              19.92152351                0.15887718               51.25904307                0.27380547                1.99981348                0.78128506               -3.84405724               -1.12311023                8.64577040                0.66094570
              20.93431363               -0.65651686               50.81431729                0.70509972                1.27901180                2.33840620               -5.24992197                0.01186170                0.34105252               -6.62593199
              11.49086087                8.80808381               52.61143609                0.77523126               -0.22915516               -0.58557783                1.66378242               -0.06587172                0.07287938                3.95488033
              12.48856932                8.03020607               52.12472210                0.23894765               -0.01835767                0.11186491               -0.11937411                0.17264011                1.11751263               -3.54940239
              13.49049372                7.25469368               51.65905069                0.00010000                1.38706220                0.80569332               -1.55141308               -3.71489067               25.55666036              -10.52134733
              14.51631056                6.39531728               51.66096287                0.00010000                2.77546401                0.56156366               -2.19664115               -7.74448137               48.84764334               -8.15303188
              15.54600300                5.52485858               51.66411788                0.00010000                3.19852635                0.12999712               -2.86342916               -8.17758042               48.89029727               -5.56161594
              16.58028109                4.64568787               51.66990685                0.00010000                3.63745735               -0.27797314               -3.55203635               -8.40824172               49.14610295               -2.84666367
              17.61875215                3.76157287               51.68084865                0.00010000                4.01255979               -0.52394431               -4.26358947               -8.31954836               49.69876310               -0.00577516
              18.66053229                2.87644683               51.69977806                0.00010000                4.29016441               -0.54912075               -5.01323251               -7.98754565               50.60102177                3.10832792
              19.70455543                1.99307136               51.72996611                0.11220002                3.46769651               -0.27942077               -5.83560612               -4.88279117               34.89707820                6.71484401
              20.72988622                1.16839595               51.43432706                0.28199576                1.89959790                1.01755419               -3.76818048               -1.05265998                9.56595873                0.54310281
              21.74254739                0.36569665               50.95316765                0.71002751                1.26611746                2.12896161               -5.31023058                0.02937080                0.41611556               -6.85115157
              12.26459754                9.80275503               52.49235098                0.76831663               -0.10931434               -0.48088313                1.35094329               -0.06619972                0.07547410                3.95340326
              13.26350440                9.03198933               51.96827179                0.22988086                0.13399417                0.24598543               -0.60452440                0.15873632                1.42407393               -3.49545923
              14.26727742                8.26332831               51.47122615                0.00010000                1.85295353                0.92297996               -2.08416814               -4.17007300               30.84318661              -10.24261300
              15.30056347                7.40221642               51.53528324                0.00010000                3.44676628                0.78339778               -2.67975081               -8.62259448               58.81584149               -7.59439182
              16.33621275                6.52762752               51.60123986                0.00010000                3.73505371                0.34549773               -3.29431226               -9.04286195               58.88830337               -4.92742175
              17.37526454                5.64410778               51.67035799                0.00010000                4.05277877               -0.10391143               -3.93171150               -9.13059804               59.18616441               -2.21711817
              18.41726832                4.75716530               51.74559974                0.00010000                4.28675806               -0.38787635               -4.58761434               -8.90075026               59.85468536                0.66308582
              19.46099970                3.87185112               51.83075539                0.00076256                4.37220446               -0.39984610               -5.25799680               -8.47105043               60.99452064                3.89441031
              20.50471241                2.99174132               51.93009493                0.11833899                3.34226603               -0.04024398               -5.93970970               -4.99631766               40.69605628                7.64734318
              21.52784502                2.17922826               51.60767363                0.29023964                1.77936199                1.08105824               -3.60261365               -0.89756987               10.10935524                0.75083574
              22.54029965                1.38606237               51.08952262                0.71491116                1.24546303                1.95319479               -5.28056934                0.03883063                0.47782847               -6.73721679
              13.03106827               10.79846615               52.37324488                0.76134084                0.01024981               -0.37685972                1.03730918               -0.06661292                0.07684092                3.91368842
              14.03117077               10.03512578               51.81208269                0.22094659                0.28984514                0.38219188               -1.08894521                0.12146791                1.81039220               -3.46407447
              15.03686518                9.27315328               51.28556652                0.00010000                2.41943440                1.02028012               -2.58300668               -4.61528005               36.31943048               -9.96064783
              16.07955946                8.41098524               51.41420754                0.00010000                4.31946124                0.86209785               -3.09792383               -9.27731705               68.91088155               -6.91411066
              17.12325440                7.53176854               51.54351029                0.00010000                4.42859467                0.32207653               -3.64010501               -9.52653191               68.86497198               -4.15492019
              18.16813135                6.64360964               51.67522901                0.00010000                4.48697011               -0.08241384               -4.20740944               -9.32298776               69.16994404               -1.54204555
              19.21299380                5.75381535               51.81423730                0.00010000                4.42019523               -0.26814069               -4.78268766               -8.99777463               70.05306841                1.24098026
              20.25653526                4.86844991               51.96641275                0.00525450                4.21290660               -0.26935588               -5.33666551               -8.56792692               71.57983500                4.54140219
              21.29725193                3.99226648               52.13693271                0.12460554                3.05392569                0.14219534               -5.82148099               -4.97274246               46.36224350                8.55409791
              22.31761377                3.19001712               51.78185676                0.29862684                1.62019236                1.03466511               -3.33914455               -0.75701414               10.37912148                1.18620931
              23.32965578                2.40476054               51.22620304                0.71987505                1.20420111                1.78640950               -5.15188230                0.03741411                0.52392237               -6.36111222
              13.78994602               11.79521784               52.25366340                0.75432173                0.13006114               -0.27274166                0.72088595               -0.06760161                0.09603258                3.88064516
              14.79124663               11.03963317               51.65593174                0.21197763                0.45831756                0.52078580               -1.57347175                0.03619086                2.32963370               -3.50097266
              15.79911237               10.28373391               51.10276010                0.00010000                3.25776192                1.03053813               -3.03348931               -5.16933176               42.11667443               -9.35769129
              16.85640187                9.41945837               51.30016882                0.00010000                5.69726700                0.46249110               -3.43728879               -9.58570104               79.17991254               -5.71663683
              17.91305771                8.53406905               51.49266397                0.00010000                5.51780568               -0.20885002               -3.88648635               -8.93870382               78.67560117               -3.11915514
              18.96675798                7.64245950               51.68421737                0.00010000                4.97074281               -0.19421546               -4.36769507               -8.26936058               78.86741638               -0.91308078
              20.01247256                6.75180249               51.88421983                0.00010000                4.22160240               -0.01177244               -4.84653879               -8.02373833               80.14079984                1.44921927
              21.05119003                5.86646400               52.10345383                0.00999789                3.56088969                0.08330625               -5.26134266               -8.03646948               82.43386869                4.50353934
              22.08369036                4.99458523               52.34950474                0.13093234                2.45103258                0.42376452               -5.50215708               -4.97553091               52.16665342                8.99863641
              23.10021068                4.19992156               51.95891019                0.30698365                1.39353635                0.91894630               -2.97504495               -0.71962309               10.53469369                1.84212424
              24.11156108                3.42179056               51.36570542                0.72480702                1.13504053                1.61314958               -4.91949553                0.02430184                0.58836744               -5.80539666
              14.54088557               12.79301132               52.13416225                0.74731165                0.24929437               -0.16742544                0.40527410               -0.06865937               -0.05191239                3.37719024
              15.54337852               12.04554150               51.49856421                0.20307860                0.63838831                0.65860694               -2.06389097               -0.15942803                3.24268299               -3.13959880
              16.55365334               11.29376404               50.92865827                0.00010000                4.70658893                0.76816768               -3.40458032               -5.83485882               48.70236720               -6.86934978
              17.63751029               10.42023506               51.20124324                0.00010000                8.39129301               -1.45312027               -3.67432730               -7.66842453               89.51403295               -3.41627692
              18.72147920                9.52759154               51.45215263                0.00010000                7.37502062               -1.03352733               -4.01782139               -6.07189670               87.82206337               -1.70616541
              19.78501071                8.63972533               51.69644683                0.00010000                5.35176702               -0.34676555               -4.40348411               -5.06457280               87.77905262               -0.40046653
              20.82851454                7.75357990               51.95018749                0.00010000                3.40062091                0.40204066               -4.78321577               -5.13212127               89.54452800                1.01756053
              21.85302312                6.87011604               52.23078741                0.01500094                1.78846059                1.07971756               -5.07026357               -5.73060249               93.42646831                3.04828582
              22.86428375                6.00074177               52.55964695                0.13754671                1.14964256                1.24069462               -5.03097865               -4.39071743               58.78730328                6.77791953
              23.87601598                5.20839604               52.14160370                0.31530470                1.10600347                0.76815866               -2.50561021               -0.91226186               11.02666609                2.19841823
              24.88640382                4.43702354               51.50923784                0.72967689                1.03878437                1.43891675               -4.58719218               -0.02342721                0.49887649               -4.48353322
              15.28351246               13.79186933               52.00473968                0.87132870                0.37928793               -0.11419880                0.04699774                0.35628739                1.54005540                2.87241335
              16.28730534               13.05280531               51.34908571                0.59872968                1.21045828                0.72638118               -2.51600446               -0.24592050                6.67075489               -2.71200112
              17.30772163               12.29909726               50.79574628                0.47552540                9.09502672                0.53332234               -3.63933921               -7.71363795               56.47857495               -4.92435904
              18.46920588               11.39039597               51.13166433                0.44661880               13.22039354               -2.98390912               -3.78063632               -6.11537948               98.34725392               -1.77245886
              19.57212950               10.51339851               51.42586781                0.43798973                8.51361435               -1.41930303               -4.01402982               -2.67855879               95.45502282               -0.81071713
              20.63947816                9.63552419               51.71074902                0.44542688                5.36549675               -0.42011440               -4.30467761               -2.23101453               95.26991680               -0.07654308
              21.67943944                8.75984330               52.00531188                0.46857159                2.49689681                0.62634048               -4.59853791               -2.28080233               97.27321385                0.72794674
              22.68941610                7.88805835               52.33070849                0.50920217               -1.09217178                1.79423131               -4.79889520               -3.38291134              102.37753267                1.92926942
              23.65759600                7.01939912               52.72163171                0.57097721               -2.18662111                1.86573498               -4.60012972               -4.30745565               66.88133074                4.82294837
              24.64568368                6.21528474               52.32162195                0.66042143               -0.18792214                0.68886926               -1.95987400               -1.47474098               14.83949262                2.25197871
              25.65383756                5.45056890               51.67103727                0.86639487                0.81538785                1.35453623               -4.10590058                0.27178984                2.48501431               -3.36613495
               7.82612030                4.01241226               54.25409283                0.96088283               -0.92094022               -1.01764282                3.44844885               -0.23029066               -2.43516103                2.84046795
               8.81691090                3.16607409               53.92333167                0.74512984               -0.89757222               -0.62480844                2.41503299               -0.21727371               -3.37999729               -1.74879140
               9.80816885                2.31602912               53.57433283                0.56633607               -1.06045001               -0.32542543                1.29435043               -0.52416692               -3.29626026               -0.97582865
              10.79570190                1.45076394               53.24563807                0.48545117               -1.27468265               -0.05392644                0.24081326               -0.57754433               -1.17830099               -0.37818340
              11.78267520                0.56098537               52.93846521                0.44659125               -1.07060443                0.26521293               -0.86308242               -0.48284175                0.83330769               -0.26610888
              12.77428981               -0.35414252               52.64862011                0.44521168               -0.34107430                0.58037282               -2.00857022               -0.28755121                1.94525246               -0.03632176
              13.77585371               -1.28486654               52.36213220                0.48048245                0.64211150                0.88297852               -3.14384926               -0.22470956                1.47872724                0.18445067
              14.78713204               -2.21698924               52.06208384                0.55389414                1.41235845                1.16770783               -4.22116334               -0.26998494               -0.12673290                0.35248633
              15.80410088               -3.14160000               51.74300568                0.66924187                1.82395156                1.44468385               -5.26443867               -0.27533933               -1.98846122                0.44193873
              16.82361107               -4.05702554               51.40485444                0.83325609                2.03135965                1.71604197               -6.32122806               -0.22411954               -2.59154798                1.05090703
              17.84472808               -4.96631977               51.07212324                0.98311730                2.11170087                2.07784688               -7.38777147               -0.35550059               -2.21255256               -1.94630532
               8.67015556                5.00223583               54.11722545                0.85594850               -0.72258316               -0.99960102                3.03124173               -0.09196661                1.04587634                3.63872800
               9.66292973                4.15982600               53.78098217                0.37608667               -0.47866518               -0.52128583                1.98849177               -0.17239096                2.79164144               -3.01672603
              10.66058226                3.31277486               53.48020197                0.05604023                0.22592974                0.02253016                1.17943548               -1.00325925                5.46917761               -6.12847105
              11.66744833                2.45022468               53.19767313                0.00010000                0.98588784               -0.58325352                0.27629421               -1.99988722                7.14265055               -4.83001738
              12.68030002                1.56363750               52.93086076                0.00010000                1.34459631               -0.74513720               -0.63363685               -2.96629566                8.76229856               -3.41245068
              13.69434025                0.65166120               52.68143020                0.00010000                1.23649821               -0.43766744               -1.59907176               -3.53787686                9.75622592               -2.38331168
              14.70502998               -0.27603676               52.43478871                0.00010000                0.92293316                0.07430744               -2.56325642               -3.34064343                9.25083326               -1.25268724
              15.71279891               -1.20531217               52.17444792                0.04462554                0.81678300                0.47381087               -3.47780970               -2.35547922                7.68631504                0.70472878
              16.72136564               -2.12715316               51.89491616                0.21543007                1.04654223                0.89810317               -4.37756816               -0.97277842                6.12981655                4.81938641
              17.73372976               -3.03986512               51.60177661                0.46374248                1.45508295                1.42479742               -5.28642952               -0.35744614                3.97858743                3.02636827
              18.75046730               -3.94554130               51.27779103                0.83281466                1.67375394                2.05236665               -6.25771995               -0.36023461                2.50664643               -2.91535088
               9.50910062                5.99242024               53.99709349                0.78608720               -0.61765729               -0.93261717                2.72350711               -0.09150523                0.33907792                4.30760401
              10.50292405                5.15564837               53.61370659                0.25646304               -0.56978112               -0.32053952                1.39646381               -0.09439688                2.96282072               -4.17882469
              11.49770500                4.31647972               53.28325839                0.00010000                0.09587338                0.58930319                0.47138467               -2.12647882               10.96752431              -13.31103211
              12.50484151                3.43909887               53.06058020                0.00010000                1.21038813               -0.76871679               -0.38405488               -4.59365304               17.40139312               -9.57678591
              13.52191276                2.54608263               52.86000800                0.00010000                1.91825066               -1.37543166               -1.29322780               -5.84035707               18.82344020               -6.85979794
              14.54320653                1.63710413               52.66672135                0.00010000                2.20507288               -1.28058267               -2.18783575               -6.64044375               19.39134756               -4.73933992
              15.56601422                0.71661961               52.47783598                0.00010000                2.39661634               -0.82561199               -3.05900456               -6.46034623               19.83382737               -2.45580830
              16.59113885               -0.20751303               52.29272159                0.00010000                2.65920277               -0.44337290               -3.85116774               -5.04117902               21.35324863                0.93192942
              17.61919827               -1.12363793               52.13296052                0.08983079                2.18557173               -0.33308587               -3.51581037               -2.75224148               15.80457389                5.38321646
              18.63485029               -2.02852959               51.83652081                0.25256399                1.48387347                0.72230390               -4.07670062               -0.96013698                5.14217396                3.31699710
              19.64887574               -2.92527244               51.46215158                0.69292423                1.40254537                2.45072293               -5.29573841               -0.72198569                1.27629956               -5.41511315
              10.34186919                6.98358349               53.87432063                0.77696998               -0.48868783               -0.82514609                2.38369081               -0.07138016                0.06696470                4.12102264
              11.33698231                6.15341521               53.44834171                0.24375364               -0.36335035               -0.15533274                0.87703642                0.12210147                1.16829832               -3.96787591
              12.33460218                5.32456092               53.04473525                0.00010000                0.44950226                0.76119182               -0.37566467               -2.59207687               16.11234346              -13.67304451
              13.34597236                4.43485034               52.91784462                0.00010000                1.54427165               -0.12677276               -1.10034045               -5.56228830               29.45221689               -9.83841803
              14.36548762                3.53612887               52.78324686                0.00010000                2.25110194               -0.68313409               -1.92618205               -6.27121018               29.20053094               -7.09252752
              15.39099440                2.62604955               52.65306526                0.00010000                2.74762963               -0.88012867               -2.77972402               -6.87708974               29.62691591               -4.57269485
              16.42044021                1.70745100               52.52790735                0.00010000                3.06192387               -0.80268177               -3.62136427               -6.91121077               30.25559031               -1.97328700
              17.45223287                0.78582038               52.41036477                0.00010000                3.34485838               -0.62841140               -4.35984223               -6.34495430               30.81014368                0.81544176
              18.48733738               -0.13381488               52.29567609                0.09253463                3.19643247               -0.76898157               -5.33367359               -4.15156743               23.81210333                2.86846093
              19.51616152               -1.02541904               52.03833900                0.25148640                2.10879471                0.59585528               -4.13374661               -1.06905321                8.50105946                0.80781694
              20.52951327               -1.89652684               51.61610757                0.69048846                1.33517483                2.78650984               -5.48551352               -0.05978092                0.28544366               -7.23928406
              11.16800956                7.97591732               53.75100522                0.77019852               -0.36209252               -0.71220076                2.05634896               -0.06952719                0.07480786                4.10673869
              12.16438864                7.15254172               53.28543434                0.23486618               -0.17906151               -0.01827752                0.36464672                0.18326039                1.05521075               -3.80184668
              13.16442833                6.33170355               52.83972161                0.00010000                0.88195847                0.74402744               -1.00283259               -3.18711233               21.06713832              -11.54493031
              14.18202781                5.43656341               52.77440192                0.00010000                2.04305061                0.34220971               -1.73579692               -6.71340182               39.84331314               -9.42921354
              15.20528934                4.53241994               52.70710378                0.00010000                2.61573943               -0.13331122               -2.52386950               -7.17681353               39.68200138               -6.80433114
              16.23434259                3.61950155               52.64124927                0.00010000                3.13649158               -0.44671902               -3.35300540               -7.55109403               39.89352865               -4.21761957
              17.26801918                2.70056597               52.58019107                0.00010000                3.55815253               -0.54485630               -4.20147910               -7.54358181               40.37950924               -1.57163343
              18.30550565                1.77991875               52.52527678                0.00010000                3.96935840               -0.48114790               -5.11069254               -7.07921992               41.01263303                1.17883946
              19.34740634                0.86098244               52.47755143                0.09816628                3.53377722               -0.31277162               -6.17530632               -4.47502451               30.78653878                4.54115354
              20.37618119               -0.01661249               52.21863104                0.25920587                2.12446873                1.06213977               -4.28794110               -1.23236220               10.35312277               -0.19608340
              21.38989572               -0.86954224               51.75944843                0.69507858                1.37145287                2.58562747               -5.77649052                0.03493322                0.44014981               -7.77270627
              11.98722985                8.96933947               53.62841080                0.76337149               -0.23685646               -0.60427412                1.73263857               -0.06851114                0.07571869                4.13891108
              12.98486128                8.15304966               53.12341462                0.22609941               -0.01958035                0.12033625               -0.14223113                0.19036432                1.31641734               -3.72100586
              13.98683824                7.33944147               52.64338898                0.00010000                1.30633255                0.83272177               -1.57206021               -3.69076955               26.32559120              -10.93067845
              15.01098793                6.44169453               52.63849926                0.00010000                2.60874839                0.64925269               -2.28941359               -7.73783879               49.94389680               -8.70106806
              16.03901321                5.53346264               52.63452361                0.00010000                3.04192785                0.26938759               -3.05644157               -8.14966112               49.92402996               -6.23603227
              17.07182649                4.61711517               52.63283584                0.00010000                3.50690877               -0.08788597               -3.87063181               -8.35888832               50.12278788               -3.63848658
              18.10915138                3.69655388               52.63593585                0.00010000                3.92027606               -0.27999913               -4.73424628               -8.21776595               50.61412793               -0.91304637
              19.15023201                2.77619742               52.64645447                0.00010000                4.26083689               -0.25345446               -5.67078117               -7.73026068               51.42115456                2.11096294
              20.19436812                1.85992969               52.66713964                0.10401853                3.59034718                0.04306335               -6.74863142               -4.79039981               37.25231867                5.70452087
              21.22203895                0.99582375               52.39420869                0.26709471                2.08516599                1.30860742               -4.31781089               -1.14555997               11.58775907               -0.14959192
              22.23607144                0.15518571               51.89717141                0.69982542                1.40324856                2.38005966               -5.95627740                0.04959599                0.53332534               -7.83488965
              12.79921896                9.96383183               53.50614576                0.75673035               -0.11250352               -0.49753266                1.41008921               -0.06790303                0.07897030                4.13591176
              13.79809392                9.15494844               52.96202201                0.21747129                0.13745565                0.26014189               -0.64631287                0.17091952                1.69284237               -3.66483298
              14.80196807                8.34835799               52.45024124                0.00010000                1.75779707                0.95201707               -2.09727217               -4.13106500               31.79237326              -10.61394690
              15.83324986                7.44954847               52.50796767                0.00010000                3.24537079                0.88194737               -2.77387592               -8.57624080               60.12090963               -8.07018720
              16.86687549                6.53780770               52.56722745                0.00010000                3.54118652                0.51372036               -3.50692697               -8.96968111               60.11564092               -5.50611718
              17.90407359                5.61774384               52.62925838                0.00010000                3.88530621                0.13741470               -4.29670329               -9.02137660               60.34268280               -2.89017821
              18.94458161                4.69496599               52.69704318                0.00010000                4.17255117               -0.07891123               -5.14203312               -8.72802141               60.94727450               -0.08571860
              19.98752462                3.77484966               52.77434183                0.00010000                4.36952027               -0.05284347               -6.05314757               -8.14962302               62.01799364                3.11602299
              21.03197201                2.86184370               52.86524565                0.10993088                3.52446791                0.27905273               -7.06548608               -4.86067724               43.39649593                6.94411216
              22.05801397                2.00955966               52.56890177                0.27510958                2.00958554                1.36374219               -4.21787956               -0.97920953               12.37209360                0.22718868
              23.07216373                1.17805895               52.03346764                0.70455597                1.41497507                2.20112401               -6.00035031                0.05559766                0.60530761               -7.54205576
              13.60363857               10.95938882               53.38385627                0.75008545                0.01149455               -0.39132756                1.08667098               -0.06848653                0.08040558                4.09336347
              14.60375351               10.15825250               52.80090036                0.20891941                0.29891711                0.40178481               -1.14912056                0.12392669                2.16738900               -3.63245128
              15.60961691                9.35848181               52.25965913                0.00010000                2.31299480                1.04693817               -2.57805403               -4.56311506               37.48066998              -10.28329815
              16.65001341                8.45933348               52.38273527                0.00010000                4.09036532                0.95932948               -3.18234427               -9.18315382               70.44703718               -7.30844415
              17.69142422                7.54373705               52.50598638                0.00010000                4.21136269                0.50363234               -3.86037477               -9.39167262               70.30069820               -4.62148832
              18.73424066                6.61986346               52.63120697                0.00010000                4.30304572                0.18714111               -4.60489994               -9.13966680               70.52219321               -2.07306395
              19.77748513                5.69497565               52.76341239                0.00010000                4.30605853                0.08223309               -5.40409403               -8.74638765               71.34781700                0.66943837
              20.82036183                4.77514055               52.90868914                0.00090475                4.24797190                0.11939050               -6.24601220               -8.20900901               72.85089161                3.98677333
              21.86244457                3.86551075               53.07247857                0.11589689                3.29388384                0.45353612               -7.13149794               -4.82518092               49.37478042                8.14953766
              22.88623951                3.02309860               52.74556254                0.28314961                1.88701183                1.29872051               -3.98851475               -0.83594596               12.81558106                0.82926973
              23.90018481                2.19920819               52.17126656                0.70926153                1.39452949                2.02745618               -5.90815638                0.05141333                0.65818377               -6.98876098
              14.40012186               11.95600528               53.26106456                0.74334564                0.13575973               -0.28545022                0.76056004               -0.06991280                0.10004558                4.05820059
              15.40147946               11.16298414               52.63981230                0.20034920                0.47514629                0.54629347               -1.65228683                0.02076908                2.80119342               -3.67144645
              16.40962479               10.36929675               52.07246693                0.00010000                3.14260471                1.03644686               -2.99451262               -5.11055918               43.53209124               -9.61407253
              17.46433155                9.46873506               52.26538418                0.00010000                5.44436314                0.54915336               -3.50009736               -9.43311754               80.96987298               -6.01172661
              18.51851205                8.54788034               52.45268893                0.00010000                5.28550503               -0.01766768               -4.10064349               -8.76051547               80.33493584               -3.45551580
              19.57004165                7.62148666               52.63851658                0.00010000                4.79323611                0.07700724               -4.77916379               -8.03896237               80.42651170               -1.28462214
              20.61437677                6.69661065               52.83256187                0.00010000                4.13838443                0.33853261               -5.50966620               -7.71557011               81.65335803                1.06393585
              21.65280934                5.77723747               53.04611977                0.00543650                3.65667891                0.50370366               -6.25346256               -7.65167756               83.98718266                4.16159676
              22.68751035                4.87091443               53.28769116                0.12210686                2.73941362                0.74786030               -6.95007430               -4.84296432               55.45377461                8.85513888
              23.70759761                4.03553407               52.92619613                0.29110503                1.67312283                1.15998495               -3.63788407               -0.81224669               13.08701304                1.64745806
              24.72097281                3.21860808               52.31304472                0.71396084                1.33751924                1.84581422               -5.68939734                0.03645469                0.72976943               -6.26803825
              15.18828260               12.95367981               53.13835703                0.73656584                0.25948222               -0.17791912                0.43479842               -0.07100932               -0.05559427                3.53207224
              16.19087742               12.16917837               52.47744996                0.19182064                0.66861022                0.68993070               -2.16174560               -0.21490675                3.86939733               -3.29206008
              17.20165481               11.37921075               51.89483408                0.00010000                4.59450233                0.69692772               -3.32113064               -5.69751038               50.42885247               -7.02841616
              18.28276747               10.47031655               52.16421359                0.00010000                8.09037512               -1.31659274               -3.70652133               -7.50119475               91.57933971               -3.58852869
              19.36346231                9.54338369               52.41095051                0.00010000                7.09818192               -0.83452711               -4.21101584               -5.91864474               89.71049884               -1.88649150
              20.42473111                8.62140361               52.65042939                0.00010000                5.19803058               -0.09417566               -4.80454521               -4.89018933               89.54469021               -0.59587368
              21.46742292                7.70174630               52.89913334                0.00010000                3.41466996                0.70815918               -5.45282840               -4.86682228               91.26694052                0.82157642
              22.49302451                6.78521462               53.17525528                0.01035169                1.99328791                1.43643622               -6.09418702               -5.40913133               95.27128384                2.89299281
              23.50728868                5.88046795               53.50216157                0.12842473                1.46382085                1.65090912               -6.57403395               -4.21709411               62.34985643                6.78328565
              24.52230093                5.04629829               53.11359972                0.29908270                1.37386044                0.98584437               -3.16411758               -1.05410380               13.66447619                2.14880302
              25.53476589                4.23612447               52.45993264                0.71861855                1.24649622                1.66536843               -5.35047176               -0.01848809                0.63966288               -4.76687519
              15.96770456               13.95244690               53.00528790                0.86609413                0.39458227               -0.12329141                0.06350689                0.37578122                1.60919071                3.00459800
              16.97165039               13.17678275               52.32336618                0.59323879                1.34159189                0.76043816               -2.63161981               -0.38328349                7.53832763               -2.84315291
              17.99453640               12.38323531               51.75971339                0.47434771                8.92421649                0.40245561               -3.52058384               -7.43081803               58.59420918               -5.05323986
              19.15013471               11.44240320               52.09371187                0.44651587               12.72578469               -2.79133455               -3.78120370               -5.86555099              100.67101268               -1.85067688
              20.24905209               10.53118980               52.38487438                0.43799303                8.18702711               -1.21938946               -4.16966964               -2.58102446               97.56514130               -0.89071342
              21.31387526                9.61960314               52.66591526                0.44519343                5.20886098               -0.18004655               -4.66303886               -2.10638355               97.22723386               -0.16010050
              22.35322931                8.71077383               52.95630507                0.46761034                2.60149049                0.90275290               -5.22452344               -2.10120835               99.16462693                0.64970502
              23.36590507                7.80596619               53.27807896                0.50686496               -0.55722589                2.07515686               -5.78494106               -3.05400545              104.41331437                1.88290308
              24.34208480                6.90393261               53.66845554                0.56635942               -1.75230242                2.34646547               -6.14862782               -4.05614991               70.69583652                4.88199735
              25.33085902                6.05525096               53.29917417                0.65224885               -0.05670538                0.89526642               -2.59737823               -1.74504876               17.64164502                2.28688491
              26.34095069                5.25191545               52.62664882                0.86083384                1.00916698                1.57909737               -4.84625242                0.28492883                2.69449546               -3.52682754
               8.13722056                4.18030237               55.28925194                0.95243280               -0.95403814               -1.05664483                3.58388121               -0.24209325               -2.53313492                2.94879616
               9.12768018                3.29259341               54.94790219                0.73437215               -0.92376048               -0.64670784                2.49989915               -0.22732356               -3.52304397               -1.84613159
              10.11874535                2.40110487               54.58742291                0.56195076               -1.05637298               -0.33781531                1.32400788               -0.51175256               -3.44972552               -0.95011694
              11.10655272                1.49470484               54.24793111                0.48392350               -1.22572333               -0.04971409                0.21763203               -0.55411304               -1.32175547               -0.39163268
              12.09423088                0.56475791               53.92945518                0.44635347               -0.99514693                0.28153570               -0.94017793               -0.46028179                0.64666293               -0.27104932
              13.08664978               -0.38937726               53.62790302                0.44499484               -0.27666734                0.60906942               -2.13775468               -0.27775986                1.74674619               -0.04048300
              14.08869754               -1.35858267               53.32978823                0.47903400                0.68032193                0.92632786               -3.32737007               -0.21389523                1.32190229                0.18226174
              15.10025622               -2.32952564               53.01870408                0.54983513                1.44942725                1.22549501               -4.45853474               -0.25404693               -0.22829648                0.35513389
              16.11768608               -3.29353774               52.68894961                0.66096887                1.88752681                1.51651571               -5.55460875               -0.26431027               -2.07527591                0.43783166
              17.13800675               -4.24861348               52.33995618                0.81892308                2.12680128                1.80146178               -6.66395331               -0.22351021               -2.68660850                1.04827443
              18.16022211               -5.19734917               51.99631136                0.97328006                2.22153526                2.17534153               -7.77846788               -0.38344687               -2.30710441               -2.00265955
               9.02250858                5.16973592               55.14812686                0.84099379               -0.75028876               -1.03759311                3.14993452               -0.09791947                1.13596282                3.80239190
              10.01500569                4.28612634               54.80120698                0.35814081               -0.49682343               -0.53788034                2.05718098               -0.18091445                3.00073891               -3.20026795
              11.01257211                3.39772671               54.49214195                0.04975999                0.20896857                0.03549163                1.20971414               -1.00681208                5.74947274               -6.40536002
              12.01918506                2.49420770               54.20037565                0.00010000                0.95484991               -0.58331860                0.26540157               -1.98486303                7.37212830               -5.20568292
              13.03166911                1.56757327               53.92427633                0.00010000                1.31787025               -0.73090861               -0.68291297               -2.90710760                8.96115948               -3.87915459
              14.04554247                0.61671344               53.66502965                0.00010000                1.24818325               -0.43759173               -1.68149904               -3.44205800                9.92595255               -2.91340826
              15.05663278               -0.34931939               53.40857112                0.00010000                0.98254059                0.06233348               -2.67960340               -3.24252989                9.44327420               -1.82915783
              16.06519328               -1.31727069               53.13892293                0.03872115                0.89770625                0.48843930               -3.62773772               -2.28824274                7.90966650                0.10807219
              17.07458690               -2.27837258               52.85023845                0.20324131                1.12420434                0.94577092               -4.56070522               -0.96883206                6.35420901                4.77661757
              18.08767737               -3.23059887               52.54782123                0.44164922                1.52682106                1.49098236               -5.50483881               -0.36158105                4.16522028                3.11289151
              19.10512332               -4.17559575               52.21390953                0.81775901                1.74459532                2.14545965               -6.51741831               -0.39537166                2.66127561               -3.06043468
               9.90248134                6.15955051               55.02485970                0.77338555               -0.64102423               -0.96557734                2.83111612               -0.09390319                0.33236173                4.50879487
              10.89607110                5.28183581               54.62787147                0.24224180               -0.59767955               -0.32988473                1.43756878               -0.08717937                3.16488393               -4.41025743
              11.89052775                4.40181470               54.28800721                0.00010000                0.04689027                0.63238333                0.47981226               -2.14446125               11.40216060              -13.95565159
              12.89700890                3.48303846               54.05645998                0.00010000                1.15276197               -0.74351743               -0.43675629               -4.60894484               17.83309182              -10.32578457
              13.91358299                2.55013974               53.84661169                0.00010000                1.88461871               -1.35168607               -1.38757366               -5.77819278               19.23336748               -7.77078186
              14.93470128                1.60187091               53.64411428                0.00010000                2.21240395               -1.28098000               -2.33817588               -6.53627787               19.81414357               -5.78794625
              15.95783107                0.64266400               53.44625427                0.00010000                2.44216375               -0.84445967               -3.26481959               -6.32799661               20.30906651               -3.62737858
              16.98354455               -0.31975685               53.25303785                0.00010000                2.69032752               -0.42525931               -4.09299745               -4.93379662               22.44738151               -0.32619017
              18.01163762               -1.27462232               53.09685181                0.08214708                2.22268785               -0.16414031               -3.73118987               -2.74290103               17.02444528                3.90810124
              19.02799831               -2.21879384               52.79524560                0.23805074                1.53354147                0.87076165               -4.17916317               -0.97017445                5.56166035                2.78014999
              20.04230845               -3.15443998               52.40837781                0.68287054                1.43101380                2.62208739               -5.46271293               -0.73608902                1.32449224               -6.30258660
              10.77605992                7.15042437               54.89861788                0.76468328               -0.50620010               -0.85196592                2.47808275               -0.07376958                0.06964532                4.30964201
              11.77099791                6.27952864               54.45720139                0.23031425               -0.37898427               -0.15968108                0.89562980                0.14640983                1.30869968               -4.15784135
              12.76848023                5.41037438               54.04092182                0.00010000                0.38416064                0.79237037               -0.37892007               -2.58287064               16.64535202              -14.27158633
              13.77868113                4.47933735               53.90651845                0.00010000                1.43962895               -0.06461142               -1.16211960               -5.58708207               30.17232383              -10.56771192
              14.79727281                3.54053955               53.76331912                0.00010000                2.18057610               -0.62377640               -2.06187811               -6.24494355               29.84015415               -7.96226706
              15.82229265                2.59109384               53.62422229                0.00010000                2.72138987               -0.81633185               -2.99674030               -6.82612290               30.25044411               -5.60012097
              16.85170061                1.63379142               53.49024232                0.00010000                3.07555088               -0.72404921               -3.92346089               -6.83599260               30.93697951               -3.17121759
              17.88380367                0.67422412               53.36493568                0.00010000                3.35326285               -0.49612664               -4.73784911               -6.19249751               31.43165402               -0.61997120
              18.91876586               -0.28165538               53.24016606                0.08473987                3.21439358               -0.43442108               -5.76951736               -4.11757489               25.45164916                0.51975093
              19.94809154               -1.21318363               52.99543373                0.23743546                2.14639769                0.89398297               -4.48527672               -1.14039800                9.91482879               -0.40640688
              20.96169382               -2.12315401               52.55934291                0.68082595                1.36022791                3.07025751               -5.90492620               -0.03836700                0.36781542               -8.76565467
              11.64279741                8.14251119               54.77197208                0.75817734               -0.37481244               -0.73514393                2.13929936               -0.07151628                0.07792057                4.30180807
              12.63904929                7.27864219               54.28906396                0.22190943               -0.18678918               -0.01651776                0.36182273                0.20362419                1.23877572               -3.98519867
              13.63906163                6.41766211               53.82963052                0.00010000                0.80264026                0.75930466               -1.00410477               -3.17276370               21.72858102              -11.99843668
              14.65510209                5.48174624               53.75664800                0.00010000                1.89329977                0.41964126               -1.81013933               -6.73125750               40.75108924              -10.07355722
              15.67692762                4.53766421               53.68103259                0.00010000                2.49124269               -0.02626405               -2.69273636               -7.16638752               40.51651114               -7.61158623
              16.70492695                3.58554427               53.60636466                0.00010000                3.05266520               -0.30924048               -3.63332766               -7.52246174               40.68268263               -5.19117874
              17.73798093                2.62818302               53.53623209                0.00010000                3.51072273               -0.36657912               -4.60512025               -7.47540985               41.12253499               -2.73482594
              18.77514140                1.67032061               53.47155849                0.00010000                3.93564742               -0.23115411               -5.64693308               -6.87729171               41.64437295               -0.26030467
              19.81669388                0.71668926               53.41241640                0.09030802                3.57737838                0.05614705               -6.84991506               -4.40765322               32.88414953                2.86059486
              20.84668897               -0.20091418               53.17328425                0.24488138                2.23939864                1.41585099               -4.84156352               -1.31029979               12.22032670               -1.28900312
              21.86148185               -1.09303483               52.69878748                0.68522456                1.47928803                2.90668262               -6.41425908                0.06766692                0.56959865               -9.18898494
              12.50236760                9.13572150               54.64608886                0.75169806               -0.24481137               -0.62416961                1.80500548               -0.07096965                0.07913260                4.33482804
              13.49991948                8.27919829               54.12187748                0.21354828               -0.02233445                0.12823744               -0.16556502                0.20277232                1.56821523               -3.89986056
              14.50192091                7.42556047               53.62760949                0.00010000                1.20671955                0.85585578               -1.56662570               -3.66752579               27.15293818              -11.32791106
              15.52405387                6.48773017               53.61517460                0.00010000                2.41130578                0.74152159               -2.36773824               -7.73264230               51.04053808               -9.26249652
              16.55014702                5.54001427               53.60298905                0.00010000                2.86353676                0.41890984               -3.25098284               -8.12569550               50.93378240               -6.95618259
              17.58132461                4.58490903               53.59249421                0.00010000                3.36345235                0.11944025               -4.20736720               -8.30894545               51.05838785               -4.51861246
              18.61741607                3.62645983               53.58616373                0.00010000                3.82134901               -0.01043102               -5.23676981               -8.10792757               51.47094504               -1.96367441
              19.65775159                2.66960104               53.58636244                0.00010000                4.22157609                0.08081492               -6.36693639               -7.44882906               52.14779797                0.89396385
              20.70184759                1.71946756               53.59499348                0.09584432                3.69290210                0.42976880               -7.68230126               -4.65395689               39.77685583                4.35317744
              21.73160963                0.81513339               53.34797084                0.25246236                2.27204302                1.66661791               -5.00464929               -1.20559833               13.84547297               -1.01275288
              22.74728845               -0.06502035               52.83404210                0.68973485                1.56788211                2.70804674               -6.74232315                0.07423721                0.68339516               -9.01195312
              13.35442444               10.13002780               54.52055276                0.74533467               -0.11586802               -0.51534367                1.47241631               -0.07105617                0.08181919                4.33044166
              14.35326576                9.28120694               53.95534553                0.20504835                0.13773945                0.27440923               -0.68944536                0.17738151                2.03552140               -3.84138496
              15.35717923                8.43477922               53.42928070                0.00010000                1.63648482                0.98505782               -2.07320510               -4.09537504               32.81999988              -10.96388564
              16.38599545                7.49657667               53.47980572                0.00010000                3.00278152                0.98348387               -2.84553872               -8.53088684               61.42048617               -8.55036345
              17.41723486                6.54604241               53.53110132                0.00010000                3.31535073                0.69315128               -3.71583609               -8.89969767               61.30529623               -6.12139745
              18.45230247                5.58793308               53.58442392                0.00010000                3.69477532                0.39905664               -4.67893871               -8.91217018               61.43614572               -3.64205348
              19.49113036                4.62797440               53.64275907                0.00010000                4.04273146                0.26127944               -5.73313305               -8.54721285               61.94655885               -0.96668959
              20.53315710                3.67193691               53.70969244                0.00010000                4.34760156                0.34031973               -6.90000052               -7.79772226               62.89288899                2.13323369
              21.57808240                2.72528464               53.78878521                0.10158465                3.69539074                0.66720846               -8.24640435               -4.67460944               46.31739812                5.92711303
              22.60706491                1.83241818               53.52331603                0.26006104                2.25958385                1.70873834               -4.98574290               -1.03153781               14.95617115               -0.41769186
              23.62327407                0.96112611               52.96951561                0.69421828                1.62091594                2.52143001               -6.87694640                0.07694141                0.77050364               -8.47975471
              14.19858820               11.12541462               54.39497830                0.73888515                0.01274919               -0.40733564                1.13897471               -0.07146502                0.08372076                4.28444054
              15.19871569               10.28468647               53.78910028                0.19693513                0.30277387                0.42238549               -1.21188955                0.12246842                2.62414084               -3.80774654
              16.20464367                9.44526163               53.23400544                0.00010000                2.17286315                1.07491430               -2.52455013               -4.51417690               38.74782754              -10.57596855
              17.24217295                8.50739985               53.35056065                0.00010000                3.80764930                1.05844251               -3.23256809               -9.09012339               71.97167585               -7.69689642
              18.28079666                7.55387729               53.46630279                0.00010000                3.94881323                0.69761039               -4.07010993               -9.25602637               71.68485447               -5.11551917
              19.32114922                6.59289016               53.58313101                0.00010000                4.08356599                0.48057810               -5.01734539               -8.95395304               71.78923959               -2.67131148
              20.36246798                5.63168542               53.70615542                0.00010000                4.16688438                0.46929262               -6.06634813               -8.48382781               72.51513006               -0.01821758
              21.40448690                4.67640744               53.84149250                0.00010000                4.27030778                0.55964374               -7.22532313               -7.81132065               73.91416899                3.25294399
              22.44787413                3.73281173               53.99430275                0.10735641                3.53252503                0.83601859               -8.53138523               -4.62460937               52.65614531                7.47058158
              23.47513740                2.84930815               53.70208647                0.26774782                2.17686438                1.62076829               -4.79876032               -0.89355019               15.66365070                0.38774150
              24.49141142                1.98540825               53.10803992                0.69880742                1.62740188                2.33188080               -6.83233772                0.06927101                0.83370774               -7.70680184
              15.03445144               12.12188108               54.26887460                0.73243304                0.14166796               -0.29926014                0.80286763               -0.07266206                0.10429460                4.24701071
              16.03586812               11.28965464               53.62288600                0.18866379                0.48654350                0.57299733               -1.73487171               -0.00149258                3.40889988               -3.84938811
              17.04418231               10.45627751               53.04286985                0.00010000                2.98546022                1.03438165               -2.88746886               -5.05430205               45.08523146               -9.82825896
              18.09557732                9.51774552               53.23016687                0.00010000                5.12208536                0.63684749               -3.51630588               -9.27375888               82.73936423               -6.29462331
              19.14662402                8.55999462               53.41065110                0.00010000                4.99189756                0.18994840               -4.29626964               -8.57620806               81.93160266               -3.81084887
              20.19541528                7.59754464               53.58863410                0.00010000                4.56562578                0.37595097               -5.20195568               -7.80309524               81.88191609               -1.70834546
              21.23793653                6.63736025               53.77402651                0.00010000                4.01945533                0.72913974               -6.21701893               -7.39276880               83.00541943                0.58617474
              22.27580438                5.68312979               53.97838458                0.00098067                3.73764793                0.98046365               -7.33229664               -7.22107853               85.27731744                3.67555772
              23.31268949                4.74200501               54.21050325                0.11329912                3.03965030                1.14156915               -8.54315993               -4.66169692               59.05400716                8.49536050
              24.33659739                3.86483355               53.88615251                0.27545431                1.98849059                1.45429558               -4.46045831               -0.89221257               16.12676569                1.39906677
              25.35245930                3.00776372               53.25191748                0.70331310                1.58619155                2.13368383               -6.62936444                0.04900949                0.91049300               -6.78434085
              15.86158783               13.11942942               54.14285822                0.72587542                0.27015796               -0.18907602                0.46661906               -0.07388644               -0.05951442                3.69677971
              16.86428941               12.29614642               53.45532929                0.18057395                0.69394632                0.72275873               -2.26483275               -0.28509358                4.67305709               -3.45217505
              17.87546676               11.46594926               52.86223566                0.00010000                4.43456266                0.59981784               -3.14913475               -5.54659024               52.33031883               -7.14799434
              18.95298067               10.52013680               53.12711281                0.00010000                7.70033085               -1.16798196               -3.68033394               -7.31925956               93.61971480               -3.75103660
              20.02947338                9.55767626               53.36793232                0.00010000                6.73705055               -0.61290600               -4.37777811               -5.75613536               91.53452443               -2.07722932
              21.08772168                8.60040918               53.60035593                0.00010000                4.97770401                0.19028956               -5.21185078               -4.71155851               91.19889245               -0.82156692
              22.12902746                7.64626822               53.84113092                0.00010000                3.38494478                1.05668441               -6.16650535               -4.58803631               92.80530051                0.57031084
              23.15542057                6.69601671               54.10890367                0.00565096                2.19544904                1.84696364               -7.21929629               -5.04487858               96.79333069                2.64831520
              24.17293644                5.75564311               54.42816627                0.11948194                1.80569322                2.12230601               -8.30577726               -3.99473118               66.23456947                6.65258892
              25.19153444                4.87839406               54.07832135                0.28318825                1.67974084                1.25199961               -3.97517305               -1.19176392               16.84733327                2.07274264
              26.20653125                4.02808192               53.40222840                0.70777821                1.49968174                1.94181223               -6.27788990               -0.01527120                0.81760944               -5.07009533
              16.67953972               14.11809956               54.00600982                0.86080274                0.41066911               -0.13298564                0.08167843                0.39621396                1.68246183                3.14512132
              17.68364641               13.30410982               53.29645331                0.58765106                1.48602043                0.79634016               -2.75377214               -0.55558546                8.62064284               -2.98153603
              18.70926012               12.46827386               52.72533460                0.47314799                8.69093649                0.23246025               -3.29621132               -7.10686046               60.92505252               -5.15345551
              19.85746514               11.49438588               53.05604025                0.44638355               12.09844023               -2.57509206               -3.71650451               -5.57842129              102.98353017               -1.92778822
              20.95122893               10.54773650               53.34247442                0.43812994                7.75635049               -0.99397637               -4.29230429               -2.47621707               99.62992539               -0.97969811
              22.01259215                9.60135043               53.61748825                0.44496364                4.96696751                0.09412496               -5.02101918               -1.97508084               99.08829481               -0.26334556
              23.05056828                8.65849394               53.90082141                0.46657736                2.64698867                1.22257194               -5.88742215               -1.90998625              100.87505985                0.53641529
              24.06553192                7.72006906               54.21500967                0.50445442               -0.00753823                2.40523497               -6.87105099               -2.69100557              106.08993846                1.78365316
              25.05041751                6.78445113               54.59865915                0.56176987               -1.26043120                2.88080205               -7.88911350               -3.76166828               74.78031218                4.84008594
              26.04032330                5.88987354               54.26967439                0.64417255                0.11803234                1.14794739               -3.38165104               -2.01367202               21.00100938                2.31204622
              27.05277816                5.04659997               53.57411222                0.85533931                1.24548655                1.85180460               -5.74472424                0.29733394                2.93799157               -3.68847210
               8.45815709                4.35363835               56.32577045                0.94396024               -0.98780478               -1.09624394                3.72148678               -0.25389753               -2.63656489                3.06284202
               9.44827905                3.42254189               55.97332965                0.72365543               -0.95058338               -0.66905264                2.58665659               -0.23744549               -3.67451324               -1.94866486
              10.43914543                2.48758870               55.60081299                0.55759004               -1.05222658               -0.35053396                1.35445388               -0.49922300               -3.61369774               -0.92343311
              11.42723451                1.53804220               55.24999071                0.48249523               -1.17544391               -0.04600593                0.19394320               -0.53113148               -1.47648206               -0.40462170
              12.41563655                0.56592208               54.91966166                0.44611422               -0.91714184                0.29758151               -1.01915887               -0.43911716                0.44670226               -0.27539911
              13.40889168               -0.42920545               54.60586501                0.44475275               -0.20729244                0.63872252               -2.27182444               -0.26817398                1.53387721               -0.04421140
              14.41149070               -1.43878707               54.29558480                0.47754976                0.72565286                0.97011257               -3.51639501               -0.20479293                1.14839362                0.17992396
              15.42340474               -2.45032427               53.97291315                0.54583117                1.49262825                1.28397833               -4.70358920               -0.23968049               -0.34863898                0.35760026
              16.44134327               -3.45542104               53.63191350                0.65289668                1.95562055                1.58980330               -5.85455115               -0.25246897               -2.17843556                0.43561572
              17.46251715               -4.45179016               53.27157537                0.80448368                2.22661844                1.88934482               -7.01934833               -0.22281859               -2.79293924                1.04635534
              18.48587563               -5.44156930               52.91655388                0.96356164                2.33584877                2.27528509               -8.18409412               -0.41385429               -2.41096605               -2.07060631
               9.38671458                5.34267591               56.18022414                0.82618838               -0.77851623               -1.07666195                3.27047099               -0.10409428                1.23142555                3.97461767
              10.37892942                4.41585136               55.82212579                0.34020055               -0.51557697               -0.55465394                2.12754362               -0.18986918                3.22145614               -3.39432857
              11.37640304                3.48408336               55.50439625                0.04332611                0.19135460                0.04990575                1.24171344               -1.01274714                6.04616303               -6.69248899
              12.38275651                2.53758214               55.20298116                0.00010000                0.92330821               -0.58009143                0.25676260               -1.97605532                7.61722249               -5.60725679
              13.39486920                1.56889790               54.91720250                0.00010000                1.29040042               -0.71489388               -0.73085913               -2.85555542                9.18110913               -4.38387942
              14.40856452                0.57718178               54.64780022                0.00010000                1.25664895               -0.43209927               -1.76445964               -3.35143521               10.12242575               -3.50349539
              15.42000218               -0.42908595               54.38119664                0.00010000                1.03801992                0.05939523               -2.79619495               -3.14424917                9.66051778               -2.48930625
              16.42932492               -1.43748449               54.10189316                0.03285599                0.97746683                0.51373465               -3.77898926               -2.21764282                8.15469140               -0.58391016
              17.43955152               -2.43952301               53.80370206                0.19117015                1.20190853                1.00087600               -4.74552185               -0.96380313                6.60018291                4.65186368
              18.45336309               -3.43289671               53.49167983                0.41995119                1.59823540                1.56255356               -5.72503863               -0.36265411                4.37091063                3.19302312
              19.47151623               -4.41881644               53.14744267                0.80284717                1.81531413                2.24058714               -6.77999762               -0.43069659                2.83183268               -3.24079587
              10.30972430                6.33210511               56.05371581                0.76067374               -0.66500892               -1.00059798                2.94178035               -0.09660472                0.32514226                4.72087773
              11.30307421                5.41144881               55.64245796                0.22835040               -0.62823002               -0.33927321                1.48030839               -0.07976726                3.38370079               -4.65536208
              12.29715970                4.48858681               55.29285463                0.00010000               -0.00876712                0.67112677                0.49071534               -2.16096569               11.85725781              -14.61283393
              13.30289887                3.52644037               55.05184508                0.00010000                1.08830535               -0.71370302               -0.48283457               -4.63487882               18.27890049              -11.11383064
              14.31892581                2.55162420               54.83225652                0.00010000                1.84739750               -1.32176377               -1.48532604               -5.72850739               19.65636317               -8.75544636
              15.33984682                1.56215257               54.61995784                0.00010000                2.21730869               -1.26925120               -2.49894532               -6.43539099               20.24343281               -6.95479854
              16.36327198                0.56240083               54.41253959                0.00010000                2.48210605               -0.84326096               -3.48746324               -6.18689608               20.80204848               -4.96491985
              17.38948894               -0.44004958               54.21086164                0.00010000                2.71037214               -0.38076023               -4.35564066               -4.80935282               23.59346867               -1.79233769
              18.41747942               -1.43540352               54.05833672                0.07440109                2.25342779                0.02692824               -4.00818994               -2.70843571               18.39606619                2.20544005
              19.43455750               -2.42053909               53.75293755                0.22383843                1.58108720                1.06554425               -4.27814230               -0.97179314                6.09146008                2.03024765
              20.44910117               -3.39675755               53.35289732                0.67301066                1.45436718                2.82834206               -5.62770169               -0.74509700                1.37950360               -7.43535156
              11.22609508                7.32266395               55.92388228                0.75259736               -0.52427166               -0.88113063                2.57630449               -0.07681014                0.07202213                4.50891962
              12.22085237                6.40906590               55.46625430                0.21710433               -0.39514618               -0.16435779                0.91578868                0.16367235                1.48028291               -4.35835918
              13.21819216                5.49750589               55.03715685                0.00010000                0.30845870                0.82301708               -0.36063752               -2.57507992               17.21398292              -14.87023962
              14.22702154                4.52330808               54.89460223                0.00010000                1.31973526               -0.00021232               -1.21784974               -5.61473149               30.89430450              -11.31994338
              15.24458686                3.54246262               54.74200930                0.00010000                2.10292657               -0.55529581               -2.20278958               -6.22671172               30.47050126               -8.89727967
              16.26908007                2.55179675               54.59313045                0.00010000                2.69397705               -0.73732541               -3.23121271               -6.77319285               30.86065461               -6.73935734
              17.29846641                1.55404883               54.44943813                0.00010000                3.09310706               -0.62263904               -4.25263647               -6.74461918               31.61229570               -4.53447394
              18.33094221                0.55490031               54.31560778                0.00010000                3.37029540               -0.33322620               -5.14751113               -6.01567138               32.07341666               -2.28912319
              19.36587231               -0.43898445               54.18028575                0.07711307                3.21695190               -0.06147807               -6.20642384               -4.03009872               27.18562961               -2.15682527
              20.39528125               -1.41158583               53.94863347                0.22353005                2.15894512                1.28047128               -4.92351551               -1.18030030               11.41693832               -1.98802918
              21.40905122               -2.36224960               53.49800905                0.67119614                1.37699650                3.43682112               -6.40384262               -0.00737482                0.48411147              -10.68838505
              12.13538420                8.31448250               55.79379121                0.74634402               -0.38784871               -0.76042995                2.22556721               -0.07507508                0.08098375                4.50804750
              13.13150571                7.40816165               55.29267080                0.20893083               -0.19841422               -0.01475061                0.35969768                0.22086267                1.47216792               -4.17781088
              14.13141592                6.50504715               54.81963951                0.00010000                0.70708994                0.78635856               -0.97947333               -3.16588993               22.44080031              -12.44324823
              15.14564751                5.52643613               54.73819914                0.00010000                1.72434944                0.49893990               -1.87254231               -6.75656357               41.65135292              -10.73638002
              16.16590290                4.54051829               54.65324905                0.00010000                2.35746203                0.09038200               -2.86614173               -7.16238481               41.32429116               -8.47377361
              17.19279675                3.54740606               54.56858272                0.00010000                2.96865696               -0.15565450               -3.93439773               -7.49153720               41.43492279               -6.26762665
              18.22527604                2.54994805               54.48808866                0.00010000                3.47060193               -0.16477138               -5.04196941               -7.39422554               41.82766595               -4.05957350
              19.26220879                1.55328590               54.41233812                0.00010000                3.90437694                0.05212201               -6.21506928               -6.65825675               42.24839353               -1.94241065
              20.30336358                0.56336691               54.34055313                0.08245774                3.60039279                0.48044384               -7.52640932               -4.28955203               35.05743787                0.81873115
              21.33421665               -0.39492966               54.12179977                0.23061687                2.34588219                1.85613652               -5.54070286               -1.33847515               14.19219260               -2.66747558
              22.35028123               -1.32802113               53.63116325                0.67544689                1.60645792                3.32340566               -7.19187482                0.11813344                0.74404064              -10.92191686
              13.03723527                9.30745535               55.66451091                0.74011682               -0.25303057               -0.64656334                1.88074971               -0.07416647                0.08220245                4.54205679
              14.03470496                8.40877088               55.12010332                0.20085772               -0.03176906                0.13681440               -0.18929227                0.21742048                1.89185500               -4.08694254
              15.03659989                7.51323307               54.61205647                0.00010000                1.08570872                0.88185837               -1.52311122               -3.64960221               28.05211318              -11.71071660
              16.05641914                6.53328688               54.59114450                0.00010000                2.18846769                0.83595072               -2.42651219               -7.73856746               52.12076020               -9.83112619
              17.08036924                5.54427026               54.56950395                0.00010000                2.67002159                0.57738551               -3.44606102               -8.10714570               51.90012168               -7.72060852
              18.10981957                4.54868366               54.54868849                0.00010000                3.21664081                0.34299544               -4.56508457               -8.25874274               51.93306513               -5.49083611
              19.14470206                3.55075340               54.53120046                0.00010000                3.72693228                0.28462272               -5.77539441               -7.98863472               52.25411164               -3.16688326
              20.18435821                2.55594275               54.51911574                0.00010000                4.17973884                0.45491840               -7.10091699               -7.14907541               52.78601002               -0.55956317
              21.22829683                1.57062443               54.51349362                0.08783978                3.77707898                0.88548892               -8.62242730               -4.45365201               42.39909767                2.62916974
              22.25989979                0.62553690               54.29411570                0.23790753                2.46499940                2.10099311               -5.87120888               -1.21077855               16.27328832               -2.08491245
              23.27759682               -0.29578149               53.76232495                0.67972363                1.76970280                3.12435876               -7.70162476                0.11283130                0.88326157              -10.42366829
              13.93126980               10.30155123               55.53559408                0.73394514               -0.11933927               -0.53497795                1.53768253               -0.07364078                0.08545384                4.53670562
              14.93007641                9.41089794               54.94823311                0.19285648                0.13190377                0.28931062               -0.73390110                0.18186607                2.47715654               -4.02547230
              15.93390788                8.52268432               54.40877714                0.00010000                1.48812798                1.00701175               -2.00174609               -4.06147969               33.94505253              -11.28825602
              16.95983897                7.54315514               54.45105690                0.00010000                2.72276675                1.08737619               -2.88550072               -8.49439411               62.69524191               -9.02430532
              17.98836321                6.55206600               54.49291073                0.00010000                3.06498947                0.88033110               -3.91900746               -8.83537331               62.43492227               -6.76965286
              19.02113876                5.55426597               54.53567961                0.00010000                3.49405275                0.67716982               -5.07979282               -8.80361149               62.44465246               -4.47381800
              20.05824427                4.55564050               54.58238052                0.00010000                3.91087506                0.62952309               -6.36169535               -8.35787585               62.83640866               -1.98657158
              21.09935626                3.56238427               54.63634182                0.00010000                4.32260598                0.77822721               -7.79088371               -7.42120716               63.61380703                0.92736947
              22.14469638                2.58107669               54.70031757                0.09332402                3.85253697                1.12899530               -9.44974977               -4.43086917               49.38856694                4.55989138
              23.17640700                1.64709020               54.46918691                0.24520832                2.52391283                2.12400212               -5.95265092               -1.03675393               17.80330733               -1.21095378
              24.19517464                0.73446605               53.89592871                0.68406485                1.87676450                2.92258881               -7.94938617                0.10534640                0.98704307               -9.58450612
              14.81706903               11.29675579               55.40663576                0.72773942                0.01401624               -0.42428243                1.19416124               -0.07411201                0.08767429                4.48804792
              15.81720919               10.41455710               54.77666257                0.18512751                0.30220316                0.44347098               -1.27709411                0.11016559                3.21285809               -3.99111876
              16.82311309                9.53337330               54.20916813                0.00010000                1.99701938                1.09085179               -2.39656340               -4.46910090               40.14248242              -10.82268350
              17.85714958                8.55503441               54.31808390                0.00010000                3.47189300                1.15676464               -3.23864871               -8.99989013               73.46325746               -8.06790521
              18.89255095                7.56187688               54.42458419                0.00010000                3.65116279                0.89839220               -4.26572190               -9.12468414               72.99238536               -5.63193525
              19.93017283                6.56222706               54.53086006                0.00010000                3.84376451                0.79144323               -5.44405968               -8.76836019               72.94884597               -3.33602792
              20.96942624                5.56334387               54.64208542                0.00010000                4.01625239                0.88590700               -6.76607324               -8.21146775               73.53513429               -0.82685677
              22.01049788                4.57150729               54.76418267                0.00010000                4.27736370                1.04765940               -8.25557744               -7.38084213               74.76413531                2.31897396
              23.05497351                3.59320434               54.90185087                0.09889244                3.76387404                1.29407125               -9.97958069               -4.36820840               56.14094373                6.46863866
              24.08577536                2.66801695               54.64958734                0.25248897                2.49892719                2.00951602               -5.81609287               -0.91111715               18.86903123               -0.15168538
              25.10495206                1.76267029               54.03461981                0.68843203                1.91766966                2.71333661               -7.96459414                0.08923865                1.06104781               -8.53417306
              15.69418495               12.29306558               55.27712191                0.72166979                0.14772634               -0.31378007                0.84777820               -0.07576532                0.10849297                4.44789198
              16.69566221               11.41976736               54.60511486                0.17714655                0.49318017                0.60052307               -1.82086746               -0.04061438                4.19506725               -4.03575488
              17.70404855               10.54450136               54.01471755                0.00010000                2.78376857                1.02064059               -2.68820890               -5.00561727               46.80477273               -9.97711889
              18.75133758                9.56629044               54.19505806                0.00010000                4.73141627                0.71940147               -3.47292521               -9.10759909               84.46430682               -6.55557974
              19.79867687                8.57003384               54.36676354                0.00010000                4.64834950                0.40694560               -4.46839155               -8.39184375               83.43903986               -4.17985741
              20.84430457                7.57009483               54.53447747                0.00010000                4.30289019                0.69455325               -5.63325379               -7.56688379               83.21131096               -2.18256545
              21.88473468                6.57335864               54.70822149                0.00010000                3.87871870                1.15068747               -6.96039815               -7.06012154               84.17534746                0.01161793
              22.92187894                5.58333745               54.89947384                0.00010000                3.80439413                1.50242731               -8.47253491               -6.75213173               86.28322632                3.02929253
              23.96082256                4.60695812               55.11682797                0.10455009                3.34198798                1.60797491              -10.21827408               -4.42340297               62.91775744                7.85013832
              24.98871870                3.68728052               54.83698697                0.25991037                2.34150877                1.81071629               -5.48763649               -0.94076203               19.63233182                1.09472965
              26.00765274                2.78873278               54.18045743                0.69272162                1.89340324                2.49287696               -7.77738275                0.06282181                1.14264384               -7.36029746
              16.56215016               13.29048019               55.14768942                0.71535843                0.28109643               -0.20097279                0.50092853               -0.07716981               -0.06382464                3.87121423
              17.56496112               12.42656756               54.43215331                0.16940526                0.71637550                0.75683167               -2.37217715               -0.38089123                5.70886833               -3.61991385
              18.57647767               11.55378611               53.83185139                0.00010000                4.22519933                0.47334809               -2.85747938               -5.38715804               54.44658037               -7.20826415
              19.64946511               10.56942243               54.09060691                0.00010000                7.22160050               -1.01489413               -3.58117584               -7.12211971               95.60587285               -3.89843221
              20.72090968                9.57001580               54.32339495                0.00010000                6.30226229               -0.37611007               -4.51257627               -5.58892891               93.26738730               -2.27474290
              21.77551036                8.57611812               54.54619237                0.00010000                4.70357538                0.49883820               -5.62126659               -4.53342980               92.72060279               -1.07604890
              22.81498119                7.58635762               54.77580323                0.00010000                3.31727078                1.43812538               -6.91300935               -4.30439389               94.13679434                0.26140828
              23.84185577                6.60155584               55.03086936                0.00102025                2.37906002                2.30449017               -8.41201791               -4.65033130               97.95818748                2.30152611
              24.86256239                5.62536383               55.33604603                0.11041970                2.16648445                2.63952238              -10.16402338               -3.75604017               70.43330638                6.34520763
              25.88518546                4.70423127               55.03409626                0.26725608                2.03707961                1.57526458               -4.98261798               -1.30642875               20.58877618                1.97264209
              26.90330398                3.81252783               54.33437484                0.69701940                1.81185189                2.28227950               -7.40825905               -0.01123872                1.04820119               -5.39720535
              17.42046681               14.28904612               55.00692147                0.85570381                0.42716516               -0.14340643                0.10176917                0.41745198                1.75960452                3.29356168
              18.42473846               13.43490399               54.26829073                0.58221819                1.64918513                0.83364354               -2.88082573               -0.77615648                9.98262680               -3.12698337
              19.45345051               12.55396832               53.69378916                0.47195701                8.39635207                0.01822077               -2.93626110               -6.74828777               63.52023119               -5.21075486
              20.59266550               11.54599255               54.01938178                0.44619251               11.33760479               -2.34298819               -3.57115515               -5.25279470              105.25018472               -2.00114586
              21.68020261               10.56251164               54.29902829                0.43820084                7.23143263               -0.75041547               -4.37772704               -2.36675507              101.62445352               -1.07579800
              22.73729415                9.58007159               54.56549488                0.44472348                4.65032397                0.39534714               -5.37550397               -1.84114459              100.83584929               -0.38589374
              23.77320909                8.60212115               54.83855663                0.46564305                2.62859720                1.57635356               -6.57699147               -1.70942691              102.38515304                0.38623009
              24.78986610                7.62942726               55.14065794                0.50213219                0.49086174                2.78714196               -8.01866500               -2.31759653              107.37850316                1.61541510
              25.78302632                6.65974857               55.51067327                0.55719105               -0.72199805                3.43847306               -9.76680211               -3.48567878               79.14348998                4.68146706
              26.77542614                5.71878581               55.23154115                0.63607949                0.39042675                1.45545392               -4.35323888               -2.24444214               24.93955208                2.33355014
              27.79083486                4.83437837               54.51175434                0.84988704                1.54087189                2.18505422               -6.84004345                0.31234330                3.23615821               -3.85497529
               8.78937087                4.53265184               57.36368167                0.93560459               -1.02234924               -1.13689231                3.86139485               -0.26610866               -2.74677583                3.18195472
               9.77914737                3.55602784               56.99963532                0.71310132               -0.97802643               -0.69163822                2.67502412               -0.24757494               -3.83522883               -2.05645669
              10.76981034                2.57546968               56.61451199                0.55310122               -1.04864803               -0.36343912                1.38537626               -0.48685100               -3.78883082               -0.89583619
              11.75817441                1.58063149               56.25180997                0.48096682               -1.12598577               -0.04232971                0.16990970               -0.51018773               -1.64362803               -0.41704823
              12.74729062                0.56416823               55.90907200                0.44588617               -0.83851152                0.31325814               -1.09961185               -0.42000818                0.23160194               -0.28013469
              13.74140418               -0.47413190               55.58246653                0.44454874               -0.13366726                0.66826093               -2.40885167               -0.25953880                1.30384153               -0.04767679
              14.74461728               -1.52620788               55.25946033                0.47610982                0.77752755                1.01475671               -3.71008351               -0.19679724                0.95632783                0.17758188
              15.75695473               -2.58033367               54.92463230                0.54184507                1.54189321                1.34362839               -4.95447125               -0.22703643               -0.48591587                0.36015621
              16.77545514               -3.62840253               54.57185858                0.64470535                2.02764286                1.66440026               -6.16260998               -0.24320617               -2.30014569                0.43371045
              17.79750759               -4.66789530               54.19956921                0.79033843                2.32953160                1.97947129               -7.38583920               -0.22207891               -2.91887762                1.04719886
              18.82204577               -5.70053887               53.83262948                0.95401006                2.45381824                2.37837579               -8.60247972               -0.44550383               -2.53260048               -2.14749984
               9.76333378                5.52128292               57.21353628                0.81147065               -0.80710820               -1.11709603                3.39286123               -0.11069570                1.33314459                4.15633269
              10.75526270                4.54911145               56.84375785                0.32242463               -0.53468920               -0.57138902                2.19936819               -0.19943536                3.45415988               -3.59939041
              11.75264000                3.57183529               56.51697622                0.03715068                0.17302798                0.06638673                1.27495432               -1.02139037                6.36003792               -6.99009630
              12.75872326                2.58020819               56.20551090                0.00010000                0.89161174               -0.57453514                0.24989878               -1.97619358                7.88128260               -6.03384005
              13.77047223                1.56730081               55.90965915                0.00010000                1.26367933               -0.69721082               -0.77712150               -2.81753079                9.42293152               -4.93132112
              14.78399685                0.53255071               55.62974046                0.00010000                1.26389773               -0.42116955               -1.84762461               -3.27392211               10.34273450               -4.16163202
              15.79575019               -0.51606031               55.35264722                0.00010000                1.08924232                0.06659953               -2.91393427               -3.05485704                9.90282846               -3.24392204
              16.80578169               -1.56689739               55.06334315                0.02693065                1.05268504                0.55077231               -3.93178297               -2.15180780                8.42555984               -1.38607047
              17.81680389               -2.61175853               54.75532801                0.17923869                1.27866379                1.06526610               -4.93244449               -0.95876522                6.86990201                4.40343534
              18.83135497               -3.64810058               54.43332046                0.39836442                1.67152084                1.63763887               -5.94795373               -0.36186295                4.59372310                3.26833126
              19.85023431               -4.67675511               54.07830957                0.78812639                1.88793368                2.34127405               -7.04604363               -0.46879227                3.01585998               -3.45249251
              10.73149988                6.51030992               57.08369531                0.74822250               -0.68935893               -1.03777735                3.05509486               -0.09986010                0.31666097                4.94480030
              11.72460629                5.54460005               56.65747764                0.21462320               -0.66070446               -0.34814143                1.52401637               -0.07231018                3.62027585               -4.91409856
              12.71828579                4.57679742               56.29782152                0.00010000               -0.07106347                0.71747073                0.50725969               -2.18436534               12.33896117              -15.27393304
              13.72318502                3.56914079               56.04680329                0.00010000                1.01558496               -0.68118870               -0.52219344               -4.67909481               18.73442278              -11.94043137
              14.73859749                2.55022401               55.81690517                0.00010000                1.80509207               -1.28496928               -1.58676473               -5.70068513               20.08170933               -9.82180185
              15.75928686                1.51744471               55.59413538                0.00010000                2.21853710               -1.24344496               -2.67229165               -6.35099194               20.66951296               -8.25501671
              16.78296823                0.47512411               55.37650500                0.00010000                2.51649654               -0.81934104               -3.73137465               -6.05219655               21.30221929               -6.49037256
              17.80961679               -0.56931823               55.16592503                0.00010000                2.72573990               -0.30687160               -4.65068195               -4.67893149               24.76105133               -3.49341027
              18.83748303               -1.60709721               55.01668801                0.06681249                2.28250606                0.23751152               -4.36808333               -2.65877040               19.92866706                0.25865216
              19.85526691               -2.63514252               54.70968275                0.20976589                1.62479765                1.31470730               -4.37751253               -0.96320716                6.77597621                1.00994043
              20.86997898               -3.65371339               54.29582378                0.66324062                1.47120683                3.07837380               -5.79354843               -0.73755798                1.44929786               -8.86360265
              11.69275631                7.50052737               56.95014397                0.74041283               -0.54273122               -0.91332042                2.67742474               -0.07997304                0.07467744                4.71861777
              12.68732900                6.54214862               56.47551716                0.20380896               -0.41721751               -0.16815529                0.93721437                0.18476945                1.69688942               -4.56964569
              13.68441196                5.58618471               56.03370907                0.00010000                0.21928847                0.85500532               -0.31676137               -2.57503516               17.82029816              -15.45172566
              14.69171477                4.56658442               55.88216146                0.00010000                1.18713245                0.06677925               -1.26494990               -5.66243435               31.60211339              -12.09512702
              15.70815461                3.54160143               55.71926332                0.00010000                2.01810708               -0.47649648               -2.34859359               -6.22351168               31.07562928               -9.90295425
              16.73207691                2.50768181               55.55959803                0.00010000                2.66572907               -0.64055026               -3.48604026               -6.72748150               31.43929348               -8.00299055
              17.76146919                1.46755287               55.40518959                0.00010000                3.11737372               -0.49474450               -4.61646437               -6.64530075               32.26342253               -6.08129420
              18.79442439                0.42696518               55.26198546                0.00010000                3.39917908               -0.13586671               -5.60413444               -5.82665770               32.74055991               -4.20671973
              19.82945277               -0.60700830               55.11603759                0.06939618                3.21413107                0.34766106               -6.66204048               -3.89368296               28.97199782               -5.13643969
              20.85870701               -1.62180644               54.89696342                0.20964142                2.15860561                1.76982953               -5.48362248               -1.17617731               12.96530478               -4.04256589
              21.87262489               -2.61518763               54.43126606                0.66175235                1.39178793                3.89621603               -7.00944555                0.04471662                0.65447744              -13.10852822
              12.64665791                8.49204351               56.81648342                0.73437162               -0.40135680               -0.78838077                2.31582212               -0.07713113                0.08508965                4.72638803
              13.64264434                7.54123695               56.29625792                0.19611622               -0.21543083               -0.01257487                0.35796958                0.23680167                1.77177453               -4.38090102
              14.64234929                6.59389752               55.81004105                0.00010000                0.59376361                0.80119015               -0.91952609               -3.16252708               23.21445451              -12.87530200
              15.65451961                5.57047637               55.71919715                0.00010000                1.53402858                0.58327347               -1.91687591               -6.79483085               42.52629595              -11.41248954
              16.67302987                4.54069408               55.62370976                0.00010000                2.21330878                0.21694951               -3.04287511               -7.16959103               42.08257008               -9.39385254
              17.69878579                3.50463370               55.52767671                0.00010000                2.88744902                0.01568048               -4.25950352               -7.46261819               42.12604628               -7.45630904
              18.73077885                2.46522922               55.43539270                0.00010000                3.44295069                0.06387230               -5.52031963               -7.30337022               42.47645617               -5.55984832
              19.76764480                1.42796444               55.34725711                0.00010000                3.88010702                0.37204489               -6.82843707               -6.43094836               42.82702953               -3.87561541
              20.80838099                0.39985601               55.26188821                0.07451622                3.61389509                0.96474053               -8.22661845               -4.11667773               37.23602925               -1.59753747
              21.83992271               -0.59974593               55.06247019                0.21652802                2.46273622                2.39272152               -6.43600292               -1.30540105               16.19365333               -4.40789019
              22.85763571               -1.57578907               54.55494998                0.66581756                1.77130046                3.84642257               -8.14854424                0.19120125                0.97709071              -13.05245120
              13.59282681                9.48475975               56.68370386                0.72855367               -0.26157942               -0.67032284                1.95991490               -0.07638457                0.08594213                4.76277013
              14.59021102                8.54189713               56.11809163                0.18843477               -0.04524079                0.14506456               -0.21326476                0.22151223                2.31066481               -4.28367802
              15.59192200                7.60220851               55.59714726                0.00010000                0.94052861                0.90024585               -1.42848244               -3.63700249               29.03685451              -12.07176152
              16.60902159                6.57824989               55.56664435                0.00010000                1.93417304                0.93373909               -2.45710589               -7.75105003               53.16191781              -10.39925101
              17.63060546                5.54594042               55.53406783                0.00010000                2.46339085                0.74375171               -3.63979415               -8.09868705               52.79519079               -8.52965852
              18.65828941                4.50799542               55.50119252                0.00010000                3.07327957                0.58257221               -4.94687274               -8.20850816               52.71874452               -6.56108890
              19.69207105                3.46883031               55.47065584                0.00010000                3.64446091                0.60643876               -6.35747671               -7.85859315               52.94362102               -4.53220717
              20.73117863                2.43440608               55.44434410                0.00010000                4.13792677                0.87264664               -7.88021784               -6.83462084               53.33906955               -2.26210273
              21.77482959                1.41228651               55.42254494                0.07969141                3.85327193                1.41346006               -9.58405244               -4.18652123               45.03977955                0.52485518
              22.80824407                0.42604799               55.23054666                0.22343912                2.68528017                2.62366981               -6.97773899               -1.14742422               18.77933325               -3.41483226
              23.82853519               -0.53825918               54.68000961                0.66991656                2.02911236                3.64650971               -8.88273593                0.16406382                1.14711741              -12.12212087
              14.53085547               10.47863705               56.55130641                0.72273403               -0.12296430               -0.55559983                1.60603955               -0.07681901                0.08906949                4.75622700
              15.52962583                9.54413824               55.94066751                0.18085145                0.12005047                0.30426050               -0.77974866                0.17474249                3.04622627               -4.21865709
              16.53325648                8.61190244               55.38924578                0.00010000                1.30704381                1.03295189               -1.85843997               -4.04185479               35.18520579              -11.56275083
              17.55576671                7.58915115               55.42209571                0.00010000                2.40270548                1.18953481               -2.88467540               -8.46664357               63.92049956               -9.48511774
              18.58131059                6.55556912               55.45272117                0.00010000                2.79795109                1.07226795               -4.11399472               -8.78016295               63.47247414               -7.44855984
              19.61172573                5.51628515               55.48282807                0.00010000                3.29428651                0.96881618               -5.50164339               -8.69378166               63.33867516               -5.38791709
              20.64719632                4.47735800               55.51552517                0.00010000                3.78852292                1.02385005               -7.03245196               -8.15453847               63.59573514               -3.15188125
              21.68749619                3.44541737               55.55387477                0.00010000                4.29061607                1.26244098               -8.72577213               -7.02036232               64.18969989               -0.50977860
              22.73300865                2.42812522               55.59979022                0.08497558                4.00118653                1.66937933              -10.66522149               -4.11155728               52.52278651                2.81789865
              23.76751992                1.45272747               55.40426302                0.23048957                2.82613478                2.62131990               -7.18029780               -0.97395322               20.81309167               -2.18338555
              24.78953134                0.49714113               54.81052789                0.67403722                2.20114221                3.42276252               -9.26412696                0.14297833                1.26936139              -10.89203076
              15.46028806               11.47364776               56.41886153                0.71673905                0.01524200               -0.44258918                1.25228241               -0.07754646                0.09136298                4.70433388
              16.46044048               10.54798234               55.76355840                0.17322837                0.28919637                0.46552866               -1.34472669                0.08838894                3.98351307               -4.18309499
              17.46607199                9.62286755               55.18607418                0.00010000                1.77907804                1.10747142               -2.16836041               -4.44318346               41.69180720              -10.99656587
              18.49602204                8.60204058               55.28578768                0.00010000                3.08981084                1.24798817               -3.19036939               -8.92155019               74.88563840               -8.41342126
              19.52786821                7.56738578               55.38098836                0.00010000                3.33014268                1.10087942               -4.44418716               -8.99970147               74.19079898               -6.16606690
              20.56262490                6.52737174               55.47424982                0.00010000                3.59899244                1.11379373               -5.88621563               -8.58103227               73.97118391               -4.06655444
              21.59984806                5.48930732               55.57083395                0.00010000                3.86896336                1.32583991               -7.50405330               -7.92330282               74.39057636               -1.76009692
              22.64000416                4.45965490               55.67638095                0.00010000                4.27201442                1.58057907               -9.32497891               -6.91334855               75.40109091                1.17527525
              23.68528834                3.44567410               55.79471114                0.09030007                3.98724622                1.83437011              -11.44779901               -4.03288161               59.76568360                5.11135731
              24.71974909                2.47847439               55.58576461                0.23745518                2.86395473                2.47458722               -7.09830312               -0.86916934               22.34942509               -0.80892330
              25.74256744                1.53019607               54.94874803                0.67821791                2.28183497                3.18308086               -9.34644838                0.11416345                1.35440436               -9.49569928
              16.38063539               12.46978527               56.28583016                0.71092535                0.15384330               -0.32968057                0.89514314               -0.07887097                0.11318585                4.66124845
              17.38217382               11.55344881               55.58646865                0.16565305                0.48495904                0.62949666               -1.90998556               -0.09345393                5.21932557               -4.23090066
              18.39033457               10.63405187               54.98910567                0.00010000                2.53218280                0.99224124               -2.36644295               -4.97325627               48.73226375              -10.04160174
              19.43281748                9.61411092               55.16070837                0.00010000                4.28254188                0.79019287               -3.35787003               -8.94663198               86.10582853               -6.78318267
              20.47598541                8.57758671               55.32128327                0.00010000                4.26830339                0.62654345               -4.61392478               -8.20912212               84.82305260               -4.55724562
              21.51818354                7.53856102               55.47596902                0.00010000                4.02308531                1.02495268               -6.07283227               -7.33056830               84.38688677               -2.70457713
              22.55644711                6.50387480               55.63481854                0.00010000                3.73394438                1.59269628               -7.73577744               -6.71468812               85.14581927               -0.66037481
              23.59286243                5.47702895               55.80893388                0.00010000                3.85422029                2.06041195               -9.64982572               -6.23624068               87.00256761                2.20707613
              24.63353152                4.46481262               56.00613777                0.09581998                3.63760665                2.15139274              -11.91687486               -4.08612133               66.98425329                6.88154571
              25.66561456                3.50221921               55.77639978                0.24463035                2.74198702                2.24091636               -6.77418975               -0.93889060               23.52767281                0.72173692
              26.68837126                2.56080275               55.09636982                0.68233926                2.27566936                2.93224175               -9.17157356                0.07688762                1.43887013               -8.01532254
              17.29138356               13.46705415               56.15287679                0.70496317                0.29212466               -0.21392868                0.53807596               -0.08029366               -0.06806187                4.05598497
              18.29430480               12.56057227               55.40788575                0.15830195                0.72806017                0.79232406               -2.48367615               -0.50421724                7.05274964               -3.79571171
              19.30594476               11.64271237               54.80508607                0.00010000                3.96248807                0.30656790               -2.40974521               -5.22443452               56.82257566               -7.19057832
              20.37355457               10.61784444               55.05548929                0.00010000                6.66454490               -0.86488422               -3.39712084               -6.91917541               97.48889983               -4.02155376
              21.43923566                9.57991664               55.27768079                0.00010000                5.80854380               -0.13164348               -4.61259270               -5.41770777               94.87465980               -2.47585262
              22.48972544                8.54787080               55.48793060                0.00010000                4.39253504                0.82332617               -6.03193988               -4.35790765               94.08522034               -1.35631158
              23.52708636                7.52116124               55.70287073                0.00010000                3.23080438                1.84184752               -7.68400836               -4.01732448               95.24588023               -0.10478200
              24.55434153                6.50086314               55.94066331                0.00010000                2.56446486                2.78856221               -9.64106875               -4.21681875               98.74743931                1.84550441
              25.57837566                5.48870196               56.22488580                0.10152667                2.53198095                3.20066812              -12.05244655               -3.43489172               74.87424525                5.81125718
              26.60498115                4.52329272               55.97866899                0.25167278                2.42812350                1.97177746               -6.23853040               -1.37211740               24.83277083                1.84292020
              27.62693813                3.58884090               55.25406322                0.68642870                2.19569789                2.69693567               -8.77878053               -0.00999712                1.34022353               -5.76121687
              18.19199327               14.46550670               56.00804520                0.85048629                0.44379824               -0.15474495                0.12456752                0.43983064                1.84121983                3.45006970
              19.19643125               13.56929529               55.23883680                0.57675683                1.82902200                0.87230244               -3.01247767               -1.05352898               11.70713922               -3.27920197
              20.22857371               12.64018323               54.66660938                0.47080708                8.03992234               -0.25291448               -2.40245299               -6.36120856               66.41879634               -5.20719831
              21.35722970               11.59681323               54.98461715                0.44596717               10.45155945               -2.10312091               -3.33624560               -4.89395648              107.41992370               -2.06566661
              22.43760490               10.57495384               55.25491987                0.43821614                6.62755493               -0.49628067               -4.42433142               -2.25236070              103.51414722               -1.17672764
              23.48978080                9.55502754               55.50997817                0.44445046                4.27516928                0.71567491               -5.72725208               -1.70656929              102.44891110               -0.52524167
              24.52310828                8.54071175               55.76928158                0.46460216                2.56022737                1.95505057               -7.28546013               -1.50917516              103.68710275                0.19925284
              25.54098534                7.53280020               56.05463637                0.49968549                0.96479092                3.19370619               -9.19649100               -1.92990709              108.25386408                1.37619100
              26.54240410                6.52882598               56.40332311                0.55271105               -0.14760364                4.01240242              -11.67413762               -3.15442749               83.72557455                4.35938207
              27.53803327                5.54165476               56.18260961                0.62817301                0.73354244                1.83620433               -5.56008988               -2.39901397               29.42102493                2.35004022
              28.55707495                4.61474146               55.43731135                0.84451328                1.90416794                2.59005558               -8.16307461                0.32235173                3.59595486               -4.03704166
               9.13131428                4.71756824               58.40299835                0.92736250               -1.05701215               -1.17793090                4.00251814               -0.27804889               -2.86358275                3.30722768
              10.12074416                3.69316770               58.02683013                0.70230737               -1.00600589               -0.71464703                2.76500377               -0.25838479               -4.00605772               -2.16965995
              11.11119416                2.66474351               57.62852052                0.54872884               -1.04711101               -0.37716123                1.41768161               -0.47775805               -3.97715449               -0.86804324
              12.09980194                1.62229938               57.25338890                0.47944545               -1.07910661               -0.03873544                0.14575501               -0.49019174               -1.82337580               -0.42908219
              13.08961203                0.55914510               56.89766942                0.44565847               -0.76108797                0.32932107               -1.18095423               -0.40168633                0.00155554               -0.28422152
              14.08458018               -0.52470684               56.55768798                0.44427704               -0.05802691                0.69871320               -2.54785971               -0.25261927                1.05710583               -0.05165714
              15.08845149               -1.62160921               56.22138313                0.47465495                0.83539949                1.06001458               -3.90687043               -0.19134339                0.74586586                0.17534797
              16.10128817               -2.72054285               55.87382372                0.53782674                1.59759709                1.40442156               -5.21040924               -0.21710893               -0.64424327                0.36209140
              17.12040343               -3.81368569               55.50866130                0.63679337                2.10402664                1.74019548               -6.47641585               -0.23340998               -2.44237353                0.43358295
              18.14336870               -4.89834868               55.12385859                0.77632033                2.43498338                2.07050508               -7.75770213               -0.22096165               -3.05958935                1.05008417
              19.16910310               -5.97587949               54.74450429                0.94456675                2.57343998                2.48188936               -9.02696466               -0.47787093               -2.66662422               -2.23591815
              10.15293433                5.70578893               58.24808136                0.79685316               -0.83616524               -1.15874108                3.51672661               -0.11784117                1.44111491                4.34821848
              11.14457267                4.68602123               57.86611316                0.30499986               -0.55417907               -0.58800908                2.27268516               -0.21038345                3.69942793               -3.81564653
              12.14185074                3.66097190               57.52989534                0.03088633                0.15632779                0.08158920                1.31037163               -1.03450470                6.69349060               -7.29521614
              13.14769923                2.62191203               57.20797914                0.00010000                0.86237665               -0.56590946                0.24314438               -1.99159288                8.16523441               -6.48391846
              14.15909828                1.56243831               56.90166007                0.00010000                1.23659544               -0.67805526               -0.82251203               -2.80079274                9.68689414               -5.52449430
              15.17243114                0.48228029               56.61084773                0.00010000                1.26788930               -0.40492511               -1.93165909               -3.21951507               10.58808012               -4.89579483
              16.18445606               -0.61100906               56.32291796                0.00010000                1.13620914                0.08301050               -3.03321290               -2.98518542               10.17139784               -4.10613521
              17.19515532               -1.70649864               56.02325750                0.02117164                1.12580915                0.59913778               -4.08816002               -2.10179411                8.72157605               -2.31886200
              18.20697225               -2.79628373               55.70505317                0.16726870                1.35503318                1.13728155               -5.12257761               -0.96266882                7.16455764                3.98625541
              19.22225598               -3.87764363               55.37272076                0.37718527                1.74414783                1.71827200               -6.17277029               -0.36021512                4.83814198                3.33192857
              20.24185520               -4.95106059               55.00652179                0.77368880                1.95992184                2.44466987               -7.31379726               -0.50659764                3.21795014               -3.70693654
              11.16849285                6.69439342               58.11481771                0.73582484               -0.71393301               -1.07703710                3.17104147               -0.10319320                0.30750063                5.18148915
              12.16135352                5.68140752               57.67293829                0.20097837               -0.69397855               -0.35642628                1.56860668               -0.06828685                3.87947617               -5.18667421
              13.15461328                4.66637530               57.30299983                0.00010000               -0.14249221                0.76399744                0.52990622               -2.21616249               12.84327780              -15.91887615
              14.15850367                3.61098119               57.04140121                0.00010000                0.93073162               -0.64501726               -0.55439993               -4.74904892               19.19285991              -12.80553288
              15.17322791                2.54558399               56.80052123                0.00010000                1.75667859               -1.24196802               -1.69116856               -5.71109680               20.49789109              -10.97616799
              16.19363725                1.46719466               56.56651200                0.00010000                2.21494002               -1.20423402               -2.85900462               -6.30122266               21.07953821               -9.70427972
              17.21752671                0.38005100               56.33791210                0.00010000                2.54448571               -0.77278440               -4.00117156               -5.94316922               21.79392744               -8.22937087
              18.24452696               -0.70856010               56.11784800                0.00010000                2.73841682               -0.20337626               -4.98757727               -4.56204819               25.91436841               -5.46536721
              19.27229505               -1.79094006               55.97097506                0.05921336                2.32071495                0.46851457               -4.85158707               -2.60305372               21.64795105               -1.94271342
              20.29094126               -2.86398324               55.66538730                0.19577580                1.67550190                1.62095242               -4.48625082               -0.94715709                7.65780402               -0.35874018
              21.30580508               -3.92698609               55.23702635                0.65362144                1.48638256                3.37571103               -5.96724051               -0.71627119                1.53445930              -10.65967227
              12.17684225                7.68424819               57.97743078                0.72841266               -0.56171948               -0.94715235                2.78158550               -0.08334025                0.07799546                4.94141589
              13.17122506                6.67889271               57.48499859                0.19068153               -0.44442121               -0.17191805                0.95919829                0.20168608                1.97170138               -4.79230756
              14.16795383                5.67625185               57.03082163                0.00010000                0.11422500                0.88638123               -0.24597778               -2.58642675               18.47641092              -16.01121297
              15.17350956                4.60901168               56.86930323                0.00010000                1.03545242                0.13611273               -1.29735965               -5.73259276               32.28128088              -12.88826435
              16.18866287                3.53759895               56.69503743                0.00010000                1.92150584               -0.38736284               -2.49714021               -6.24846131               31.63606360              -10.98439305
              17.21193967                2.45819561               56.52340965                0.00010000                2.63422779               -0.52546321               -3.76234720               -6.70331016               31.96332052               -9.40466709
              18.24134743                1.37353525               56.35710884                0.00010000                3.14828725               -0.33830828               -5.02171034               -6.55318569               32.86485223               -7.83331441
              19.27490542                0.28943384               56.20352509                0.00010000                3.44934404                0.09875235               -6.12513910               -5.63608928               33.42083793               -6.39418289
              20.31033431               -0.78691344               56.04704494                0.06184792                3.22267284                0.79244364               -7.17543631               -3.70411869               30.75525470               -8.39651424
              21.33935887               -1.84522458               55.83896102                0.19612312                2.16005870                2.36562626               -6.20475306               -1.12731208               14.51551279               -6.68698689
              22.35353549               -2.88354637               55.35782013                0.65246535                1.41766110                4.45861934               -7.74980071                0.12073892                0.89619542              -16.12303784
              13.17753700                8.67545037               57.84010765                0.72275306               -0.41534246               -0.81802128                2.40925500               -0.08130551                0.08775761                4.95819200
              14.17338358                7.67796916               57.29983019                0.18344597               -0.23856158               -0.01024875                0.35644081                0.24511735                2.15859848               -4.59511908
              15.17276577                6.68410292               56.80124899                0.00010000                0.45605718                0.81706263               -0.80559721               -3.17176430               24.05924297              -13.28044508
              16.18250472                5.61370344               56.69986162                0.00010000                1.31544914                0.66958138               -1.93560381               -6.85194065               43.35087382              -12.09573577
              17.19907475                4.53783674               56.59239155                0.00010000                2.05650086                0.35333653               -3.21946762               -7.19780200               42.76310181              -10.37548697
              18.22363474                3.45668539               56.48339265                0.00010000                2.80750071                0.20574583               -4.60994723               -7.44425615               42.72530443               -8.76894650
              19.25522477                2.37328484               56.37768227                0.00010000                3.43095648                0.32207716               -6.04810270               -7.20974873               43.03963978               -7.25281104
              20.29225387                1.29341495               56.27576938                0.00010000                3.88231604                0.73245966               -7.50833255               -6.20154679               43.36159006               -6.07430329
              21.33287109                0.22490882               56.17602076                0.06675592                3.63870400                1.50664871               -8.98594399               -3.87650580               39.31097516               -4.39560785
              22.36502795               -0.81667071               55.99307971                0.20258557                2.59961831                3.03360040               -7.57484707               -1.20298036               18.13862446               -6.58825147
              23.38486345               -1.83781370               55.46819236                0.65632137                1.98355066                4.48722787               -9.31472796                0.28959059                1.28775387              -15.64422014
              14.17017856                9.66788776               57.70370921                0.71709354               -0.27037066               -0.69661350                2.04171879               -0.08040325                0.08913066                4.99593045
              15.16747485                8.67868773               57.11583803                0.17604151               -0.06971502                0.15444366               -0.23750432                0.21916631                2.85628002               -4.49043803
              16.16878426                7.69259310               56.58348682                0.00010000                0.76310392                0.91997359               -1.26444332               -3.64332021               30.12282502              -12.38420983
              17.18273693                6.62240331               56.54200238                0.00010000                1.64703151                1.03030085               -2.44839097               -7.78292897               54.13261555              -10.96367244
              18.20172489                5.54466568               56.49670807                0.00010000                2.24347586                0.91687681               -3.82851502               -8.10435991               53.58466674               -9.38550711
              19.22760645                4.46231053               56.44975104                0.00010000                2.93490047                0.83824679               -5.35427562               -8.16076778               53.37953177               -7.73830100
              20.26042290                3.37997679               56.40405092                0.00010000                3.58220291                0.95699619               -6.99095343               -7.71699986               53.50703343               -6.07303462
              21.29925050                2.30408303               56.36151139                0.00010000                4.12334801                1.33684429               -8.72634758               -6.50629630               53.78853860               -4.22472982
              22.34288986                1.24321953               56.32181257                0.07167802                3.93856404                2.01798237              -10.58892439               -3.83714109               47.56027521               -1.96288472
              23.37802179                0.21544743               56.15456092                0.20927966                2.93617119                3.24376280               -8.38249507               -1.00590693               21.24649185               -5.05997148
              24.40161328               -0.79380182               55.58467023                0.66023043                2.35914957                4.28503530              -10.32253653                0.23350876                1.49142980              -14.15674047
              15.15432899               10.66151810               57.56771488                0.71145633               -0.12674315               -0.57845235                1.67742496               -0.07980729                0.09331341                4.98918563
              16.15306156                9.68105804               56.93263813                0.16879709                0.09273987                0.32031592               -0.82692586                0.15881215                3.79180559               -4.42159745
              17.15618379                8.70250239               56.37160834                0.00010000                1.08560015                1.04944962               -1.61223883               -4.04064387               36.56794753              -11.77354698
              18.17477357                7.63430946               56.39336339                0.00010000                2.04482719                1.28750073               -2.83277859               -8.45584441               65.05650645               -9.92638510
              19.19708034                6.55617427               56.41063083                0.00010000                2.51673500                1.26638841               -4.29712549               -8.73396153               64.38039331               -8.15861129
              20.22510827                5.47345033               56.42564674                0.00010000                3.10159647                1.27222430               -5.94625767               -8.58025213               64.07975711               -6.38982054
              21.25911227                4.39242476               56.44173148                0.00010000                3.68884692                1.44358769               -7.75238263               -7.93073798               64.19303270               -4.47100556
              22.29888520                3.32015184               56.46182638                0.00010000                4.28258010                1.79353251               -9.71905232               -6.58821455               64.60668277               -2.18765788
              23.34476387                2.26526846               56.48701314                0.07678275                4.15229762                2.29321974              -11.89654370               -3.69668084               55.57036393                0.70153702
              24.38193116                1.24820454               56.32558096                0.21594870                3.16341278                3.21271416               -8.73528338               -0.83381392               23.84915353               -3.37475096
              25.40803212                0.24788700               55.71064617                0.66418962                2.61009658                4.03580913              -10.86466202                0.19124633                1.63698018              -12.44222831
              16.12950254               11.65631872               57.43168141                0.70580451                0.01642580               -0.46214066                1.31330116               -0.08033200                0.09547848                4.93452535
              17.12966680               10.68509405               56.74976804                0.16140658                0.26087052                0.48819792               -1.41463138                0.04875162                4.99397258               -4.38488237
              18.13471995                9.71358210               56.16580092                0.00010000                1.51406814                1.10775162               -1.82508975               -4.43352049               43.43853134              -11.09191842
              19.15994816                8.64815332               56.25427652                0.00010000                2.65924190                1.33078533               -3.07411878               -8.85428338               76.19677292               -8.72248202
              20.18790479                7.56999345               56.33570044                0.00010000                2.99013749                1.30111117               -4.60299584               -8.88006878               75.23963508               -6.71626878
              21.21975091                6.48775501               56.41313575                0.00010000                3.36009188                1.44360908               -6.34567151               -8.38730656               74.81896060               -4.86440570
              22.25510663                5.40884855               56.49200436                0.00010000                3.74457997                1.78448032               -8.28386193               -7.61136961               75.05260958               -2.82071329
              23.29464251                4.33995368               56.57768309                0.00010000                4.28984518                2.15223905              -10.44068221               -6.40193787               75.81916170               -0.18330660
              24.34090353                3.28908393               56.67289489                0.08192702                4.20422270                2.45729526              -12.89313935               -3.59870546               63.35936120                3.38922789
              25.37872697                2.27970171               56.50762127                0.22271457                3.25848796                3.03031647               -8.71528152               -0.75303038               25.95613487               -1.60766589
              26.40607329                1.28691437               55.84769084                0.66815418                2.73463246                3.76120695              -11.02352430                0.14416209                1.73382668              -10.61941950
              17.09517168               12.65227529               57.29502477                0.70011155                0.16015342               -0.34669330                0.94546985               -0.08190682                0.11878560                4.88890403
              18.09677322               11.69082199               56.56691515                0.15430989                0.46412154                0.65955637               -2.00273209               -0.17389152                6.55426792               -4.43666080
              19.10445411               10.72465743               55.96738869                0.00010000                2.22516659                0.94443704               -1.88862619               -4.96455680               50.91310589              -10.00346184
              20.14127655                9.66092517               56.12790066                0.00010000                3.77115789                0.84646272               -3.16178380               -8.78803537               87.61421285               -6.96736817
              21.17987727                8.58219650               56.27448504                0.00010000                3.86152428                0.84343472               -4.73162618               -8.02729391               86.04164026               -4.93965589
              22.21850703                7.50232251               56.41302083                0.00010000                3.74044670                1.36138675               -6.52242898               -7.09041091               85.37534685               -3.27240050
              23.25468620                6.42811437               56.55350594                0.00010000                3.60520181                2.04751937               -8.54254546               -6.35332232               85.89513076               -1.42746096
              24.29061107                5.36319662               56.70647733                0.00010000                3.91777610                2.64048780              -10.85387195               -5.67765130               87.43444043                1.20664515
              25.33304173                4.31441437               56.87849047                0.08718607                3.92145201                2.76598576              -13.57090526               -3.66238315               71.09340667                5.57999140
              26.36904011                3.30881087               56.70150317                0.22948323                3.17241664                2.75890681               -8.38846350               -0.86833664               27.67055073                0.26921741
              27.39649006                2.32311114               55.99702596                0.67210907                2.74499496                3.47237972              -10.85780518                0.09236197                1.82464089               -8.76415289
              18.05077099               13.64938485               57.15845093                0.69443754                0.30358377               -0.22822983                0.57832527               -0.08315047               -0.07216106                4.25370195
              19.05380683               12.69828518               56.38247978                0.14717085                0.72773241                0.82979337               -2.60061613               -0.66850795                8.79681033               -3.98170506
              20.06532564               11.73247084               55.78365649                0.00010000                3.64207779                0.10601589               -1.77906546               -5.08053131               59.51505946               -7.07211318
              21.12664839               10.66508258               56.02266449                0.00010000                6.03179649               -0.72508307               -3.11985888               -6.70658818               99.20770739               -4.11781473
              22.18596157                9.58686214               56.23114309                0.00010000                5.26882172                0.11512138               -4.67861903               -5.24262822               96.31482256               -2.67661457
              23.23202482                8.51498275               56.42555358                0.00010000                4.06022510                1.15745547               -6.44575859               -4.18297851               95.26561645               -1.65980188
              24.26716607                7.44979894               56.62212307                0.00010000                3.13823327                2.25850679               -8.47506786               -3.73062873               96.11727156               -0.52302655
              25.29478949                6.39276344               56.83804798                0.00010000                2.74377693                3.29041725              -10.87816095               -3.75522534               99.17421674                1.27645554
              26.32204161                5.34440364               57.09499710                0.09269596                2.89369864                3.78236133              -13.87900138               -3.06803704               79.40586246                5.05063672
              27.35266346                4.33487985               56.90932565                0.23622505                2.86391915                2.45472536               -7.80757669               -1.36116972               29.43651954                1.67864901
              28.37932000                3.35636196               56.15879923                0.67599097                2.66565354                3.20150657              -10.43476293               -0.00876812                1.71923603               -6.16825871
              18.99570801               14.64771069               57.00941282                0.84530817                0.46090577               -0.16741585                0.15046398                0.46441880                1.93012088                3.61746221
              20.00031707               13.70741786               56.20804118                0.57133341                2.01690383                0.91326816               -3.15063939               -1.39562355               13.90104415               -3.44023697
              21.03604609               12.72677774               55.64574010                0.46960873                7.62182047               -0.56930922               -1.67616276               -5.97767305               69.70250711               -5.12572546
              22.15275348               11.64642351               55.95265686                0.44580380                9.45392228               -1.86590695               -3.00267877               -4.50343193              109.42223799               -2.11751162
              23.22512453               10.58449892               56.21054167                0.43824387                5.95785942               -0.23632183               -4.43557540               -2.13129819              105.26031117               -1.27833072
              24.27191067                9.52547162               56.45094984                0.44422997                3.85842023                1.04888711               -6.07941184               -1.57213637              103.90436722               -0.67831365
              25.30229294                8.47328450               56.69284743                0.46362628                2.44955943                2.34855682               -8.00816537               -1.31064631              104.77028590               -0.01855836
              26.32090186                7.42900496               56.95672812                0.49742870                1.36358169                3.62415247              -10.37223417               -1.54990860              108.74714720                1.06780933
              27.32956457                6.39006159               57.27719052                0.54817040                0.44782695                4.56579529              -13.50271696               -2.80268304               88.37904897                3.87948299
              28.32985840                5.35790538               57.12033935                0.62040679                1.18929506                2.30255314               -7.05532577               -2.42652256               34.29939499                2.35796126
              29.35335047                4.38714127               56.34849285                0.83925899                2.34920787                3.07793121               -9.74690052                0.32663702                4.04527171               -4.23404359
               9.48443565                4.90863037               59.44373204                0.91903121               -1.09315933               -1.22024400                4.14666811               -0.29049264               -2.98665645                3.44005632
              10.47350405                3.83406859               59.05493540                0.69188206               -1.03635833               -0.73782259                2.85673144               -0.27023629               -4.18683644               -2.28880563
              11.46370848                2.75535918               58.64286562                0.54459623               -1.04730284               -0.39075160                1.45081869               -0.46642629               -4.17858657               -0.83982467
              12.45255799                1.66286937               58.25472507                0.47789872               -1.03429122               -0.03518506                0.12157434               -0.47231252               -2.01682565               -0.44109404
              13.44302265                0.55050249               57.88545292                0.44544176               -0.68627020                0.34566278               -1.26235525               -0.38580828               -0.24426311               -0.28726690
              14.43883259               -0.58148455               57.53150934                0.44403681                0.01880999                0.72953325               -2.68752583               -0.24685540                0.79276459               -0.05585465
              15.44339885               -1.72577058               57.18132293                0.47329924                0.89795507                1.10585889               -4.10453156               -0.18679160                0.51540551                0.17319981
              16.45679169               -2.87195941               56.82042411                0.53391147                1.65869734                1.46605035               -5.46759250               -0.20856975               -0.82160693                0.36404494
              17.47657280               -4.01251460               56.44233027                0.62877657                2.18405638                1.81674245               -6.79248662               -0.22702773               -2.60358834                0.43370077
              18.50047282               -5.14461795               56.04441517                0.76242918                2.54245481                2.16272262               -8.13378101               -0.22124622               -3.22029004                1.05480293
              19.52742190               -6.26929225               55.65209018                0.93516780                2.69490768                2.58763416               -9.45732383               -0.51049578               -2.81895739               -2.33527857
              10.55609250                5.89642793               59.28387081                0.78223054               -0.86552115               -1.20200394                3.64345037               -0.12510224                1.55707806                4.55264328
              11.54743729                4.82669037               58.88921155                0.28751691               -0.57243346               -0.60437281                2.34785625               -0.22333121                3.95906203               -4.04409257
              12.54464383                3.75145166               58.54318365                0.02471743                0.14129644                0.10672154                1.34551643               -1.05964484                7.04410364               -7.60738212
              13.55026321                2.66251752               58.21037379                0.00010000                0.83488502               -0.55816658                0.23665532               -2.02648609                8.46632552               -6.95311005
              14.56134153                1.55395912               57.89320891                0.00010000                1.21186780               -0.65895947               -0.86825407               -2.81424344                9.97296383               -6.16510651
              15.57450057                0.42581079               57.59110728                0.00010000                1.27134223               -0.38591302               -2.01681220               -3.20084698               10.85758828               -5.71226071
              16.58676837               -0.71471199               57.29198296                0.00010000                1.17887180                0.10581915               -3.15526198               -2.94988844               10.46387019               -5.08829768
              17.59807801               -1.85729891               56.98157995                0.01532761                1.19317090                0.65331270               -4.24766263               -2.07928371                9.04311328               -3.40213882
              18.61063179               -2.99434717               56.65287646                0.15548775                1.42855884                1.22856751               -5.31721938               -0.96809299                7.48618649                3.32276597
              19.62664918               -4.12299072               56.30986506                0.35604834                1.81797240                1.80301842               -6.40266857               -0.35849251                5.10367055                3.38000028
              20.64699124               -5.24341591               55.93203363                0.75946513                2.03420559                2.55435370               -7.58755752               -0.54410976                3.43786832               -4.00394331
              11.62140873                6.88459029               59.14711614                0.72367354               -0.73950321               -1.11810917                3.28954373               -0.10651088                0.29700979                5.43350506
              12.61401370                5.82198114               58.68884978                0.18739909               -0.73601490               -0.36398949                1.61451686               -0.05808955                4.16340579               -5.47424271
              13.60668843                4.75749361               58.30841964                0.00010000               -0.22464392                0.81298115                0.55906755               -2.26416936               13.38690923              -16.54918140
              14.60952082                3.65170604               58.03571529                0.00010000                0.83780426               -0.60793995               -0.57686544               -4.86544693               19.65408541              -13.69942799
              15.62344452                2.53732330               57.78308180                0.00010000                1.69829692               -1.19579349               -1.79615080               -5.77404516               20.89421763              -12.22243300
              16.64348676                1.41079719               57.53695528                0.00010000                2.20331339               -1.15514833               -3.05796194               -6.31030782               21.45954518              -11.31604796
              17.66751078                0.27634581               57.29648157                0.00010000                2.56772242               -0.70858009               -4.29850866               -5.89039673               22.25906785              -10.20686815
              18.69484120               -0.85889316               57.06617349                0.00010000                2.76959847               -0.07704734               -5.37907358               -4.47310045               26.98992085               -7.74807246
              19.72290275               -1.98794325               56.91965627                0.05165339                2.37652489                0.71814440               -5.48755499               -2.55871317               23.57199994               -4.44336073
              20.74237170               -3.10855758               56.61995774                0.18212691                1.72436587                1.98760683               -4.61842896               -0.93345210                8.81643472               -2.16238413
              21.75739007               -4.21820517               56.17647897                0.64420126                1.50183677                3.73007521               -6.15927979               -0.67279349                1.64532766              -12.89370671
              12.67918059                7.87406575               59.00577568                0.71664079               -0.58084129               -0.98306850                2.88738723               -0.08755405                0.08108745                5.17637880
              13.67337218                6.81941058               58.49470113                0.17779705               -0.47725254               -0.17430024                0.98115749                0.21534071                2.32005997               -5.02605182
              14.66963554                5.76771128               58.02878952                0.00010000               -0.01237967                0.90649101               -0.13522932               -2.61187828               19.18667507              -16.51607061
              15.67312458                4.65035872               57.85621427                0.00010000                0.85669637                0.20782372               -1.30840951               -5.83971599               32.91426439              -13.69349922
              16.68676947                3.53004325               57.66932052                0.00010000                1.80736615               -0.29047980               -2.64388824               -6.31672704               32.13105198              -12.14435750
              17.70927191                2.40270782               57.48435109                0.00010000                2.59406628               -0.39419051               -4.05792584               -6.72062176               32.40849134              -10.95746428
              18.73865079                1.27111641               57.30475539                0.00010000                3.18165723               -0.15574409               -5.47126297               -6.49317749               33.38406969               -9.81261238
              19.77290505                0.14116014               57.13948268                0.00010000                3.52355772                0.36926204               -6.72653244               -5.47018933               34.08761728               -8.88002971
              20.80912195               -0.97998429               56.97252886                0.05431898                3.26685074                1.25597365               -7.79143896               -3.50056606               32.47024823              -11.91181894
              21.83824207               -2.08323859               56.77286836                0.18267343                2.18543051                3.07233579               -7.12209284               -1.03391110               16.02739524              -10.06346522
              22.85283056               -3.16881440               56.27627004                0.64333956                1.45884906                5.13408042               -8.64177950                0.23118932                1.24266377              -19.84587172
              13.72896799                8.86492892               58.86466852                0.71119152               -0.42930152               -0.84973038                2.50381052               -0.08481933                0.09068294                5.20235707
              14.72467497                7.81849513               58.30338673                0.17078381               -0.27326327               -0.00650766                0.35489173                0.24406679                2.66782403               -4.81983263
              15.72350272                6.77562343               57.79392910                0.00010000                0.28597813                0.82268386               -0.62106045               -3.20270045               24.99088243              -13.63817974
              16.73039453                5.65586251               57.68048508                0.00010000                1.06290750                0.75579743               -1.91831258               -6.93908275               44.09351576              -12.77996216
              17.74476087                4.53151370               57.55932041                0.00010000                1.88033111                0.49738708               -3.39022537               -7.25842293               43.33691066              -11.42245942
              18.76800116                3.40291338               57.43547776                0.00010000                2.72170196                0.41337430               -4.98315491               -7.45087454               43.20033747              -10.21799236
              19.79919491                2.27323092               57.31443065                0.00010000                3.42684785                0.61020018               -6.62902722               -7.13103628               43.47951926               -9.15788335
              20.83653811                1.14849208               57.19709046                0.00010000                3.90476240                1.13471691               -8.27240762               -5.98859990               43.81855222               -8.55930846
              21.87729016                0.03717623               57.08216933                0.05899786                3.69927411                2.10103645               -9.86268669               -3.58696681               41.15791418               -7.57882115
              22.91052360               -1.04711086               56.91097325                0.18890001                2.79376652                3.77929522               -9.01146397               -1.03128071               19.93193547               -9.30681081
              23.93316549               -2.11552356               56.36865542                0.64695650                2.26418932                5.24833003              -10.73395892                0.42446053                1.70676156              -18.77592639
              14.77035178                9.85707114               58.72453823                0.70569810               -0.27927782               -0.72401792                2.12586278               -0.08370941                0.09344170                5.24347293
              15.76755901                8.81928042               58.11334155                0.16392900               -0.10688169                0.16405753               -0.26236017                0.19936637                3.57007519               -4.70790149
              16.76821415                7.78416496               57.57185840                0.00010000                0.54468238                0.92469871               -1.00337794               -3.67091511               31.33341567              -12.63651411
              17.77845265                6.66547467               57.51767653                0.00010000                1.31679924                1.12434008               -2.38976650               -7.83470803               54.99714553              -11.51729149
              18.79455013                5.53999099               57.45749753                0.00010000                2.00422708                1.09454097               -4.00660125               -8.13125610               54.23148851              -10.29241924
              19.81853719                4.41097531               57.39410701                0.00010000                2.79506176                1.10953190               -5.78510473               -8.12257519               53.87784696               -9.03394086
              20.85045137                3.28332041               57.33083677                0.00010000                3.53252791                1.33767635               -7.68007712               -7.57191990               53.90129064               -7.80589110
              21.88918775                2.16385448               57.26981715                0.00010000                4.12670926                1.85002132               -9.65801594               -6.17369508               54.10378747               -6.46508548
              22.93298555                1.06203644               57.21076645                0.06373430                4.05642448                2.69487058              -11.69193448               -3.40679863               49.79101119               -4.82129863
              23.97031624               -0.00765268               57.06289676                0.19522263                3.25798076                3.96414804              -10.14799882               -0.77689415               23.53416619               -7.09847012
              24.99814517               -1.06384780               56.47355888                0.65082221                2.78289280                5.03997587              -12.06790122                0.32923937                1.94877012              -16.59337422
              15.80287523               10.85044856               58.58485491                0.70038798               -0.13067539               -0.60213838                1.75159804               -0.08359840                0.09703273                5.23751531
              16.80156848                9.82177628               57.92412899                0.15680276                0.05074724                0.33636231               -0.87535287                0.11551293                4.77292580               -4.63574154
              17.80389018                8.79411740               57.35700100                0.00010000                0.81529350                1.05419337               -1.24421714               -4.06534894               38.12318483              -11.90287635
              18.81787435                7.67834931               57.36544014                0.00010000                1.63724674                1.37895033               -2.71758966               -8.45537756               66.05403947              -10.34167734
              19.83663511                6.55340452               57.36677866                0.00010000                2.21729405                1.46076013               -4.46441889               -8.69968755               65.11742611               -8.90320197
              20.86222023                5.42510402               57.36390291                0.00010000                2.91211143                1.58671183               -6.41259634               -8.46285357               64.62775431               -7.48865242
              21.89487734                4.29998445               57.36047751                0.00010000                3.60639778                1.88990865               -8.52551498               -7.68549903               64.58528316               -5.95594372
              22.93434818                3.18549251               57.35949372                0.00010000                4.28920046                2.37416685              -10.78775584               -6.13008496               64.84596705               -4.11451131
              23.98066135                2.09107364               57.36185934                0.06862846                4.32608872                2.99724420              -13.18453617               -3.18842888               58.33172578               -1.76533630
              25.02086996                1.03217210               57.22955735                0.20168397                3.57395848                3.90257705              -10.68580889               -0.60190460               26.73413535               -4.84246027
              26.05214052               -0.01472405               56.59323465                0.65452162                3.12705601                4.76378465              -12.80136419                0.25836916                2.12147555              -14.28810889
              16.82602438               11.84502837               58.44512755                0.69495332                0.01760463               -0.48273671                1.37679256               -0.08431500                0.09930304                5.17958357
              17.82620042               10.82600767               57.73526577                0.14988866                0.21548808                0.51137859               -1.48639630               -0.02263815                6.30884228               -4.59775495
              18.83033414                9.80524883               57.14957238                0.00010000                1.19287784                1.10048339               -1.33681162               -4.46164958               45.41620621              -11.07763400
              19.85005798                8.69305367               57.22430530                0.00010000                2.17337672                1.40131312               -2.88168276               -8.79557993               77.34612093               -8.99084752
              20.87380167                7.56920619               57.28892844                0.00010000                2.63211067                1.49732093               -4.74072660               -8.76405970               76.09374227               -7.28437093
              21.90270019                6.44270954               57.34733639                0.00010000                3.12756150                1.77955819               -6.82284970               -8.18191240               75.45367184               -5.73473795
              22.93635290                5.32111859               57.40515671                0.00010000                3.63983371                2.26112077               -9.10903368               -7.26779193               75.48403509               -4.01360390
              23.97549687                4.21133782               57.46756731                0.00010000                4.30922418                2.76522314              -11.60949843               -5.84593656               76.02109804               -1.75362578
              25.02253739                3.12198133               57.53684835                0.07351934                4.42894832                3.16183003              -14.34093470               -3.06132483               66.71293291                1.32622854
              26.06407583                2.07039886               57.41145898                0.20805054                3.72837279                3.68635423              -10.74529315               -0.54666500               29.48191333               -2.59063526
              27.09710484                1.03142789               56.72827755                0.65825699                3.30290085                4.45676737              -13.05463956                0.18680256                2.23412386              -11.95440704
              17.83923033               12.84079383               58.30473956                0.68951647                0.16649210               -0.36441151                0.99881510               -0.08608440                0.12427501                5.13159659
              18.84089526               11.83200385               57.54641401                0.14286407                0.41904221                0.69022361               -2.09870044               -0.29158606                8.29284340               -4.65444265
              19.84761118               10.81612707               56.95133314                0.00010000                1.85550650                0.88349378               -1.23550913               -4.99505886               53.39710434               -9.82793206
              20.87800539                9.70637557               57.09747269                0.00010000                3.20434339                0.88391348               -2.88064487               -8.63060004               88.92301805               -7.10400183
              21.91169805                8.58335094               57.22665075                0.00010000                3.43320991                1.05607696               -4.82357365               -7.84195169               87.05173986               -5.32682847
              22.94666958                7.46069519               57.34552044                0.00010000                3.45975896                1.70181012               -6.98388764               -6.83932367               86.14384049               -3.88702250
              23.98089323                6.34520687               57.46396764                0.00010000                3.49485640                2.51203171               -9.38193817               -5.96568664               86.39942349               -2.28721950
              25.01656671                5.24079697               57.59185644                0.00010000                3.97402916                3.24018194              -12.08248919               -5.07208306               87.60186407                0.04516592
              26.06037381                4.15431024               57.73471967                0.07854327                4.19616907                3.45166558              -15.16360867               -3.11099714               75.04030888                3.94949467
              27.10049009                3.10589918               57.60863051                0.21451284                3.67223484                3.38153275              -10.42068210               -0.70326820               31.84204645               -0.29584184
              28.13381851                2.07441130               56.87921372                0.66196058                3.33284126                4.12904720              -12.90975158                0.11475483                2.33482353               -9.65601017
              18.84188264               13.83774014               58.16444329                0.68408537                0.31528208               -0.24308243                0.62109064               -0.08736901               -0.07769932                4.46488494
              19.84503546               12.83981214               57.35587343                0.13639347                0.70892998                0.86819530               -2.72153247               -0.87959211               11.04401347               -4.17944649
              20.85606124               11.82291870               56.76950476                0.00010000                3.25933236               -0.13127893               -0.95136249               -4.93416046               62.58207940               -6.84508449
              21.91022211               10.71073194               56.99309211                0.00010000                5.32908946               -0.59486576               -2.75260370               -6.48617347              100.68788154               -4.17203890
              22.96264303                9.59032773               57.18410841                0.00010000                4.69178434                0.36195671               -4.71656601               -5.05830488               97.54673691               -2.87773664
              24.00405779                8.47674575               57.35901542                0.00010000                3.71471788                1.49867809               -6.86543538               -4.00378582               96.23746625               -1.98501816
              25.03693739                7.37135922               57.53336938                0.00010000                3.04470210                2.68424953               -9.28466516               -3.43808973               96.74581957               -0.98840288
              26.06495184                6.27614146               57.72310009                0.00010000                2.91389231                3.79995703              -12.10855338               -3.26630492               99.27722233                0.61650844
              27.09521523                5.19101464               57.94730577                0.08385802                3.24787857                4.38592768              -15.59524347               -2.60559533               83.85102483                4.05674317
              28.12990941                4.13802952               57.82251746                0.22101903                3.35802355                3.04437036               -9.77267584               -1.23885274               34.18422197                1.46250783
              29.16237570                3.11400884               57.04536796                0.66572567                3.24662956                3.81310225              -12.43780567               -0.00932346                2.21256847               -6.64840775
              19.83333895               14.83593218               58.01105448                0.84025034                0.47858958               -0.18079611                0.17878611                0.48918928                2.02441716                3.79666457
              20.83812485               13.84936776               57.17582401                0.56601568                2.23346067                0.95556180               -3.29380609               -1.81259557               16.66648695               -3.61235433
              21.87800817               12.81350149               56.63308612                0.46845999                7.13740204               -0.94172131               -0.74281171               -5.54978224               73.36778001               -4.94059233
              22.98087289               11.69447826               56.92456357                0.44561491                8.32549895               -1.62536835               -2.58164617               -4.08049257              111.18208587               -2.14487781
              24.04451815               10.59059008               57.16620837                0.43833065                5.23447429                0.02623453               -4.42011110               -2.00296388              106.82204166               -1.37908372
              25.08556238                9.49066875               57.38838993                0.44402711                3.41087870                1.39230021               -6.43492418               -1.43445278              105.18414808               -0.84154916
              26.11273572                8.39889186               57.60911828                0.46260003                2.30114097                2.75326362               -8.74211443               -1.11379852              105.64187436               -0.25999200
              27.13158520                7.31679611               57.84719169                0.49503568                1.68190617                4.06546540              -11.52220411               -1.17981747              108.91028228                0.70526593
              28.14637384                6.24202879               58.13326877                0.54376554                1.05668229                5.10141519              -15.19682090               -2.38461502               92.97615092                3.25197834
              29.15271884                5.16678659               58.04150309                0.61263779                1.76497760                2.87570735               -8.90741677               -2.28682901               39.37541031                2.35593543
              30.18167340                4.15067334               57.24237334                0.83407366                2.89545542                3.66645087              -11.64007698                0.31844472                4.61320036               -4.45666400
               9.84917443                5.10609182               60.48593171                0.91083339               -1.13005792               -1.26341266                4.29392743               -0.30325649               -3.11810261                3.57985415
              10.83787385                3.97883929               60.08396476                0.68155803               -1.06708350               -0.76142815                2.94989871               -0.28232089               -4.37802767               -2.41247298
              11.82783276                2.84731096               59.65753689                0.54022056               -1.04978614               -0.40407230                1.48354821               -0.45917897               -4.39161174               -0.81158013
              12.81687812                1.70218006               59.25582039                0.47644333               -0.99451266               -0.03204595                0.09811751               -0.45892332               -2.22391531               -0.45221522
              13.80794250                0.53788778               58.87242231                0.44528154               -0.61563304                0.36195170               -1.34282747               -0.37183783               -0.50495219               -0.29010156
              14.80456546               -0.64501982               58.50393746                0.44380136                0.09511616                0.76089454               -2.82546818               -0.24331431                0.51226699               -0.05978599
              15.80984483               -1.83946528               58.13929250                0.47180882                0.96416122                1.15316181               -4.30179947               -0.18609356                0.26801162                0.17043512
              16.82384869               -3.03557363               57.76447187                0.52993828                1.72478895                1.52828358               -5.72431318               -0.20439880               -1.01949312                0.36521675
              17.84434061               -4.22610406               57.37281157                0.62090332                2.26771476                1.89496365               -7.11032594               -0.22191180               -2.78732554                0.43483974
              18.86920298               -5.40815239               56.96118297                0.74869371                2.65166625                2.25661996               -8.51163612               -0.22147068               -3.39900476                1.06213470
              19.89737393               -6.58247195               56.55535781                0.92593378                2.81709472                2.69437078               -9.88945454               -0.54180720               -2.98668857               -2.44668954
              10.97339440                6.09345770               60.32095037                0.76807233               -0.89533276               -1.24665901                3.77202520               -0.13370247                1.67882727                4.76843869
              11.96444107                4.97122501               59.91307028                0.27049291               -0.59119104               -0.62030979                2.42340613               -0.23715916                4.22986702               -4.28310925
              12.96157058                3.84327024               59.55680567                0.01850154                0.12797045                0.12374223                1.37991624               -1.08561059                7.41237917               -7.91975805
              13.96700048                2.70185960               59.21271225                0.00010000                0.81267436               -0.55139551                0.23137989               -2.08589189                8.78830996               -7.43593469
              14.97782407                1.54150730               58.88429499                0.00010000                1.19041852               -0.64320300               -0.91504325               -2.86703547               10.27881092               -6.85194483
              15.99080885                0.36258913               58.57051149                0.00010000                1.27183652               -0.36751499               -2.10280702               -3.22890242               11.14936991               -6.61533624
              17.00326080               -0.82793366               58.25981272                0.00010000                1.21576186                0.13032472               -3.28179271               -2.96174423               10.78170765               -6.20194190
              18.01512409               -2.02029079               57.93830425                0.00957722                1.25750358                0.70746752               -4.41200844               -2.09593838                9.38986364               -4.66557872
              19.02841087               -3.20715442               57.59870878                0.14383400                1.50240678                1.33221906               -5.51950479               -0.98426028                7.83344883                2.34422373
              20.04517222               -4.38558619               57.24466739                0.33548348                1.89322778                1.89590825               -6.64055085               -0.35647739                5.39224731                3.39976812
              21.06627542               -5.55552824               56.85477064                0.74540015                2.11031992                2.66876552               -7.86899605               -0.57944304                3.67711327               -4.35599251
              12.09096576                7.08115864               60.18060858                0.71161984               -0.76476351               -1.16171599                3.40827450               -0.11161990                0.28535494                5.69874964
              13.08331813                5.96643309               59.70522863                0.17404336               -0.77399079               -0.36951455                1.66097624               -0.06007455                4.47649998               -5.77592278
              14.07548595                4.84978580               59.31418118                0.00010000               -0.31974508                0.85753702                0.59256631               -2.33386625               13.96472541              -17.12387860
              15.07692322                3.69115215               59.02986390                0.00010000                0.71931621               -0.57438475               -0.58538636               -5.02493617               20.11330719              -14.61436060
              16.08987227                2.52502372               58.76459821                0.00010000                1.62525750               -1.15170540               -1.89812654               -5.90996229               21.26160249              -13.55835867
              17.10942837                1.34762988               58.50535277                0.00010000                2.18087958               -1.10326419               -3.26568087               -6.40083620               21.79801174              -13.09932345
              18.13348986                0.16314121               58.25194193                0.00010000                2.58611516               -0.63662037               -4.62106642               -5.92088593               22.67336487              -12.44461792
              19.16115068               -1.02142428               58.01026653                0.00010000                2.82304671                0.06035334               -5.83008037               -4.44203440               27.92397403              -10.38452663
              20.18995080               -2.19945967               57.86122396                0.04434425                2.46482902                0.97457671               -6.29231577               -2.54336078               25.69952215               -7.31243618
              21.21044726               -3.37023422               57.57301872                0.16862494                1.78591932                2.40383979               -4.78357377               -0.93217970               10.30713258               -4.50580912
              22.22566918               -4.52909664               57.11384075                0.63494728                1.52219237                4.14439889               -6.37397753               -0.62074368                1.78400218              -15.63967836
              13.20061311                8.07022338               60.03517852                0.70498052               -0.60006852               -1.02118418                2.99446781               -0.09144259                0.08477294                5.42423167
              14.19461242                6.96383471               59.50462174                0.16497925               -0.52194581               -0.17505003                1.00351534                0.21794734                2.76777166               -5.27115658
              15.19017419                5.86042098               59.02811704                0.00010000               -0.16742909                0.92423212                0.03663261               -2.67318378               19.96640129              -16.94175063
              16.19126384                4.69037191               58.84313504                0.00010000                0.64864498                0.27448906               -1.29145484               -5.99436389               33.48123383              -14.49897364
              17.20314709                3.51847319               58.64215967                0.00010000                1.67053966               -0.19065898               -2.78253222               -6.44500270               32.54386852              -13.38316535
              18.22467463                2.34052385               58.44225113                0.00010000                2.53750734               -0.25301278               -4.36657224               -6.80181927               32.75442852              -12.67022202
              19.25389724                1.15933393               58.24768359                0.00010000                3.21048282                0.04522871               -5.96162055               -6.49474858               33.78884191              -12.03797233
              20.28888429               -0.01908372               58.06899445                0.00010000                3.62281799                0.66592946               -7.41642474               -5.36306353               34.69776324              -11.68510715
              21.32635360               -1.18766288               57.89121616                0.04679104                3.36406528                1.72772394               -8.54727071               -3.31149402               34.04178357              -15.69198301
              22.35616559               -2.33750939               57.69651916                0.16931129                2.26158953                3.86994441               -8.28702684               -0.91220340               17.46754019              -14.34654680
              23.37158539               -3.47264026               57.18498454                0.63421784                1.54197923                5.92377879               -9.72738667                0.38517020                1.74784473              -24.42709325
              14.30191424                9.06073496               59.89018386                0.69979141               -0.44347611               -0.88262727                2.60003374               -0.08890408                0.09409209                5.46160561
              15.29747947                7.96293209               59.30692802                0.15840100               -0.32145806               -0.00236341                0.35347273                0.22396274                3.33743909               -5.05593325
              16.29548507                6.86827045               58.78882778                0.00010000                0.07521293                0.81849725               -0.35127268               -3.26733801               26.02821300              -13.92517437
              17.29898373                5.69664194               58.66149537                0.00010000                0.76676029                0.83652548               -1.85432116               -7.06415162               44.72400737              -13.45747134
              18.31082028                4.52121054               58.52458704                0.00010000                1.67737574                0.64429239               -3.54812929               -7.36476068               43.77856763              -12.53734585
              19.33253125                3.34256963               58.38372955                0.00010000                2.61910889                0.63413578               -5.37185347               -7.50076208               43.52494200              -11.81381044
              20.36320246                2.16404579               58.24510172                0.00010000                3.41774875                0.92390873               -7.25907447               -7.09169906               43.76273808              -11.29230549
              21.40088622                0.99189431               58.11032123                0.00010000                3.94720617                1.57308902               -9.13159269               -5.82193496               44.14351891              -11.34751560
              22.44214658               -0.16490520               57.97876703                0.05130309                3.81471733                2.73832184              -10.91439303               -3.27263887               42.65503273              -11.17086257
              23.47718057               -1.29283533               57.81285043                0.17526473                3.07438762                4.62016583              -10.80553917               -0.79843913               21.49620869              -12.70019717
              24.50363433               -2.41062106               57.25351318                0.63779847                2.64537646                6.11958684              -12.46276284                0.60538024                2.26678887              -22.57960372
              15.39444076               10.05257083               59.74622646                0.69454407               -0.28845735               -0.75279347                2.21225936               -0.08797609                0.09710098                5.50631699
              16.39155619                8.96378745               59.11059082                0.15160208               -0.16615895                0.17434454               -0.28788108                0.15572995                4.51105143               -4.93697525
              17.39111759                7.87679092               58.56341926                0.00010000                0.27422605                0.92302193               -0.62128891               -3.74168790               32.69782213              -12.80923805
              18.39704071                6.70710242               58.49420705                0.00010000                0.94032989                1.21026049               -2.27373379               -7.91694603               55.71135154              -12.05725592
              19.40992418                5.53135904               58.41657605                0.00010000                1.73917156                1.27343887               -4.16776037               -8.18750287               54.70575513              -11.25548686
              20.43182414                4.35320656               58.33404894                0.00010000                2.64071936                1.39391361               -6.23254397               -8.10568392               54.18411455              -10.45969758
              21.46273857                3.17781211               58.25044938                0.00010000                3.47862157                1.74700761               -8.42111782               -7.44019220               54.09063285               -9.74744692
              22.50139657                2.01237806               58.16835107                0.00010000                4.14459473                2.41085666              -10.68810611               -5.85860304               54.23379588               -9.00079578
              23.54563047                0.86710355               58.08797388                0.05586169                4.22580529                3.43925142              -12.96700769               -2.91479783               51.57512306               -8.04658183
              24.58591268               -0.24510607               57.95160095                0.18132991                3.68169947                4.78142284              -12.34009173               -0.46470459               25.52577252               -9.63993057
              25.61926445               -1.35024853               57.34331221                0.64132320                3.33517742                5.90136086              -14.18415433                0.45938952                2.55636141              -19.53212803
              16.47772149               11.04567909               59.60274684                0.68940342               -0.13475014               -0.62725478                1.82742677               -0.08744110                0.10074817                5.50074421
              17.47637399                9.96641898               58.91513107                0.14502423               -0.01925714                0.35332430               -0.92443388                0.04472086                6.05702435               -4.86101791
              18.47733634                8.88673088               58.34672400                0.00010000                0.48513556                1.04531769               -0.73768337               -4.13424384               39.88788162              -11.93299932
              19.48607670                7.72084715               58.33901160                0.00010000                1.18148692                1.46006992               -2.53430337               -8.47888773               66.86411809              -10.72915516
              20.50096608                6.54667932               58.32134246                0.00010000                1.89439027                1.65374524               -4.61320511               -8.67874375               65.64935231               -9.68894610
              21.52396450                5.37044790               58.29739481                0.00010000                2.71305181                1.91180810               -6.89549846               -8.34607227               64.95240247               -8.69603001
              22.55522712                4.19898594               58.27122118                0.00010000                3.52291072                2.36371213               -9.34905581               -7.42593091               64.73831260               -7.62161007
              23.59442272                3.04011145               58.24607126                0.00010000                4.30538188                3.00701939              -11.94581457               -5.65649229               64.86955768               -6.29945968
              24.64133476                1.90387983               58.22332241                0.06058890                4.54079206                3.78223105              -14.61104590               -2.58391320               60.61676158               -4.56326294
              25.68523856                0.80279312               58.11186478                0.18744876                4.08861382                4.69609588              -13.11197439               -0.27251615               29.31253439               -6.68237913
              26.72310703               -0.29259385               57.45461889                0.64491529                3.78684752                5.60478415              -15.15128458                0.35401153                2.76528731              -16.52582673
              17.55121216               12.04002574               59.45921726                0.68413769                0.01866532               -0.50438079                1.44254185               -0.08784091                0.10414264                5.44048181
              18.55139882               10.97085393               58.72004011                0.13839125                0.13961916                0.53532501               -1.55969776               -0.13329739                8.01518784               -4.82252078
              19.55400455                9.89769728               58.13906469                0.00010000                0.80578540                1.07177592               -0.67467259               -4.52744687               47.66409257              -10.93614334
              20.56751452                8.73630382               58.19664286                0.00010000                1.63720040                1.46055875               -2.61778041               -8.74603625               78.27062552               -9.21717744
              21.58674855                7.56443394               58.24088591                0.00010000                2.25407759                1.69003181               -4.85959657               -8.64814316               76.71892808               -7.87676622
              22.61259608                6.39144272               58.27667876                0.00010000                2.89039265                2.12275608               -7.31516535               -7.96225704               75.84773474               -6.68664117
              23.64455641                5.22508635               58.30982368                0.00010000                3.53883809                2.75856886               -9.97770726               -6.89063617               75.65861499               -5.34863746
              24.68337284                4.07251844               58.34549313                0.00010000                4.33570585                3.42278530              -12.84540064               -5.24322863               75.98538173               -3.53754074
              25.73127052                2.94274817               58.38607619                0.06521887                4.67816000                3.95335027              -15.86887731               -2.39817616               69.61495969               -1.03886373
              26.77693604                1.84881584               58.29271541                0.19363863                4.29240518                4.45212161              -13.27708012               -0.23762945               32.73425384               -3.83798213
              27.81711863                0.76184716               57.58659805                0.64847216                4.01825901                5.27471865              -15.52045312                0.24878535                2.89865242              -13.58477202
              18.61430828               13.03559148               59.31500107                0.67902986                0.17282217               -0.38290550                1.05459845               -0.08937065                0.12986998                5.39033724
              19.61603650               11.97712548               58.52494114                0.13187450                0.35146217                0.72161592               -2.19693417               -0.45991285               10.52595036               -4.88489592
              20.62133752               10.90816640               57.94267851                0.00010000                1.41914024                0.80594466               -0.40798742               -5.06615808               56.22419475               -9.49961174
              21.64441930                9.75005832               58.07028776                0.00010000                2.57633966                0.91235485               -2.52496086               -8.46993003               89.96866814               -7.19406384
              22.67286431                8.58047995               58.17801357                0.00010000                2.98238256                1.26579237               -4.89782245               -7.64654249               87.82143989               -5.72384004
              23.70406696                7.41290302               58.27334307                0.00010000                3.17371794                2.04850874               -7.45703766               -6.57027643               86.67223944               -4.55309535
              24.73633867                6.25415732               58.36586718                0.00010000                3.39146817                2.98969446              -10.25246374               -5.54472402               86.64388866               -3.24149134
              25.77189632                5.10856715               58.46482754                0.00010000                4.03675803                3.86199594              -13.34691328               -4.40928912               87.51223409               -1.27520627
              26.81707383                3.98294684               58.57521830                0.07016368                4.47453334                4.21206149              -16.74346874               -2.41786876               78.57419476                2.04648383
              27.86138699                2.89183556               58.49308953                0.19975161                4.24731414                4.12207907              -12.95665354               -0.43483173               35.79735401               -1.02258160
              28.90202012                1.81290053               57.73883092                0.65201004                4.06331308                4.91935155              -15.39790395                0.14408368                3.00629362              -10.73947359
              19.66635674               14.03236763               59.17087275                0.67387100                0.32688950               -0.25849344                0.66576757               -0.09068669               -0.08283934                4.68924374
              20.66962563               12.98528625               58.32804913                0.12538684                0.66959044                0.90720646               -2.84423791               -1.14863950               13.89890012               -4.38844100
              21.67974855               11.91381617               57.76462924                0.00010000                2.80883698               -0.36816113                0.05695614               -4.87053652               66.07250878               -6.48401926
              22.72580237               10.75455091               57.96761242                0.00010000                4.56122281               -0.47376437               -2.31833202               -6.26063653              101.86616478               -4.19439331
              23.77097300                9.58974979               58.13681177                0.00010000                4.08554060                0.61186912               -4.73787568               -4.86316601               98.54688002               -3.08093803
              24.80751318                8.43241290               58.28824487                0.00010000                3.35123969                1.84943003               -7.29220030               -3.81263943               96.99173857               -2.33324230
              25.83799780                7.28488024               58.43642976                0.00010000                2.94421758                3.12147714              -10.11008123               -3.13322686               97.13256928               -1.49781557
              26.86639753                6.14975836               58.59587691                0.00010000                3.08234745                4.31799715              -13.33951946               -2.74150721               99.10000858               -0.12429157
              27.89964474                5.02698940               58.78309223                0.07517128                3.59440898                5.01141672              -17.19439027               -2.03992943               87.93252362                2.86891769
              28.93828571                3.93125743               58.71387214                0.20592977                3.91128082                3.76086309              -12.22312398               -0.99400853               38.80612284                1.17389920
              29.97787036                2.86023419               57.91004311                0.65566760                3.95846468                4.55483547              -14.85948582               -0.00963017                2.86688336               -7.21991618
              20.70665730               15.03042161               59.01298854                0.83524666                0.49578717               -0.19460204                0.20911816                0.51485645                2.12476720                3.98693103
              21.71161517               13.99526961               58.14216506                0.56072447                2.40024150                0.99833603               -3.43891338               -2.28196766               20.11923196               -3.79464417
              22.75466213               12.90080318               57.63088386                0.46729643                6.58288920               -1.30129884                0.36944128               -5.24297079               77.51267728               -4.62643780
              23.84327295               11.74058303               57.90102394                0.44537255                7.15384425               -1.39678821               -2.10845580               -3.65723403              112.63641098               -2.15182318
              24.89773901               10.59271734               58.12213944                0.43838765                4.47053836                0.29675470               -4.39048887               -1.85796951              108.18891460               -1.47659235
              25.93268372                9.44989162               58.32225135                0.44382918                2.92948292                1.74787252               -6.79420975               -1.28947016              106.28874421               -1.01280263
              26.95632867                8.31658686               58.51800514                0.46163569                2.11366450                3.17066237               -9.48040990               -0.91513890              106.31502450               -0.51881946
              27.97495701                7.19492710               58.72628404                0.49274778                1.92237567                4.51687321              -12.64776983               -0.81463695              108.81249384                0.31022091
              28.99477618                6.08317517               58.97325410                0.53935979                1.66525112                5.61857697              -16.71574086               -1.88056997               97.27397496                2.50586413
              30.00826203                4.96705282               58.94219102                0.60494404                2.45489039                3.57953930              -11.19715052               -1.96126508               44.38324080                2.32870732
              31.04387399                3.90399724               58.11569131                0.82897559                3.56119594                4.37630494              -13.90230932                0.29480476                5.34842319               -4.71927510
              10.22600749                5.31019014               61.52961059                0.90283833               -1.16691746               -1.30703043                4.44107935               -0.31603166               -3.25615430                3.72454973
              11.21433832                4.12760809               61.11393337                0.67109124               -1.09934387               -0.78437793                3.04386698               -0.29590485               -4.57968656               -2.54255050
              12.20402062                2.94059002               60.67253658                0.53596753               -1.05720269               -0.41778086                1.51817580               -0.45545460               -4.61805979               -0.78325207
              13.19319427                1.74004135               60.25668742                0.47486074               -0.96070408               -0.02860335                0.07577512               -0.44716406               -2.44136881               -0.46269017
              14.18480654                0.52095510               59.85859637                0.44501743               -0.54932582                0.37892224               -1.42192326               -0.36228581               -0.77736399               -0.29357179
              15.18220775               -0.71582831               59.47499997                0.44364855                0.17090723                0.79170721               -2.96067390               -0.24162122                0.21666803               -0.06383528
              16.18822468               -1.96340232               59.09528694                0.47044388                1.03375032                1.20020592               -4.49553774               -0.18606864                0.00263926                0.16736395
              17.20288276               -3.21231984               58.70593785                0.52612207                1.79452552                1.59146983               -5.97770027               -0.20084918               -1.23484083                0.36678495
              18.22411519               -4.45561222               58.30012375                0.61312432                2.35318649                1.97371342               -7.42345045               -0.21896799               -2.98899088                0.43726275
              19.24994649               -5.69034409               57.87418245                0.73505175                2.76116281                2.35129766               -8.88653653               -0.22339646               -3.59585391                1.07213228
              20.27933845               -6.91705171               57.45430109                0.91685559                2.93919608                2.80330050              -10.32128566               -0.57190750               -3.17196471               -2.56813033
              11.40542922                6.29711983               61.35931131                0.75385779               -0.92498923               -1.29265019                3.90030843               -0.14213968                1.80714971                4.99426644
              12.39617933                5.11976431               60.93767967                0.25322956               -0.60898882               -0.63484374                2.49952282               -0.25374190                4.51427991               -4.53348259
              13.39324944                3.93641221               60.57078197                0.01243086                0.11803792                0.15573203                1.41576264               -1.13409755                7.80292146               -8.23498112
              14.39854009                2.73975531               60.21500139                0.00010000                0.79345309               -0.55226592                0.22572235               -2.17461160                9.13060756               -7.92467314
              15.40911851                1.52474432               59.87490804                0.00010000                1.17150790               -0.63318225               -0.96353931               -2.96426947               10.60582990               -7.58145884
              16.42197024                0.29208876               59.54905114                0.00010000                1.27456267               -0.35503047               -2.19112608               -3.31245256               11.46165692               -7.60517358
              17.43460976               -0.95140026               59.22634711                0.00010000                1.25044858                0.14924474               -3.41261782               -3.03271353               11.11998783               -7.45258742
              18.44697922               -2.19640514               58.89333978                0.00386928                1.31639365                0.75229787               -4.58239432               -2.16594659                9.76138156               -6.12853971
              19.46093763               -3.43587509               58.54248636                0.13228227                1.57265236                1.44564346               -5.72826133               -1.02000764                8.20711484                0.96371946
              20.47843226               -4.66683111               58.17705404                0.31498710                1.96946788                1.99092768               -6.88787235               -0.35962720                5.70360556                3.38475455
              21.50032699               -5.88901870               57.77465371                0.73157099                2.18947264                2.79195324               -8.16183987               -0.61437900                3.93599290               -4.75938618
              12.57787574                7.28433713               61.21528163                0.69959411               -0.79046362               -1.20723659                3.52872704               -0.11457215                0.27438931                5.97925697
              13.56997110                6.11491122               60.72206930                0.16091722               -0.82640349               -0.37381329                1.70801275               -0.05113544                4.81891825               -6.09140032
              14.56134767                4.94370466               60.32027097                0.00010000               -0.43005874                0.89087267                0.63456843               -2.43571860               14.59393083              -17.62157110
              15.56136993                3.72899603               60.02400756                0.00010000                0.59200156               -0.55037689               -0.57743981               -5.26233306               20.57761353              -15.53367700
              16.57318770                2.50829145               59.74511927                0.00010000                1.53666753               -1.11766045               -1.99292450               -6.12563543               21.59465049              -14.97679957
              17.59210328                1.27707108               59.47164167                0.00010000                2.14383085               -1.05810837               -3.47628111               -6.59212820               22.08820296              -15.05456558
              18.61606432                0.03958258               59.20406024                0.00010000                2.59676887               -0.57012889               -4.96217541               -6.06352039               23.01998338              -14.95351726
              19.64403865               -1.19727389               58.94957188                0.00010000                2.90383443                0.19042233               -6.33344017               -4.49667022               28.64086307              -13.41144878
              20.67414100               -2.42669935               58.79380996                0.03686263                2.59294513                1.22540352               -7.27338437               -2.58781884               28.04793556              -10.62235786
              21.69589756               -3.65052553               58.52428626                0.15545052                1.86425216                2.84149397               -5.00118732               -0.95605351               12.21708148               -7.51457592
              22.71142605               -4.86121264               58.04899941                0.62581757                1.55284906                4.59950034               -6.62560987               -0.54222631                1.97095272              -18.99659994
              13.74198961                8.27297510               61.06566504                0.69331907               -0.62005160               -1.06120214                3.10417203               -0.09441683                0.08853939                5.68774491
              14.73578909                7.11228805               60.51477144                0.15239107               -0.57696715               -0.17519190                1.02699022                0.20316492                3.35072645               -5.52844721
              15.73045026                5.95422967               60.02952217                0.00010000               -0.35412278                0.90565272                0.28138249               -2.76941521               20.82518137              -17.24216356
              16.72870663                4.72874778               59.83038517                0.00010000                0.40402418                0.33225251               -1.24006040               -6.20465285               33.95836195              -15.29213415
              17.73853075                3.50239111               59.61366988                0.00010000                1.50649609               -0.09705249               -2.90673647               -6.64554198               32.86512555              -14.69573565
              18.75883656                2.27092659               59.39701965                0.00010000                2.45767853               -0.11158572               -4.67876270               -6.96559563               32.99055101              -14.54470765
              19.78768432                1.03719717               59.18552298                0.00010000                3.22455932                0.25182209               -6.48149685               -6.58648057               34.05261224              -14.51927830
              20.82332774               -0.19259670               58.99115418                0.00010000                3.73742935                0.97295160               -8.18824295               -5.34298231               35.20445371              -14.83364451
              21.86243290               -1.41136702               58.80158345                0.03947913                3.52483706                2.18503023               -9.46165016               -3.18419639               35.37493937              -19.74933864
              22.89382448               -2.61000123               58.60712782                0.15621681                2.42118876                4.71644699               -9.73616352               -0.79288102               18.79101018              -19.71072030
              23.91085668               -3.79702869               58.08172231                0.62530277                1.70321958                6.78846706              -11.03927737                0.58473961                2.45754088              -30.01038190
              14.89736150                9.26311309               60.91666920                0.68841823               -0.45816717               -0.91702996                2.69820376               -0.09179740                0.09821724                5.73649288
              15.89277983                8.11140738               60.31045619                0.14594982               -0.39309344                0.00249083                0.35270779                0.17513849                4.21645508               -5.30425498
              16.88949964                6.96181772               59.78690365                0.00010000               -0.18322048                0.79271571                0.02467541               -3.38310981               27.19792409              -14.12490098
              17.88911542                5.73564108               59.64339865                0.00010000                0.42992024                0.90327714               -1.73996157               -7.23255243               45.21292394              -14.12069455
              18.89809804                4.50635040               59.48835782                0.00010000                1.44349440                0.78673615               -3.68652375               -7.52545593               44.07311888              -13.71967901
              19.91798531                3.27483937               59.32804069                0.00010000                2.48799775                0.85947493               -5.76502207               -7.61108938               43.68769349              -13.56107777
              20.94785800                2.04461902               59.16924916                0.00010000                3.38789389                1.25274287               -7.92502122               -7.11883175               43.86424495              -13.66592639
              21.98574319                0.82218515               59.01445860                0.00010000                4.00018067                2.03426141              -10.08342332               -5.73031700               44.27792644              -14.45570374
              23.02786161               -0.38299875               58.86388147                0.04368525                3.99792128                3.39582181              -12.17008888               -2.97882534               43.65880640              -15.21129425
              24.06570161               -1.55619659               58.69486246                0.16194030                3.46570781                5.52677965              -12.97191454               -0.53878355               22.74609754              -16.87833505
              25.09717577               -2.72544330               58.11940017                0.62869318                3.14741507                7.07163149              -14.52151231                0.82498933                2.99902338              -27.15377635
              16.04356508               10.25463450               60.76878342                0.68355721               -0.29778440               -0.78202224                2.29946833               -0.09165299                0.10084346                5.78452380
              17.04058723                9.11233787               60.10758393                0.13960921               -0.25053538                0.18496269               -0.31308317                0.07007231                5.74369950               -5.17720074
              18.03855437                7.97008398               59.55943262                0.00010000               -0.05321669                0.89971357               -0.11795869               -3.86284497               34.25081508              -12.89135467
              19.03952290                6.74681332               59.47220186                0.00010000                0.51344863                1.28446585               -2.09782702               -8.02676580               56.23598695              -12.58305841
              20.04882334                5.51812584               59.37414232                0.00010000                1.44116267                1.44826663               -4.30831408               -8.27781637               54.99179090              -12.27962615
              21.06834615                4.28811609               59.26945613                0.00010000                2.45692796                1.68571214               -6.68573336               -8.12347850               54.28811807              -12.02368974
              22.09796190                3.06225202               59.16241441                0.00010000                3.39965089                2.17794628               -9.20066688               -7.34592083               54.05096557              -11.90975403
              23.13633917                1.84808853               59.05605502                0.00010000                4.16381184                3.00880551              -11.81822194               -5.59038461               54.12078915              -11.84846472
              24.18123814                0.65654942               58.95142629                0.04806096                4.45770980                4.23524055              -14.46310958               -2.41063570               52.73934755              -11.65759609
              25.22549337               -0.49946564               58.81609493                0.16775150                4.23058705                5.68033215              -14.97769740               -0.10114631               27.10591958              -12.79107651
              26.26584988               -1.65559606               58.18987579                0.63208529                4.03565126                6.84584379              -16.69594006                0.62507156                3.34464910              -23.06277255
              17.18012172               11.24747265               60.62140345                0.67860775               -0.13899180               -0.65253656                1.90427570               -0.09177844                0.10495971                5.77990391
              18.17873180               10.11510663               59.90564031                0.13325992               -0.11772170                0.37046589               -0.97360632               -0.07955680                7.71907418               -5.09796413
              19.17776728                8.97981199               59.34224734                0.00010000                0.09032266                1.02437346               -0.08611024               -4.26586830               41.90232114              -11.85449141
              20.18053825                7.76133040               59.31475407                0.00010000                0.67358279                1.53103204               -2.29262164               -8.51849407               67.44361940              -11.09437732
              21.19123894                6.53531574               59.27451456                0.00010000                1.54256507                1.84369585               -4.74424400               -8.67278952               65.96201362              -10.52501781
              22.21138955                5.30855361               59.22599294                0.00010000                2.48641009                2.24561847               -7.38586966               -8.23834141               65.04699651              -10.02239836
              23.24096714                4.08817795               59.17349640                0.00010000                3.41242728                2.86239082              -10.21096004               -7.17217091               64.63193356               -9.48141927
              24.27963810                2.88236126               59.12057743                0.00010000                4.31179613                3.68710966              -13.19963360               -5.19295299               64.62961727               -8.75766781
              25.32720306                1.70170606               59.06963842                0.05251130                4.80930369                4.63793760              -16.24895861               -1.92875255               62.22126539               -7.68652140
              26.37582417                0.55741005               58.96731786                0.17353740                4.73674925                5.59400536              -16.05040483                0.12566008               31.42945872               -8.99519531
              27.42193805               -0.58852642               58.29020896                0.63555566                4.61138755                6.55582394              -17.95677705                0.47948963                3.60668176              -19.24025387
              18.30646153               12.24158377               60.47397839                0.67362725                0.01952239               -0.52637792                1.50981142               -0.09236514                0.10819251                5.71792854
              19.30665675               11.11974718               59.70407182                0.12706354                0.02758562                0.55951390               -1.63359911               -0.30036484               10.20460864               -5.05998347
              20.30701324                9.99057145               59.13607893                0.00010000                0.34962578                1.03791498                0.14326930               -4.66660267               50.22851110              -10.66701900
              21.31364927                8.77743396               59.17194969                0.00010000                1.05655487                1.50971715               -2.30379195               -8.70331302               78.91812144               -9.40932549
              22.32814434                7.55499975               59.19173651                0.00010000                1.85339229                1.88162714               -4.96728294               -8.52864514               77.10724050               -8.50320701
              23.35071712                6.33302846               59.20103308                0.00010000                2.62832475                2.47567798               -7.81619783               -7.73143514               76.00046264               -7.73016020
              24.38071083                5.11949984               59.20560257                0.00010000                3.41174387                3.27965068              -10.87961000               -6.49391762               75.56255682               -6.83754742
              25.41895199                3.92183072               59.21065930                0.00010000                4.34517301                4.12739005              -14.16259546               -4.61847465               75.68397703               -5.54469563
              26.46761429                2.74930817               59.21947081                0.05710271                4.96435319                4.82589088              -17.55502135               -1.65117997               71.81639670               -3.67240922
              27.51823906                1.61241447               59.14591738                0.17932604                4.98491621                5.34403876              -16.37939234                0.16063065               35.51844562               -5.43620435
              28.56731262                0.47552041               58.41786849                0.63892855                4.90735621                6.23515938              -18.49615865                0.33677140                3.77882388              -15.58827288
              19.42194759               13.23694509               60.32583153                0.66885196                0.17892333               -0.40231107                1.11127684               -0.09423991                0.13420109                5.66466358
              20.42373682               12.12629691               59.50247533                0.12080096                0.24004321                0.75361109               -2.29500194               -0.68872886               13.34285597               -5.12773441
              21.42674845               11.00057029               58.94317340                0.00010000                0.91534334                0.72307576                0.57217666               -5.19186436               59.43432763               -9.03025521
              22.44204369                9.79152474               59.04697347                0.00010000                1.91615402                0.93369702               -2.13652743               -8.29542050               90.70470789               -7.24462617
              23.46507153                8.57294828               59.12869430                0.00010000                2.51085373                1.47916715               -4.96763160               -7.43268648               88.34957965               -6.13630503
              24.49226077                7.35806717               59.19637969                0.00010000                2.86074964                2.40720784               -7.93825970               -6.28099314               86.96890654               -5.27752012
              25.52228653                6.15377096               59.25891836                0.00010000                3.25997546                3.48825535              -11.14608522               -5.09561088               86.62704069               -4.29781065
              26.55746027                4.96490906               59.32491818                0.00010000                4.06545959                4.51842053              -14.66042439               -3.71047621               87.17070280               -2.75226670
              27.60359572                3.79822388               59.39985029                0.06174216                4.76821353                5.05245075              -18.40620338               -1.61810238               81.42552252               -0.07142744
              28.65282454                2.66429082               59.34949744                0.18524468                4.94329335                4.99957702              -16.07626906               -0.06025989               39.30002074               -1.99001254
              29.70246159                1.53617676               58.57125564                0.64234861                4.96370416                5.86148570              -18.40402545                0.19153393                3.90218358              -12.09205179
              20.52587308               14.23353755               60.17775865                0.66370681                0.33838949               -0.27529343                0.71222735               -0.09513123               -0.08806821                4.92761274
              21.52925698               13.13481941               59.29898867                0.11470031                0.60375243                0.94730553               -2.96793468               -1.48136228               17.44456337               -4.60906083
              22.53794813               12.00503297               58.77064389                0.00010000                2.30529463               -0.60534061                1.16369212               -4.80285640               70.02745878               -5.99551782
              23.57536287               10.79610790               58.94672547                0.00010000                3.75000260               -0.34529917               -1.86423597               -6.00740146              102.70198508               -4.18915254
              24.61294818                9.58458310               59.08935090                0.00010000                3.44558524                0.87273021               -4.75994360               -4.64688959               99.32498229               -3.28666839
              25.64427457                8.38117262               59.21317142                0.00010000                2.95042730                2.21662781               -7.72370168               -3.60536754               97.54825245               -2.70760243
              26.67195673                7.18926495               59.33116775                0.00010000                2.80074870                3.57968788              -10.94415540               -2.81282420               97.29435240               -2.05423597
              27.70028955                6.01219913               59.45630970                0.00010000                3.19568766                4.86386136              -14.57900256               -2.18909616               98.69697105               -0.93792872
              28.73587048                4.85035719               59.60341797                0.06651880                3.93957154                5.67992207              -18.76812355               -1.37212425               91.37359274                1.53973552
              29.77908098                3.71240601               59.57805498                0.19120281                4.57504697                4.62160750              -15.23176113               -0.62425767               43.00453273                0.75520709
              30.82737142                2.59275013               58.74817824                0.64565515                4.82904422                5.44073452              -17.76925162               -0.00660343                3.73585725               -7.93493250
              21.61748125               15.23143922               60.01523684                0.83026572                0.51329074               -0.20983307                0.24121642                0.54119784                2.23238464                4.19026932
              22.62261416               14.14524302               59.10704574                0.55554503                2.59607887                1.04236184               -3.58628639               -2.81306849               24.33079450               -3.98823249
              23.66940283               12.98846348               58.64047495                0.46602256                5.98656847               -1.65694893                1.51809791               -4.88574315               82.17457896               -4.18121246
              24.74234553               11.78461876               58.88239446                0.44526418                5.88330964               -1.14891445               -1.62205177               -3.20476330              113.75800333               -2.13534224
              25.78706902               10.59040288               59.07839859                0.43842304                3.65630162                0.58197885               -4.36720576               -1.69886727              109.38638022               -1.56848043
              26.81547156                9.40239972               59.25250573                0.44358643                2.39672521                2.12271051               -7.15254994               -1.13220927              107.25314521               -1.19200928
              27.83500353                8.22536472               59.41951008                0.46068872                1.85572736                3.60997710              -10.21001417               -0.70599182              106.82487811               -0.79304402
              28.85258611                7.06218628               59.59423629                0.49045230                2.04714153                4.99871508              -13.74843664               -0.44746335              108.54242568               -0.10593003
              29.87594636                5.91182232               59.79895395                0.53496146                2.26801700                6.14651359              -18.11693759               -1.26557764              101.01429871                1.69670318
              30.89794645                4.75672297               59.81756008                0.59750732                3.28474604                4.43169650              -13.98332902               -1.45499619               49.00653281                2.23817177
              31.94164128                3.64499145               58.96432715                0.82394805                4.36948295                5.22413252              -16.58378891                0.25383394                6.29882573               -5.04426382
              10.61540577                5.52118137               62.57475330                0.89475256               -1.20516470               -1.35093798                4.58972961               -0.32907885               -3.40006626                3.87715361
              11.60335412                4.28049568               62.14484210                0.66106144               -1.13441273               -0.80762493                3.13842797               -0.31112278               -4.78993277               -2.67724764
              12.59271751                3.03515513               61.68790041                0.53163031               -1.06815785               -0.43189068                1.55399518               -0.45088889               -4.85501307               -0.75568512
              13.58199096                1.77629833               61.25733589                0.47340957               -0.93174188               -0.02523317                0.05524599               -0.43854676               -2.66922421               -0.47178208
              14.57408267                0.49939300               60.84398385                0.44476429               -0.48913520                0.39622247               -1.49826960               -0.35403507               -1.05910435               -0.29644288
              15.57220826               -0.79439885               60.44472399                0.44341188                0.24385317                0.82428143               -3.09246758               -0.24210007               -0.08835489               -0.06753212
              16.57895974               -2.09823834               60.04938174                0.46890834                1.10534009                1.24796221               -4.68481166               -0.19092961               -0.27536587                0.16268346
              17.59431506               -3.40304179               59.64491786                0.52230901                1.86782246                1.65461713               -6.22515245               -0.20254408               -1.46667094                0.36744323
              18.61631619               -4.70208403               59.22434256                0.60549512                2.43967504                2.05177915               -7.72771614               -0.21828463               -3.20998490                0.43959727
              19.64310856               -5.99245292               58.78345224                0.72171745                2.86905824                2.44580105               -9.25282516               -0.22594503               -3.81091766                1.08441952
              20.67369735               -7.27453979               58.34893210                0.90780990                3.05887904                2.91254992              -10.74532929               -0.59882769               -3.37443664               -2.69757088
              11.85280067                6.50767199               62.39895654                0.73983312               -0.95446616               -1.33956549                4.03015969               -0.15163457                1.94424338                5.23413406
              12.84325601                5.27241943               61.96306074                0.23644716               -0.62466873               -0.64911759                2.57662044               -0.27413649                4.81255752               -4.79497077
              13.84030729                4.03083623               61.58512092                0.00637241                0.11152779                0.17295264                1.45022608               -1.18323193                8.21156049               -8.54286105
              14.84548656                2.77604600               61.21722669                0.00010000                0.77918100               -0.56017498                0.21902583               -2.29223859                9.49085249               -8.40851537
              15.85589091                1.50335522               60.86502421                0.00010000                1.15581818               -0.63335504               -1.01397407               -3.10767658               10.95253845               -8.34541142
              16.86860293                0.21384396               60.52668896                0.00010000                1.27404983               -0.35155431               -2.28415021               -3.45353708               11.79454927               -8.67647236
              17.88137191               -1.08575872               60.19156036                0.00010000                1.28047683                0.15666705               -3.54847354               -3.16700028               11.48017504               -8.84168972
              18.89421246               -2.38649562               59.84665637                0.00010000                1.37334968                0.77870669               -4.76056533               -2.29521754               10.15527139               -7.80900068
              19.90883890               -3.68156624               59.48414355                0.12084301                1.64322630                1.55400570               -5.94482011               -1.08101749                8.60251935               -0.89128321
              20.92707699               -4.96799491               59.10690994                0.29498902                2.04785195                2.09266988               -7.14463495               -0.36785909                6.03416056                3.31009552
              21.94979594               -6.24541429               58.69153385                0.71795787                2.27189540                2.92212730               -8.46625321               -0.64370899                4.21124369               -5.22908507
              13.08287820                7.49439006               62.25118312                0.68783014               -0.81710481               -1.25406409                3.65096891               -0.11915176                0.26152803                6.27727487
              14.07470715                6.26751332               61.73938888                0.14790824               -0.87259489               -0.37702715                1.75641188               -0.06310280                5.19914988               -6.42154646
              15.06542630                5.03861419               61.32687255                0.00010000               -0.55399762                0.90543974                0.69294398               -2.58308506               15.28317875              -18.00803688
              16.06362720                3.76509483               61.01831510                0.00010000                0.43524399               -0.54539315               -0.55059548               -5.55457412               21.04923616              -16.43821803
              17.07413118                2.48672590               60.72473972                0.00010000                1.43121309               -1.10176494               -2.07737594               -6.43002792               21.89433536              -16.46361654
              18.09225146                1.19857006               60.43582714                0.00010000                2.09140678               -1.03066496               -3.68273502               -6.89006351               22.33019176              -17.17159887
              19.11595931               -0.09510500               60.15269842                0.00010000                2.59833852               -0.52409142               -5.31050085               -6.32973431               23.28711774              -17.73259577
              20.14421823               -1.38746766               59.88359773                0.00010000                3.01179061                0.29261416               -6.87323238               -4.65992429               29.07769189              -16.85063332
              21.17619513               -2.67100392               59.71575627                0.02963241                2.76906004                1.44225309               -8.39099036               -2.70460110               30.59989710              -14.45440855
              22.19959943               -3.95059952               59.47299497                0.14227727                1.97334030                3.28474557               -5.30097764               -1.01616910               14.59708607              -11.31329834
              23.21566193               -5.21609724               58.98132856                0.61699299                1.60625030                5.10828178               -6.93266478               -0.46220803                2.22189673              -23.05961167
              14.30417110                8.48259071               62.09726196                0.68208641               -0.64012797               -1.10218106                3.21333249               -0.09986220                0.09116306                5.96502025
              15.29776982                7.26487888               61.52516155                0.13986223               -0.65535081               -0.17394114                1.05132202                0.16106457                4.10528316               -5.79647126
              16.29106408                6.04894502               61.03374469                0.00010000               -0.57432246                0.86238936                0.60487730               -2.93329769               21.78889549              -17.38855889
              17.28628337                4.76513814               60.81833383                0.00010000                0.13755202                0.36582622               -1.15307249               -6.47321266               34.32809553              -16.05568262
              18.29381512                3.48131992               60.58402494                0.00010000                1.31745908               -0.01906895               -3.01266259               -6.91990157               33.09502594              -16.07221849
              19.31263255                2.19323066               60.34867588                0.00010000                2.34999097                0.01707638               -4.98364408               -7.22090731               33.12016852              -16.57313567
              20.34081494                0.90375945               60.11805365                0.00010000                3.21401698                0.44704121               -7.01259003               -6.78819328               34.16415177              -17.25341650
              21.37691289               -0.38064334               59.90522959                0.00010000                3.85319015                1.26735269               -9.01798392               -5.44432113               35.56281158              -18.33478174
              22.41787875               -1.65272118               59.70198316                0.03209352                3.74670203                2.60149932              -10.51981946               -3.14664687               36.37864251              -24.10940707
              23.45184693               -2.90230000               59.50179589                0.14323065                2.68342387                5.56151899              -11.48586887               -0.67715380               19.96521214              -26.32978290
              24.47154722               -4.14324865               58.96419900                0.61657478                1.97002910                7.71235858              -12.60802527                0.84900766                3.43936721              -36.77160726
              15.51630460                9.47234644               61.94414794                0.67718166               -0.47304745               -0.95318229                2.79674738               -0.09691731                0.10160180                6.02576755
              16.51157412                8.26403450               61.31398218                0.13377085               -0.49017530                0.00902115                0.35267882                0.07633504                5.36191381               -5.56389618
              17.50650109                7.05586197               60.78932129                0.00010000               -0.48930402                0.73375596                0.50303761               -3.55856360               28.53218730              -14.22895715
              18.50178804                5.77241136               60.62669614                0.00010000                0.05697643                0.94738500               -1.57873704               -7.43750382               45.52819475              -14.75852160
              19.50764062                4.48634452               60.45085656                0.00010000                1.18028704                0.91449257               -3.80397316               -7.74045799               44.22247017              -14.96513950
              20.52539378                3.19891159               60.26842911                0.00010000                2.32144145                1.07749260               -6.14998368               -7.79134179               43.69710723              -15.45518287
              21.55406945                1.91383582               60.08660130                0.00010000                3.32093260                1.58051660               -8.60490172               -7.23440760               43.77916361              -16.27650802
              22.59181243                0.63787940               59.90865276                0.00010000                4.04247009                2.49666351              -11.10290297               -5.74610854               44.16791026              -17.89171710
              23.63491885               -0.61897393               59.73536525                0.03625648                4.23856976                4.04579281              -13.62172489               -2.73748867               44.06434796              -19.74616412
              24.67658383               -1.83936914               59.55341214                0.14864718                3.98102737                6.44584975              -15.49449881               -0.25707492               23.63876194              -21.97377527
              25.71453940               -3.06185007               58.96308294                0.61977809                3.79555680                8.04679411              -16.93045129                1.10433145                3.94468427              -32.65235730
              16.71885662               10.46352706               61.79221583                0.67249076               -0.30756414               -0.81321159                2.38789935               -0.09465794                0.10503471                6.07920412
              17.71578098                9.26505931               61.10432916                0.12775209               -0.36703338                0.19686544               -0.33728194               -0.07847309                7.32611039               -5.42987506
              18.71151596                8.06362014               60.56106009                0.00010000               -0.43651152                0.85663859                0.49768714               -4.06027739               36.01989265              -12.86965175
              19.70705075                6.78408584               60.45225051                0.00010000                0.04948871                1.34002021               -1.87739743               -8.15582741               56.54321436              -13.09648467
              20.71250573                5.49960978               60.33040977                0.00010000                1.11318294                1.61201272               -4.43053600               -8.39892295               55.09466986              -13.36664891
              21.72931441                4.21478052               60.20033428                0.00010000                2.23266274                1.97556954               -7.13196042               -8.18555886               54.20619898              -13.72552479
              22.75715899                2.93536978               60.06643604                0.00010000                3.27430322                2.61667869               -9.99555913               -7.31393642               53.78280881              -14.29423260
              23.79480048                1.66928994               59.93198663                0.00010000                4.16092635                3.62372097              -13.02546251               -5.40572526               53.70941799              -15.01922226
              24.84037751                0.42819468               59.79871169                0.04037188                4.73905503                5.05394114              -16.18357521               -1.92860766               53.15584455              -15.69153841
              25.88958158               -0.77338300               59.65204700                0.15423234                4.91090997                6.62179560              -18.05455112                0.30829593               28.21872731              -16.70068027
              26.93859571               -1.98231277               59.00939340                0.62299358                4.90141358                7.82292252              -19.63414627                0.85297694                4.37165167              -27.33308836
              17.91134694               11.45608220               61.64083235                0.66792755               -0.14353666               -0.67854177                1.98189252               -0.09441288                0.10984816                6.07615814
              18.90991158               10.26797181               60.89565895                0.12170271               -0.25389662                0.38799709               -1.02216203               -0.27389972                9.83105758               -5.34710603
              19.90626901                9.07299475               60.34500180                0.00010000               -0.36148586                0.99053469                0.67069540               -4.47895584               44.19714483              -11.65560634
              20.90268186                7.79921176               60.29315917                0.00010000                0.13492343                1.59060334               -2.01917035               -8.56206768               67.75985645              -11.45203052
              21.90896748                6.51858477               60.22645758                0.00010000                1.16203676                2.02901442               -4.86523355               -8.67422656               66.07137464              -11.41840574
              22.92592260                5.23842298               60.14967742                0.00010000                2.21569107                2.58361274               -7.87219781               -8.14952593               64.93603907              -11.47142289
              23.95328130                3.96616940               60.06700198                0.00010000                3.24752192                3.37718256              -11.08862178               -6.95234130               64.27357430              -11.54097602
              24.99087303                2.71035382               59.98207859                0.00010000                4.28691659                4.39969250              -14.53418987               -4.78404191               64.07284903              -11.50148148
              26.03901963                1.48210489               59.89834324                0.04463149                5.11920824                5.54467203              -18.12487060               -1.26620895               62.98251948              -11.15453908
              27.09325720                0.29306677               59.79085668                0.15979399                5.52194204                6.56475884              -19.50929417                0.59145897               33.00184296              -11.94181775
              28.14945847               -0.90539162               59.09548334                0.62620840                5.62012756                7.56738927              -21.26094669                0.66401947                4.70810621              -22.58764469
              19.09318916               12.44995622               61.48941349                0.66325934                0.02012907               -0.54888577                1.57680959               -0.09580979                0.11235247                6.01115827
              20.09339045               11.27281925               60.68736813                0.11567056               -0.12461335                0.58410641               -1.70612502               -0.54426070               12.94325849               -5.30857366
              21.09069689               10.08343084               60.14193008                0.00010000               -0.15855365                1.00007974                1.03861870               -4.88322132               53.15363932              -10.27916391
              22.09021937                8.81589790               60.15056702                0.00010000                0.45565453                1.55891281               -1.98315816               -8.64650372               79.27080384               -9.58965582
              23.09980998                7.54019006               60.14154025                0.00010000                1.42599469                2.07773462               -5.07690500               -8.39814612               77.28715160               -9.17201768
              24.11873927                6.26645277               60.12035480                0.00010000                2.31856727                2.83956498               -8.31650126               -7.49890994               75.94627492               -8.87107716
              25.14618132                5.00291344               60.09223148                0.00010000                3.22224374                3.82332632              -11.79515733               -6.10546450               75.21087327               -8.48856702
              26.18318414                3.75728378               60.06224122                0.00010000                4.30795277                4.87587972              -15.55302342               -4.01599529               75.08145157               -7.78269293
              27.23234038                2.53908812               60.03497577                0.04897458                5.28615635                5.77331159              -19.47426027               -0.86931120               73.11059469               -6.57546450
              28.28890727                1.35791218               59.96512757                0.16539511                5.82262515                6.34154654              -20.05981610                0.63358739               37.68418410               -7.53146527
              29.34879288                0.16903501               59.21667488                0.62949145                5.98856140                7.30706759              -22.01332326                0.46672983                4.93059739              -18.10532295
              20.26370470               13.44510449               61.33722661                0.65862811                0.18470515               -0.42208289                1.16794033               -0.09774685                0.14052154                5.95532298
              21.26555175               12.27965394               60.47904111                0.10976843                0.09106145                0.78576857               -2.39171033               -0.99334679               16.80961203               -5.38317703
              22.26552593               11.09299634               59.95412204                0.00010000                0.37204033                0.65867121                1.57637319               -5.36999455               63.09441833               -8.46547609
              23.27299256                9.83039002               60.02755721                0.00010000                1.24618803                0.97244876               -1.77416718               -8.09705941               91.12054519               -7.26674004
              24.29044969                8.56013946               60.07866094                0.00010000                2.01142329                1.70610344               -5.05222845               -7.19795052               88.68244201               -6.56899256
              25.31322102                7.29521428               60.11457788                0.00010000                2.49456543                2.78410160               -8.42040080               -5.97907141               87.07846702               -6.06574370
              26.34034100                6.04263592               60.14294547                0.00010000                3.05787095                4.01451821              -12.04648434               -4.63888189               86.37833685               -5.46480859
              27.37437844                4.80787141               60.17161906                0.00010000                4.03320103                5.21989461              -16.02626643               -3.00811021               86.56336705               -4.38791741
              28.42100502                3.59757113               60.20709423                0.05339506                5.08018044                5.97961664              -20.25909757               -0.74713823               83.36569254               -2.38403814
              29.47598205                2.41989770               60.17156415                0.17089188                5.77711862                6.01933751              -19.82879523                0.39437159               42.16054162               -3.29005932
              30.53654739                1.24074973               59.37075041                0.63280452                6.05653394                6.97145045              -22.00133940                0.26260765                5.09049407              -13.79760443
              21.42213532               14.44151457               61.18511729                0.65378817                0.34963376               -0.29169475                0.76000000               -0.09887012               -0.09347190                5.18130771
              22.42563166               13.28853462               60.26869044                0.10424113                0.52127989                0.98684395               -3.09169776               -1.87345518               21.69962338               -4.84358298
              23.43256092               12.09660426               59.78790308                0.00010000                1.77517018               -0.77397669                2.21095247               -4.79543392               74.46665387               -5.45379486
              24.46113506               10.83534688               59.93032770                0.00010000                2.92328932               -0.19258979               -1.46590703               -5.73876546              103.21425561               -4.13636069
              25.49102670                9.57431213               60.04161290                0.00010000                2.77631588                1.15564401               -4.80684007               -4.41532135               99.93867516               -3.49804909
              26.51666138                8.32213480               60.13377083                0.00010000                2.48599260                2.60842604               -8.15374276               -3.38471115               97.96529169               -3.11080133
              27.54074656                7.08320380               60.21754666                0.00010000                2.57126788                4.07026998              -11.77175806               -2.48492242               97.27989388               -2.66334251
              28.56808674                5.86168168               60.30429686                0.00010000                3.23123843                5.45419565              -15.83892358               -1.62700703               98.09365974               -1.82789391
              29.60537132                4.65868045               60.40772976                0.05798825                4.27646787                6.42330727              -20.43400727               -0.63247040               93.94254593                0.11304416
              30.65361609                3.47829893               60.40923692                0.17660637                5.34848251                5.64541709              -18.87234990               -0.15894975               46.57389162                0.15666446
              31.71234097                2.30846402               59.55465808                0.63588923                5.87248813                6.50322048              -21.26058097                0.00495862                4.91285850               -8.83054941
              22.56768719               15.43927059               61.01781287                0.82522369                0.53057631               -0.22439727                0.27390042                0.56720951                2.34576275                4.40689181
              23.57299295               14.29939082               60.07043933                0.55030549                2.75588998                1.08561973               -3.73314776               -3.35155957               29.27161731               -4.19551259
              24.62280499               13.07751681               59.66124582                0.46495271                5.37582112               -1.90874525                2.55152662               -4.61822240               87.25001177               -3.65019425
              25.68050938               11.82653822               59.86858291                0.44497815                4.62751736               -0.88086578               -1.21368477               -2.77579152              114.60226182               -2.07882447
              26.71535534               10.58325234               60.03479533                0.43845432                2.80628782                0.89402127               -4.37361749               -1.52490751              110.48436002               -1.65650119
              27.73663513                9.34738280               60.17920036                0.44339441                1.78701692                2.52479984               -7.50156025               -0.96317554              108.15890666               -1.38083487
              28.75109568                8.12404132               60.31380486                0.45963243                1.48632578                4.08375241              -10.91114295               -0.48646179              107.24420737               -1.08589371
              29.76636165                6.91695532               60.45131530                0.48819071                2.03213430                5.52736475              -14.82755288               -0.07271136              108.17600769               -0.54796206
              30.79173836                5.72603727               60.61091535                0.53067630                2.83289187                6.73568175              -19.51329627               -0.57076021              103.98452235                0.88135336
              31.82301949                4.53280604               60.66252444                0.59025381                4.22890021                5.45071182              -17.32124874               -0.82081715               53.01813472                2.04783699
              32.87631637                3.37081414               59.78401553                0.81902598                5.32968805                6.23501179              -19.75584917                0.19834905                7.56580229               -5.44921751
              11.01782857                5.73932673               63.62140518                0.88690265               -1.24360086               -1.39540407                4.73947901               -0.34237341               -3.55191214                4.03490324
              12.00539256                4.43762587               63.17670193                0.65099825               -1.17009996               -0.83077519                3.23359756               -0.32721774               -5.00925716               -2.81659950
              12.99442657                3.13103529               62.70361649                0.52751375               -1.08331083               -0.44524403                1.58961495               -0.45127537               -5.10058396               -0.72826922
              13.98372634                1.81082410               62.25779234                0.47189139               -0.90951060               -0.02183050                0.03729554               -0.43173750               -2.90453608               -0.47941788
              14.97623635                0.47294553               61.82863098                0.44455304               -0.43417900                0.41346944               -1.57032065               -0.34958560               -1.34896251               -0.29904800
              15.97504276               -0.88110891               61.41315062                0.44318351                0.31435647                0.85650689               -3.21914775               -0.24433878               -0.40370186               -0.07139766
              16.98252348               -2.24450589               61.00159070                0.46767062                1.17728785                1.29551564               -4.86668678               -0.19471582               -0.56602241                0.15924818
              17.99858852               -3.60844798               60.58143480                0.51857461                1.94288172                1.71829607               -6.46321934               -0.20452506               -1.70959692                0.36786579
              19.02138112               -4.96642226               60.14556942                0.59778260                2.52750402                2.13077975               -8.02440006               -0.22082303               -3.44392084                0.44090732
              20.04913860               -6.31557110               59.68912595                0.70854635                2.97544410                2.53991615               -9.60844187               -0.23055998               -4.04096748                1.09830454
              21.08089000               -7.65620662               59.23939451                0.89907837                3.17514026                3.02097601              -11.15615633               -0.62214748               -3.59095804               -2.83485727
              12.31610569                6.72537269               63.43991451                0.72619919               -0.98395943               -1.38747609                4.15967593               -0.16214650                2.08654252                5.48452555
              13.30626610                5.42931812               62.98921208                0.21973334               -0.63954973               -0.66231943                2.65297476               -0.29588586                5.12124055               -5.06553018
              14.30331470                4.12658285               62.59978650                0.00043258                0.10938760                0.19424309                1.48397295               -1.25269334                8.63687429               -8.83347155
              15.30845385                2.81060580               62.21938190                0.00010000                0.76961534               -0.58497862                0.21068987               -2.43707510                9.86813344               -8.87474982
              16.31870700                1.47708022               61.85462856                0.00010000                1.14356139               -0.64635651               -1.06617950               -3.29118138               11.31364898               -9.13455954
              17.33132508                0.12745616               61.50336813                0.00010000                1.27694277               -0.36194493               -2.38149872               -3.64626460               12.14271331               -9.81905380
              18.34424586               -1.23155073               61.15537764                0.00010000                1.30881876                0.14716300               -3.68955164               -3.36042870               11.85546937              -10.35863266
              19.35750145               -2.59126502               60.79812847                0.00010000                1.42442933                0.77941043               -4.94653875               -2.48088041               10.56806377               -9.70456201
              20.37273445               -3.94511446               60.42358996                0.10950736                1.71118642                1.63975655               -6.17294758               -1.17731684                9.02155549               -3.26093199
              21.39172518               -5.29017194               60.03416134                0.27526851                2.12848024                2.19468241               -7.41307058               -0.38770054                6.38335846                3.14600902
              22.41530405               -6.62599686               59.60532864                0.70463261                2.35788702                3.05682989               -8.78128482               -0.66715185                4.50103280               -5.77248494
              13.60669478                7.71157721               63.28830100                0.67629902               -0.84301035               -1.30309983                3.77098442               -0.12437246                0.24724052                6.58830231
              14.59826468                6.42437948               62.75719754                0.13521318               -0.93048784               -0.37763952                1.80480246               -0.07555633                5.62307838               -6.76320989
              15.58808502                5.13492016               62.33412985                0.00010000               -0.68886017                0.87134459                0.77261458               -2.77568839               16.04004901              -18.23685125
              16.58448747                3.79912453               62.01299566                0.00010000                0.27386713               -0.56763531               -0.50595414               -5.91836559               21.53078339              -17.30648339
              17.59356237                2.46001839               61.70357175                0.00010000                1.31304720               -1.11251594               -2.15076413               -6.80450606               22.16496342              -18.00112172
              18.61074842                1.11165219               61.39798697                0.00010000                2.02368608               -1.02971218               -3.87890802               -7.28474419               22.53197860              -19.42950674
              19.63403609               -0.24156263               61.09785023                0.00010000                2.58931119               -0.51116592               -5.65340285               -6.71720885               23.47488517              -20.76138789
              20.66253464               -1.59285977               60.81210723                0.00010000                3.13528056                0.34588262               -7.42424948               -4.94557433               29.19744457              -20.69582331
              21.69674170               -2.93362713               60.62599015                0.02229387                2.98661754                1.59751611               -9.55786921               -2.90563355               33.32707471              -18.85658272
              22.72226699               -4.27167745               60.41826671                0.12941444                2.12275601                3.65789405               -5.71597928               -1.11275981               17.46544361              -16.03544762
              23.73919682               -5.59507003               59.91034612                0.60807288                1.69298269                5.58908223               -7.31302031               -0.36256991                2.57197734              -27.93677269
              14.88801370                8.69931069               63.12993169                0.67066434               -0.66016735               -1.14513179                3.32167639               -0.10302278                0.09556545                6.25635961
              15.88141202                7.42176533               62.53579788                0.12775806               -0.74789070               -0.17088202                1.07713170                0.06395658                5.07304868               -6.07547478
              16.87305588                6.14400975               62.04161971                0.00010000               -0.82118626                0.75015095                1.00286736               -3.15839189               22.86408763              -17.32987069
              17.86498830                4.79925309               61.80732372                0.00010000               -0.14833311                0.37147232               -1.04126839               -6.77616369               34.57033408              -16.77593615
              18.87008922                3.45482990               61.55341662                0.00010000                1.11114575                0.03221949               -3.10179604               -7.25695350               33.24568205              -17.49966569
              19.88721121                2.10686191               61.29734676                0.00010000                2.21622115                0.12125608               -5.27152520               -7.55848222               33.16169191              -18.73734241
              20.91441364                0.75822595               61.04527117                0.00010000                3.17216267                0.61345459               -7.53280628               -7.10138754               34.12951212              -20.22004753
              21.95065447               -0.58434737               60.81079451                0.00010000                3.95129041                1.52267670               -9.86574886               -5.67936429               35.74875869              -22.17874010
              22.99343945               -1.91316414               60.59118706                0.02482166                4.01292088                2.94882823              -11.67754436               -3.25095981               36.95238049              -28.79192265
              24.03091288               -3.21701406               60.37741044                0.13058366                3.06991767                6.28771204              -13.47591916               -0.62794525               20.92621051              -34.32438571
              25.05483781               -4.51421522               59.82956181                0.60800534                2.39249212                8.56925863              -14.40462081                1.15643577                4.71684801              -44.88168508
              16.15972506                9.68867457               62.97260414                0.66627181               -0.48803002               -0.98882621                2.89524380               -0.10000284                0.10543847                6.33194449
              17.15484476                8.42096184               62.31750976                0.12179689               -0.61478160                0.01491333                0.35356252               -0.09491211                6.81775856               -5.83450068
              18.14742942                7.14992318               61.79696440                0.00010000               -0.83503559                0.65003475                1.05579024               -3.82164374               30.03915903              -14.20651567
              19.13814404                5.80655397               61.61182391                0.00010000               -0.33074765                0.95837540               -1.39434164               -7.66055900               45.65837745              -15.37094960
              20.14081447                4.46066278               61.41227836                0.00010000                0.90193382                1.01809730               -3.90623316               -7.99664571               44.24620801              -16.26466853
              21.15618272                3.11407731               61.20504102                0.00010000                2.12015730                1.27476862               -6.51547415               -8.03618385               43.58472707              -17.47988415
              22.18321762                1.77070647               60.99715112                0.00010000                3.20773626                1.88703709               -9.27092965               -7.44657350               43.52626313              -19.10427642
              23.22033745                0.43759376               60.79240054                0.00010000                4.05857863                2.93128115              -12.14679808               -5.88798056               43.78691596              -21.64320842
              24.26438919               -0.87465056               60.59144698                0.02884642                4.52108613                4.64523988              -15.21102692               -2.63308815               43.78640722              -24.80693673
              25.31075917               -2.14592321               60.38497249                0.13569593                4.61693357                7.30451354              -18.27164902               -0.03804905               24.11899511              -28.06685756
              26.35672786               -3.42368485               59.78079114                0.61111937                4.59686929                8.97784894              -19.64340732                1.41145019                5.09480402              -39.20381306
              17.42143911               10.67953417               62.81654141                0.66187632               -0.31739248               -0.84382136                2.47453769               -0.10003600                0.10757762                6.38971260
              18.41826518                9.42206359               62.10083829                0.11609921               -0.52041144                0.20818520               -0.35937000               -0.30924887                9.31030010               -5.69305060
              19.41103088                8.15701044               61.56938636                0.00010000               -0.86138354                0.79533503                1.18019469               -4.34312291               38.03005129              -12.74576015
              20.40103751                6.81842060               61.43465391                0.00010000               -0.41989528                1.37096485               -1.65123036               -8.28415177               56.62009311              -13.60338526
              21.40263297                5.47519185               61.28553160                0.00010000                0.77031729                1.75771756               -4.54550091               -8.53648028               55.04915565              -14.51163105
              22.41644386                4.13235729               61.12681692                0.00010000                1.96663764                2.25136575               -7.55962280               -8.29209691               53.98313393              -15.55234594
              23.44196572                2.79596669               60.96250323                0.00010000                3.09040146                3.04282588              -10.77517127               -7.36295949               53.31584993              -16.88510447
              24.47825188                1.47427825               60.79554577                0.00010000                4.11644683                4.22416392              -14.26340363               -5.34048322               52.97714352              -18.50944658
              25.52429466                0.17974066               60.62775479                0.03280236                5.04671558                5.85008827              -18.07145216               -1.57579330               52.72066522              -20.17675310
              26.57918620               -1.07092379               60.45500391                0.14092341                5.71477196                7.57081680              -21.48102128                0.67814310               28.80537979              -21.51407844
              27.63859010               -2.33465824               59.79719286                0.61407806                5.94039034                8.80620324              -22.98184792                1.13250381                5.64755280              -32.50783733
              18.67266549               11.67179815               62.66104130                0.65733918               -0.14819789               -0.70607459                2.05884216               -0.09925037                0.11359685                6.38758432
              19.67118351               10.42512555               61.88519707                0.11043508               -0.42277613                0.40649791               -1.06872745               -0.56140560               12.42417065               -5.60713145
              20.66420996                9.16582988               61.35566124                0.00010000               -0.84519525                0.94287411                1.44627390               -4.76480069               46.78664549              -11.36350078
              21.65427960                7.83397327               61.27437066                0.00010000               -0.40308935                1.64110985               -1.76768144               -8.57975400               67.81761657              -11.81156099
              22.65614818                6.49581714               61.17720989                0.00010000                0.76431660                2.20820952               -4.99210446               -8.67010113               66.02479853              -12.36780956
              23.66956593                5.15910463               61.06854899                0.00010000                1.89446405                2.91745878               -8.34333079               -8.08733128               64.67758310              -13.03455384
              24.69403746                3.83156298               60.95172396                0.00010000                3.00939407                3.89091546              -11.95118586               -6.79757129               63.70110702              -13.79155147
              25.72975382                2.52207704               60.82989363                0.00010000                4.20189529                5.11790726              -15.90602460               -4.48134619               63.17872378              -14.53277074
              26.77807536                1.24235120               60.70714101                0.03677524                5.44835575                6.46536182              -20.20572780               -0.69693667               62.76248465              -15.01307634
              27.83872093                0.00549313               60.57713198                0.14631232                6.43857424                7.60007417              -23.41871130                1.05627208               33.94572615              -15.66373900
              28.90684685               -1.24756079               59.86499002                0.61714229                6.81259177                8.64025629              -25.05800355                0.90660074                6.09982009              -26.70338671
              19.91279930               12.66541268               62.50551458                0.65282737                0.02060393               -0.57252017                1.64330842               -0.09873538                0.11753165                6.32141293
              20.91300534               11.43019355               61.66994931                0.10460133               -0.29560813                0.60927586               -1.77676946               -0.88473165               16.24123114               -5.56948356
              21.90688714               10.17586792               61.15685130                0.00010000               -0.67750847                0.97289441                1.86346257               -5.15200054               56.43488163               -9.81280998
              22.89945517                8.85124279               61.13228653                0.00010000               -0.13937718                1.62279942               -1.72166989               -8.54378931               79.34929400               -9.77335734
              23.90409959                7.51935604               61.09019841                0.00010000                0.97481060                2.28393227               -5.20813209               -8.24923991               77.32354526               -9.88501859
              24.91895138                6.19070646               61.03470305                0.00010000                1.94711452                3.21158167               -8.80618907               -7.27956985               75.75430056              -10.10524800
              25.94304188                4.87378500               60.96969942                0.00010000                2.94426799                4.37983157              -12.69582005               -5.76477154               74.65084669              -10.30008366
              26.97783674                3.57663640               60.89959883                0.00010000                4.19489780                5.65090118              -16.98550437               -3.49560316               74.14986721              -10.25997488
              28.02693984                2.30904790               60.82998560                0.04097112                5.61934444                6.77189635              -21.62862938               -0.13347929               73.35015621               -9.78530865
              29.09022363                1.08107770               60.74472105                0.15150179                6.79450532                7.44435803              -24.29136589                1.13786243               39.16210212              -10.26699405
              30.16282995               -0.16185312               59.97760202                0.62027725                7.26063160                8.49011288              -26.10473755                0.65952287                6.42869063              -21.26712077
              21.14112903               13.66034774               62.34919034                0.64846243                0.19046005               -0.44176157                1.22466369               -0.10076546                0.14784864                6.26476622
              22.14303363               12.43731106               61.45464112                0.09911886               -0.05041583                0.81779832               -2.48773853               -1.38008292               20.88393355               -5.65331308
              23.14012071               11.18528776               60.97470086                0.00010000               -0.15589636                0.64826836                2.39576248               -5.60624973               67.15751485               -7.85548732
              24.13991570                9.86642926               61.01149013                0.00010000                0.57894995                1.05561010               -1.51389803               -7.86544966               91.28044914               -7.28471920
              25.15169971                8.54149578               61.02764973                0.00010000                1.48149344                1.95658429               -5.17481920               -6.94570215               88.90306027               -7.02622032
              26.16954557                7.22333626               61.02797167                0.00010000                2.05561883                3.18138273               -8.89521773               -5.68204491               87.08219340               -6.91640121
              27.19281209                5.91915962               61.01798867                0.00010000                2.75166446                4.56768539              -12.92928988               -4.21272510               85.95371637               -6.74566306
              28.22457886                4.63509506               61.00439285                0.00010000                3.90761959                5.96543043              -17.43137672               -2.36137918               85.67533487               -6.19782016
              29.27096448                3.37778913               60.99466834                0.04524874                5.39001653                6.98745259              -22.34026739                0.10633650               84.19401459               -4.88292279
              30.33237919                2.15438029               60.95292154                0.15686915                6.74672265                7.17506543              -24.20602982                0.89295959               44.26495846               -5.08172443
              31.40589893                0.92224147               60.13122885                0.62332096                7.35197419                8.23635697              -26.23524465                0.38393370                6.65217342              -16.01741435
              22.35685735               14.65657745               62.19295864                0.64401869                0.36063084               -0.30809161                0.80715827               -0.10206521               -0.10047312                5.45041167
              23.36046366               13.44654952               61.23715472                0.09353252                0.43932973                1.02619628               -3.21357523               -2.30821168               26.58608665               -5.09075584
              24.36564395               12.18883329               60.81486294                0.00010000                1.27372497               -0.82568313                2.98170078               -4.90278707               79.36333035               -4.88078113
              25.38593816               10.87235500               60.91740733                0.00010000                2.13173024                0.00512991               -1.21547024               -5.47100030              103.52012427               -4.07905485
              26.40827855                9.55848772               60.99321410                0.00010000                2.08542452                1.47061106               -4.90311538               -4.17909081              100.49694562               -3.71432894
              27.42764665                8.25433412               61.05009656                0.00010000                1.93750134                3.02938631               -8.57534688               -3.16272069               98.33885615               -3.54273497
              28.44702858                6.96513871               61.09573259                0.00010000                2.21664968                4.59854136              -12.57244432               -2.17142329               97.15926909               -3.32958925
              29.47197964                5.69594501               61.13953123                0.00010000                3.13763841                6.10475493              -17.11878091               -1.09624259               97.31740723               -2.80439326
              30.50978135                4.44879695               61.19473782                0.04965921                4.58254206                7.26445353              -22.27602635                0.10485947               95.39743158               -1.39164160
              31.56363048                3.22457901               61.20060798                0.16217056                6.25024562                6.83621901              -23.16651842                0.34534253               49.33700960               -0.71287783
              32.63478626                2.00287402               60.32296662                0.62635013                7.11557740                7.75253683              -25.40679925                0.03331224                6.48997933              -10.00597947
              23.55914358               15.65418591               62.02071485                0.82042817                0.54699728               -0.23915354                0.30627772                0.59353047                2.46725164                4.63495049
              24.56461355               14.45783499               61.03238279                0.54512585                2.85579577                1.12854691               -3.87671255               -3.85560130               34.85661970               -4.41222393
              25.61625949               13.16877410               60.69150548                0.46380350                4.81138556               -2.00591887                3.26780217               -4.50360174               92.86167850               -3.07098519
              26.66084126               11.86653186               60.85812076                0.44480182                3.49396404               -0.58231382               -0.98071021               -2.40299459              115.31489700               -2.00945392
              27.68613877               10.57090800               60.99092624                0.43840978                1.93994528                1.24202796               -4.43189467               -1.34437120              111.62435174               -1.74087546
              28.69964017                9.28392399               61.10247453                0.44322945                1.08169769                2.95898697               -7.83380447               -0.78952613              109.12455880               -1.58245092
              29.70777273                8.01113044               61.20128722                0.45879250                0.96778017                4.59917311              -11.56333146               -0.26227607              107.67475358               -1.40521904
              30.71899577                6.75719016               61.29768523                0.48595696                1.83274711                6.12451532              -15.88450256                0.29900076              107.78534853               -1.02129677
              31.74442767                5.52307820               61.40868803                0.52630382                3.31065967                7.42812528              -21.00740806                0.16035777              105.98459493                0.06025160
              32.78520896                4.29110467               61.47113511                0.58289653                5.27737357                6.65256608              -21.26236977               -0.13145173               56.26418671                1.71652810
              33.84997514                3.07729220               60.56921017                0.81417211                6.47661774                7.44181807              -23.52549310                0.13764214                9.27836145               -5.98150665
              11.43377401                5.96486078               64.66954288                0.87923281               -1.28163466               -1.43941039                4.88627357               -0.35550404               -3.70821533                4.19602401
              12.42095767                4.59914338               64.20951405                0.64084441               -1.20792958               -0.85301682                3.32822016               -0.34543615               -5.23628982               -2.96139499
              13.40961542                3.22824973               63.71969271                0.52333203               -1.10359586               -0.45962961                1.62813981               -0.45467299               -5.35527910               -0.70035605
              14.39888575                1.84353085               63.25808180                0.47045518               -0.89351387               -0.01831601                0.02200270               -0.42950144               -3.14433142               -0.48724116
              15.39174514                0.44141687               62.81257744                0.44433542               -0.38556270                0.43063903               -1.63758928               -0.34638187               -1.64365400               -0.30077572
              16.39117450               -0.97626183               62.38034103                0.44302039                0.38049833                0.88883699               -3.33824717               -0.24884324               -0.72392550               -0.07488320
              17.39935511               -2.40262724               61.95204800                0.46620480                1.24849517                1.34363454               -5.03968965               -0.20391501               -0.86282581                0.15492020
              18.41614440               -3.82907182               61.51565348                0.51473579                2.01957553                1.78125271               -6.69286098               -0.21228406               -1.96534808                0.36547886
              19.43974662               -5.24930695               61.06385456                0.59024845                2.61598651                2.21013517               -8.31258856               -0.22523719               -3.69313385                0.44302871
              20.46846413               -6.66055761               60.59128340                0.69562691                3.07972242                2.63421239               -9.95132929               -0.23577814               -4.28236329                1.11429908
              21.50134107               -8.06310521               60.12580897                0.89031311                3.28769410                3.12896072              -11.55208992               -0.64066710               -3.81736434               -2.97794813
              12.79593636                6.95046667               64.48215006                0.71245183               -1.01275368               -1.43609279                4.28728154               -0.17254941                2.23596224                5.74456830
              13.78580883                5.59061322               64.01612023                0.20365917               -0.65307029               -0.67400259                2.72935454               -0.32155161                5.44276283               -5.34590916
              14.78287496                4.22365344               63.61480038                0.00010000                0.10991693                0.18971064                1.51859128               -1.32258926                9.08056304               -9.09354273
              15.78800717                2.84334769               63.22144049                0.00010000                0.76513531               -0.62537512                0.20075175               -2.60074814               10.25978057               -9.31384110
              16.79817767                1.44572326               62.84370062                0.00010000                1.13504765               -0.67507346               -1.12114810               -3.50135783               11.68756716               -9.93834463
              17.81070812                0.03262654               62.47905899                0.00010000                1.27716468               -0.38684383               -2.48057076               -3.87380506               12.50306988              -11.01940515
              18.82372096               -1.38919090               62.11776933                0.00010000                1.33266473                0.12004725               -3.83674855               -3.59520999               12.24366832              -11.99051050
              19.83736141               -2.81125929               61.74772559                0.00010000                1.47580941                0.75108330               -5.14099927               -2.70659526               10.99434208              -11.80541123
              20.85323715               -4.22720560               61.36068460                0.09843263                1.78220304                1.67871433               -6.41250290               -1.30628370                9.45666576               -6.12395823
              21.87300547               -5.63421549               60.95864853                0.25563225                2.21224226                2.30000189               -7.69489440               -0.42608986                6.74898752                2.84109168
              22.89748199               -7.03181560               60.51590815                0.69137162                2.44765170                3.20196748               -9.10859646               -0.67993146                4.80524259               -6.41743609
              14.15002994                7.93613892               64.32660281                0.66490474               -0.86900652               -1.35259575                3.89091976               -0.12687526                0.23324885                6.91535478
              15.14133987                6.58566333               63.77548493                0.12257371               -0.98003873               -0.37780276                1.85421747               -0.11805176                6.10452321               -7.11596091
              16.13042916                5.23204394               63.34232484                0.00010000               -0.82694544                0.79298093                0.87452898               -3.03474748               16.86251126              -18.27172123
              17.12480096                3.83102335               63.00819602                0.00010000                0.10049869               -0.62782678               -0.45098537               -6.31212834               22.01968882              -18.12641801
              18.13243914                2.42791540               62.68172444                0.00010000                1.19057944               -1.15516293               -2.21500396               -7.22469980               22.41604217              -19.57059792
              19.14861255                1.01600130               62.35824898                0.00010000                1.94488065               -1.05983905               -4.06112345               -7.74189884               22.70608980              -21.80004484
              20.17133675               -0.40022630               62.03963036                0.00010000                2.57073235               -0.53757477               -5.97822221               -7.19074826               23.59095947              -24.00579090
              21.20002720               -1.81405015               61.73511274                0.00010000                3.26201978                0.33739236               -7.96052188               -5.34477992               29.00899849              -24.91331291
              22.23657714               -3.21573267               61.52459889                0.01525696                3.22625660                1.65945722              -10.65007311               -3.17170748               36.15646933              -23.83535700
              23.26455233               -4.61455758               61.35867539                0.11677812                2.31827575                3.93610012               -6.31758810               -1.21711354               20.77171030              -21.72569512
              24.28294266               -5.99906586               60.83506815                0.59961955                1.83903291                6.02441127               -7.82215136               -0.24585466                3.07551439              -33.69085147
              15.49435003                8.92341476               64.16369549                0.65957144               -0.68072659               -1.18816572                3.43011041               -0.10715019                0.10005322                6.56402809
              16.48754277                7.58305716               63.54670418                0.11535590               -0.87650207               -0.16796284                1.10417173               -0.08362702                6.28405980               -6.36464124
              17.47681999                6.23951305               63.05380204                0.00010000               -1.08248124                0.59605344                1.44437176               -3.48625228               24.07837529              -17.06259627
              18.46589314                4.83079116               62.79750847                0.00010000               -0.40571361                0.33194135               -0.92725625               -7.10261900               34.68427257              -17.45230320
              19.46870572                3.42262000               62.52198901                0.00010000                0.90593483                0.05103860               -3.18048113               -7.62264280               33.34178268              -18.96324067
              20.48401184                2.01142976               62.24324537                0.00010000                2.06258623                0.19212280               -5.53616294               -7.94796927               33.14434173              -21.00983332
              21.50995745                0.60005761               61.96739752                0.00010000                3.09801722                0.73722691               -8.02116569               -7.50213854               33.97221820              -23.38070343
              22.54597218               -0.80451145               61.70791461                0.00010000                4.01764866                1.71570577              -10.68292052               -6.04231819               35.75022669              -26.32723036
              23.59031042               -2.19401646               61.46843227                0.01769673                4.30121050                3.20261347              -12.87177301               -3.47420673               37.04761170              -33.80845068
              24.63199639               -3.55549349               61.23227751                0.11807232                3.56355208                6.81289111              -15.57179844               -0.61218396               21.65218198              -43.67325233
              25.66158146               -4.91132737               60.67610658                0.59947737                2.95850654                9.27542333              -16.35869276                1.50938702                6.29852648              -54.41745468
              16.82860212                9.91237561               64.00205281                0.65549052               -0.50330902               -1.02652989                2.99170246               -0.10393379                0.10696982                6.65197199
              17.82356903                8.58230408               63.32105343                0.10989715               -0.78160011                0.02269122                0.35719426               -0.34056655                8.61091406               -6.11563240
              18.81297012                7.24396501               62.81043709                0.00010000               -1.19636993                0.52475216                1.61549388               -4.15802661               31.76580457              -14.09626366
              19.79964164                5.83766218               62.59880930                0.00010000               -0.68112246                0.93401143               -1.22663728               -7.88073034               45.61313468              -15.95790769
              20.79934767                4.42893617               62.37273190                0.00010000                0.62869620                1.09128106               -4.00535196               -8.25991556               44.18743676              -17.60605064
              21.81221556                3.01984375               62.13811963                0.00010000                1.89437571                1.43979347               -6.85435694               -8.32121567               43.39740228              -19.60757570
              22.83723519                1.61451824               61.90118271                0.00010000                3.05196699                2.15186242               -9.89554581               -7.73950546               43.14420791              -22.11019946
              23.87325490                0.22026396               61.66571680                0.00010000                4.04199320                3.30596804              -13.16068422               -6.15395188               43.13676187              -25.67230566
              24.91807505               -1.15168040               61.43114471                0.02147418                4.81823347                5.14910196              -16.83365818               -2.67707241               42.82137700              -30.37892291
              25.96961957               -2.47829975               61.18797916                0.12302558                5.33615608                7.98347136              -21.10504153                0.11888544               24.18591759              -35.15465778
              27.02479817               -3.81355739               60.57021479                0.60244570                5.51786041                9.73294865              -22.52796840                1.75360581                6.40034095              -46.88498075
              18.15241442               10.90288416               63.84170658                0.65104068               -0.32723881               -0.87574430                2.55960123               -0.10205725                0.11354901                6.71479151
              19.14914203                9.58351099               63.09714176                0.10450738               -0.70565288                0.22070384               -0.37919489               -0.63350272               11.70773670               -5.96605289
              20.13830136                8.25000810               62.58466398                0.00010000               -1.29173261                0.71473884                1.81344431               -4.70906953               40.30177553              -12.55841317
              21.12330738                6.84947138               62.41922590                0.00010000               -0.84877641                1.38428711               -1.47533544               -8.38592818               56.49534233              -14.11088664
              22.12132583                5.44444562               62.23949975                0.00010000                0.43490401                1.88127995               -4.67055060               -8.66541498               54.91653267              -15.70292044
              23.13200546                4.04022563               62.04914182                0.00010000                1.67106482                2.50010086               -7.96120888               -8.43030701               53.68396337              -17.47771107
              24.15474713                2.64309486               61.85093262                0.00010000                2.85431634                3.43119672              -11.50839250               -7.49470549               52.70496161              -19.64694108
              25.18909179                1.26160791               61.64671856                0.00010000                4.02927781                4.76906935              -15.46730115               -5.41768575               51.93621910              -22.28414971
              26.23533269               -0.09103442               61.43728264                0.02520381                5.35796559                6.56464770              -20.01516169               -1.42380220               51.41404226              -25.12487434
              27.29625110               -1.39582406               61.22242657                0.12796833                6.59180819                8.41872989              -25.00616041                0.95345790               28.84207507              -27.28701840
              28.36716885               -2.71666840               60.54975645                0.60541478                7.09177521                9.68444405              -26.55691750                1.46259647                7.11983905              -38.66544591
              19.46530733               11.89486072               63.68200919                0.64696040               -0.15322848               -0.73243583                2.13455163               -0.10146187                0.11803866                6.71684070
              20.46377504               10.58671815               62.87428440                0.09910258               -0.62394968                0.42372711               -1.11235494               -0.94323081               15.48129192               -5.87880375
              21.45282833                9.25825979               62.37392727                0.00010000               -1.31447475                0.90634620                2.09370030               -5.13071457               49.68430879              -11.04647891
              22.43748555                7.86534792               62.25780554                0.00010000               -0.87716036                1.69199527               -1.61020165               -8.55736248               67.66788015              -12.18221115
              23.43528513                6.46656177               62.12661549                0.00010000                0.37373195                2.38021142               -5.14577062               -8.64818097               65.90378576              -13.36179833
              24.44496019                5.06984577               61.98281081                0.00010000                1.53368348                3.23497464               -8.79202116               -8.05503957               64.35143719              -14.68890985
              25.46595880                3.68314218               61.82797826                0.00010000                2.70351362                4.37760968              -12.76567323               -6.73225346               62.98249783              -16.20489244
              26.49903046                2.31564535               61.66395810                0.00010000                4.05360933                5.79885788              -17.24997945               -4.33630477               61.95427994              -17.83289699
              27.54703098                0.97961256               61.49422869                0.02906912                5.76461260                7.34445185              -22.38410743               -0.33409549               61.51969535              -19.28608037
              28.61432271               -0.30992516               61.32248246                0.13291122                7.43539007                8.63033974              -27.57681721                1.44003634               34.25077009              -20.30412724
              29.69573878               -1.61986851               60.59432327                0.60832730                8.14160732                9.70610860              -29.24315996                1.22746021                7.78114461              -31.74787823
              20.76667032               12.88823544               63.52227966                0.64254318                0.02080287               -0.59524867                1.70852335               -0.10235276                0.12248139                6.64932531
              21.76687834               11.59198553               62.65183274                0.09379413               -0.48065055                0.63320611               -1.84450005               -1.30777822               20.01321067               -5.84316222
              22.75705730               10.26813502               62.17919933                0.00010000               -1.15100982                0.98075861                2.43421153               -5.48376761               60.05047049               -9.35943496
              23.74385815                8.88331129               62.11613362                0.00010000               -0.65964715                1.71134564               -1.59768843               -8.39590234               79.24942478               -9.97266886
              24.74386436                7.49204985               62.03737761                0.00010000                0.52330578                2.50187996               -5.38509516               -8.08209701               77.31248372              -10.63301596
              25.75432426                6.10492512               61.94423102                0.00010000                1.52190608                3.58234893               -9.27878840               -7.09185191               75.51647963              -11.41531901
              26.77430248                4.73064705               61.83831508                0.00010000                2.57855227                4.92736608              -13.55023879               -5.51523490               73.95629780              -12.25362915
              27.80589531                3.37758507               61.72253113                0.00010000                3.99593984                6.41686286              -18.40364144               -3.13087077               72.89554210              -12.97351632
              28.85422128                2.05585462               61.60240318                0.03308718                5.93187909                7.77739445              -23.93212608                0.42616513               72.42664231              -13.33137751
              29.92453289                0.77678273               61.47930025                0.13800093                7.86917401                8.61507211              -28.91977676                1.59985755               39.89260193              -13.81915210
              31.01160476               -0.52254623               60.69458012                0.61121307                8.70718696                9.74526756              -30.71293975                0.92897600                8.28228539              -25.26384688
              22.05576010               13.88295575               63.36171988                0.63844025                0.19597982               -0.46185802                1.27943252               -0.10417714                0.15402682                6.59152664
              23.05771990               12.59938228               62.42928633                0.08831252               -0.19664407                0.84961542               -2.58027921               -1.82550144               25.41864400               -5.93660207
              24.05182722               11.27787496               62.00203729                0.00010000               -0.60336142                0.70244978                2.83549840               -5.86449207               71.57759981               -7.28438724
              25.04565267                9.89957483               61.99727925                0.00010000                0.01010657                1.19119296               -1.44103789               -7.59736768               91.32306441               -7.31993573
              26.05202935                8.51659937               61.97516455                0.00010000                0.94366391                2.23495967               -5.35956529               -6.68350278               89.12540523               -7.50161046
              27.06452595                7.14149275               61.93667352                0.00010000                1.54823999                3.59260618               -9.35829578               -5.41570641               87.08141726               -7.81847674
              28.08299415                5.78168950               61.88435967                0.00010000                2.33397625                5.13332097              -13.76841760               -3.86576800               85.43355049               -8.13256785
              29.11120547                4.44398260               61.82299152                0.00010000                3.66812359                6.73581787              -18.83217023               -1.84973569               84.51452956               -8.18385961
              30.15635662                3.13516045               61.76028888                0.03694770                5.67576180                8.04866582              -24.62097487                0.82078047               83.78152433               -7.60713425
              31.22472071                1.86237629               61.68744355                0.14307293                7.83098039                8.45225317              -29.07624421                1.37354950               45.53687431               -7.48746230
              32.31297623                0.57503684               60.84604552                0.61416138                8.82555204                9.64546735              -31.04752879                0.55698126                8.62061000              -18.87648939
              23.33173372               14.87899828               63.20126046                0.63416859                0.37153844               -0.32492797                0.85158789               -0.10523192               -0.10726066                5.73531247
              24.33544910               13.60897784               62.20441894                0.08313269                0.39205959                1.06539593               -3.33138525               -2.75997215               31.90154050               -5.35033483
              25.33957491               12.28218402               61.84753709                0.00010000                0.88686431               -0.75314738                3.23414517               -4.96846600               84.66090794               -4.34455152
              26.35318639               10.90713515               61.90601830                0.00010000                1.43507403                0.26737273               -1.18627439               -5.18505428              103.80247736               -4.02574521
              27.36827639                9.53674904               61.94355059                0.00010000                1.38668113                1.82055893               -5.07241319               -3.94493229              101.13216686               -3.93309724
              28.38092001                8.17677725               61.96226390                0.00010000                1.31104397                3.47425500               -8.98719698               -2.95980973               98.78017620               -3.99777563
              29.39449727                6.83331347               61.96609777                0.00010000                1.72548188                5.15690927              -13.32776797               -1.90449619               97.02705612               -4.05115215
              30.41542965                5.51230143               61.96192124                0.00010000                2.88729705                6.81193932              -18.39157711               -0.65115973               96.38940917               -3.87388372
              31.45224321                4.21682794               61.96220923                0.04132107                4.83489194                8.20907258              -24.33363306                0.75750652               95.62293368               -2.99565236
              32.51212748                2.94582780               61.94590655                0.14807078                7.25900328                8.18530318              -28.02236298                0.82977752               51.23441207               -1.95056101
              33.59742327                1.67036312               61.04652210                0.61699722                8.52957890                9.18300391              -30.18844783                0.09139428                8.54738237              -11.56946620
              24.59369635               15.87645719               63.02393842                0.81561931                0.56383674               -0.25410953                0.33658849                0.61956455                2.59858402                4.87841994
              25.59933472               14.62069019               61.99290508                0.54012466                3.03021164                1.17123572               -4.01782859               -4.29369644               40.85176300               -4.64155773
              26.65430059               13.26281201               61.72660187                0.46265141                4.40259181               -1.93720023                3.38108459               -4.31582740               98.88361174               -2.50335854
              27.68738656               11.90492229               61.84896870                0.44453373                2.45940093               -0.22128634               -0.96869856               -2.07005609              116.10710859               -1.93394025
              28.70348861               10.55301055               61.94615743                0.43855548                1.06893857                1.62615049               -4.56469577               -1.17600003              112.94968121               -1.82687825
              29.70876533                9.21097785               62.02252427                0.44298284                0.29457202                3.42006006               -8.15122977               -0.62461127              110.28009094               -1.80007638
              30.70938005                7.88482768               62.08253823                0.45781134                0.29512418                5.15142130              -12.15682198               -0.04954498              108.24004383               -1.75810947
              31.71466781                6.58022139               62.13362525                0.48366193                1.43001690                6.79199623              -16.90701869                0.64952744              107.43977070               -1.54799756
              32.73798038                5.29934190               62.19076719                0.52214047                3.65566327                8.25139618              -22.66987226                0.86676553              106.90640279               -0.78739868
              33.78778108                4.02608235               62.23727704                0.57577374                6.38765456                8.02545519              -25.72993675                0.53311045               58.67841597                1.13746268
              34.86573348                2.75869692               61.31350567                0.80937743                7.79523973                8.83338019              -27.88098679                0.09247719               11.54033528               -6.76554750
              11.86372191                6.19803286               65.71913065                0.87145417               -1.32049790               -1.48287315                5.03288286               -0.36845704               -3.86830507                4.36429279
              12.85051693                4.76518561               65.24326634                0.63110348               -1.24843390               -0.87565552                3.42241476               -0.36559154               -5.46819560               -3.10937866
              13.83875323                3.32681283               64.73617928                0.51934538               -1.12809759               -0.47329597                1.66877607               -0.45593922               -5.61452420               -0.67367626
              14.82795498                1.87436190               64.25823240                0.46898797               -0.88245947               -0.01471427                0.01007823               -0.42703485               -3.38724384               -0.49304705
              15.82110405                0.40468365               63.79587919                0.44404871               -0.34306504                0.44826746               -1.69972323               -0.34663946               -1.93906031               -0.30298004
              16.82109368               -1.08004250               63.34638568                0.44289734                0.44252374                0.92025980               -3.44980922               -0.25428027               -1.04739417               -0.07765937
              17.82995452               -2.57285013               62.90079691                0.46488850                1.31906601                1.39068303               -5.20414823               -0.21219613               -1.16736938                0.15004023
              18.84747500               -4.06528263               62.44757758                0.51103021                2.09669985                1.84501258               -6.91449591               -0.21877998               -2.22848213                0.36307467
              19.87188852               -5.55122176               61.97931765                0.58285676                2.70309603                2.28838139               -8.58684493               -0.23100622               -3.94746311                0.44545718
              20.90153692               -7.02801537               61.49009936                0.68289236                3.18015304                2.72732782              -10.27782194               -0.24266311               -4.53005526                1.12982857
              21.93549158               -8.49596395               61.00835271                0.88170014                3.39546562                3.23591797              -11.93122749               -0.65504966               -4.05179225               -3.12452466
              13.29288459                7.18320412               65.52566014                0.69903962               -1.04135545               -1.48469910                4.41495701               -0.18382666                2.39291791                6.01735851
              14.28247103                5.75642906               65.04379917                0.18756227               -0.66394439               -0.68546473                2.80594101               -0.35040381                5.77566511               -5.63428137
              15.27960570                4.32207987               64.63015832                0.00010000                0.11390952                0.18356231                1.55037851               -1.41716878                9.53736786               -9.31270751
              16.28474922                2.87421476               64.22339694                0.00010000                0.76170745               -0.69168530                0.18998461               -2.76934401               10.66278426               -9.71881171
              17.29483985                1.40916632               63.83220560                0.00010000                1.12842711               -0.71828047               -1.17826946               -3.71642270               12.07277959              -10.74853462
              18.30731777               -0.07083990               63.45375672                0.00010000                1.28063889               -0.42462975               -2.58291958               -4.11195038               12.87101749              -12.26352121
              19.32045263               -1.55894329               63.07864266                0.00010000                1.35776280                0.07717430               -3.98788133               -3.84778023               12.63805579              -13.71334685
              20.33447302               -3.04683250               62.69530849                0.00010000                1.52460993                0.69837904               -5.34364686               -2.95617858               11.43245711              -14.08103100
              21.35094482               -4.52833795               62.29533990                0.08752835                1.85041805                1.65699149               -6.65969739               -1.47448359                9.90516871               -9.39527891
              22.37148138               -6.00074209               61.88026345                0.23662217                2.29724176                2.40975196               -7.98658042               -0.47859035                7.12610738                2.29628468
              23.39688966               -7.46360477               61.42315671                0.67845527                2.54082776                3.34392299               -9.44695101               -0.66476746                5.11867636               -7.22192524
              14.71359552                8.16833887               65.36611940                0.65363797               -0.89624022               -1.40314344                4.01028150               -0.13061608                0.21703569                7.25836100
              15.70463311                6.75147632               64.79428189                0.11002698               -1.04856782               -0.37625251                1.90549585               -0.16695806                6.64958390               -7.48069371
              16.69262416                5.33048407               64.35162043                0.00010000               -0.95757338                0.62828479                0.99874459               -3.33673608               17.75506216              -18.10491578
              17.68548165                3.86052819               64.00397595                0.00010000               -0.03969573               -0.73105075               -0.39880779               -6.72142428               22.51698008              -18.89436797
              18.69183025                2.39031804               63.65927167                0.00010000                1.07413223               -1.23043485               -2.27456708               -7.63575822               22.65693294              -21.15374062
              19.70696429                0.91146491               63.31676450                0.00010000                1.85806382               -1.11827498               -4.22812403               -8.21264514               22.86679065              -24.25251094
              20.72899152               -0.57130664               62.97828578                0.00010000                2.53908971               -0.59985837               -6.27673095               -7.70219052               23.64785244              -27.41667201
              21.75774609               -2.05131505               62.65289680                0.00010000                3.36584551                0.26682330               -8.45475307               -5.83120307               28.57178870              -29.43782572
              22.79630843               -3.51808193               62.41298869                0.00833941                3.47429231                1.62294867              -11.57868952               -3.47106571               38.95310527              -29.33612667
              23.82723193               -4.97982033               62.29191495                0.10451892                2.58065753                4.04796085               -7.16916792               -1.31013615               24.35124968              -28.37634810
              24.84792158               -6.42908549               61.75390309                0.59119495                2.06896507                6.29469077               -8.49008020               -0.11348956                3.78756109              -40.34730427
              16.12399738                9.15514126               65.19853390                0.64874966               -0.70107087               -1.23179773                3.53567625               -0.11033991                0.10340100                6.88338650
              17.11698667                7.74890401               64.55788131                0.10360342               -1.00891391               -0.16323526                1.13250830               -0.32250262                7.74721218               -6.66191977
              18.10381910                6.33464556               64.07050715                0.00010000               -1.32499497                0.33259412                1.85031191               -3.84723927               25.44812909              -16.60893789
              19.09048677                4.85959374               63.78877859                0.00010000               -0.63155674                0.25750974               -0.83539279               -7.37288271               34.67333047              -18.08660333
              20.09118797                3.38455763               63.48980700                0.00010000                0.71013841                0.03565003               -3.25966550               -7.96882505               33.41141327              -20.44873307
              21.10468954                1.90679460               63.18662351                0.00010000                1.90004031                0.22822214               -5.77636320               -8.33912102               33.09771927              -23.35785902
              22.12918877                0.42905954               62.88484786                0.00010000                2.99673575                0.81370112               -8.46195314               -7.93887798               33.72352895              -26.68560608
              23.16462426               -1.04149604               62.59713609                0.00010000                4.04200087                1.83293751              -11.42599536               -6.47869611               35.57119794              -30.71567176
              24.21002879               -2.49587898               62.33375160                0.01053021                4.58289782                3.35012692              -14.02244487               -3.80204496               36.64736405              -39.15280514
              25.25628221               -3.91978287               62.06597447                0.10581756                4.15606966                7.03274489              -17.60141929               -0.68282327               22.09003746              -54.18106507
              26.29315018               -5.33771095               61.50238795                0.59134626                3.68679720                9.70255768              -18.39101012                1.82428412                8.09421494              -65.34122630
              17.52386322               10.14370292               65.03243819                0.64464875               -0.51844637               -1.06338190                3.08466022               -0.10701348                0.11077411                6.98705033
              18.51867875                8.74821161               64.32465365                0.09843399               -0.94367888                0.03037803                0.36406932               -0.70455605               10.71574195               -6.40554765
              19.50498964                7.33713596               63.82927428                0.00010000               -1.52834119                0.38532175                2.05680025               -4.56850393               33.69000973              -13.92327109
              20.48811193                5.86567839               63.58729117                0.00010000               -0.98683786                0.88064455               -1.12041819               -8.02415489               45.42801695              -16.52859178
              21.48525288                4.39103104               63.33217132                0.00010000                0.37840145                1.13461138               -4.11800307               -8.48946491               44.09314063              -18.97428365
              22.49567996                2.91602935               63.06795388                0.00010000                1.66258597                1.56586419               -7.16550782               -8.60314718               43.18352872              -21.80355717
              23.51850460                1.44496738               62.79924021                0.00010000                2.87153596                2.35863917              -10.45784105               -8.06931027               42.67785378              -25.24084155
              24.55311068               -0.01465630               62.52918686                0.00010000                4.00248831                3.59249998              -14.08930679               -6.50223982               42.25231229              -29.91361717
              25.59855437               -1.45107940               62.25477381                0.01419124                5.11483814                5.50190881              -18.35871661               -2.88352171               41.22254443              -36.38287745
              26.65540744               -2.83916543               61.96287166                0.11046106                6.08545264                8.43077129              -23.74360134                0.16583731               23.83144170              -43.15266288
              27.72026342               -4.23503433               61.33023177                0.59402900                6.48559801               10.28176547              -25.40346868                2.07195726                7.75237223              -55.72066562
              18.91283973               11.13387362               64.86773343                0.64062241               -0.33772130               -0.90705179                2.64458496               -0.10557360                0.11752898                7.05794357
              19.90946251                9.74951157               64.09325439                0.09299616               -0.89287394                0.23234396               -0.39636505               -1.06545536               14.45113765               -6.25029555
              20.89498225                8.34235200               63.60565525                0.00010000               -1.66769613                0.66144987                2.22555055               -5.14597866               42.82318913              -12.34732744
              21.87610859                6.87720663               63.40514720                0.00010000               -1.19672718                1.38714685               -1.40604930               -8.41325415               56.23900330              -14.63172580
              22.87104770                5.40724985               63.19212059                0.00010000                0.12908309                1.98361336               -4.82581002               -8.75645031               54.76705952              -16.92366448
              23.87869025                3.93811189               62.96759274                0.00010000                1.37202570                2.71039390               -8.33590646               -8.57327939               53.37370407              -19.46605469
              24.89848822                2.47623232               62.73233538                0.00010000                2.59679928                3.75576431              -12.17050888               -7.68612034               52.01434890              -22.52670827
              25.93062624                1.03035396               62.48619975                0.00010000                3.91896354                5.21314135              -16.56939874               -5.62974064               50.63299392              -26.27981976
              26.97686749               -0.38584080               62.22745156                0.01769442                5.64638286                7.12942290              -21.84718250               -1.50654321               49.32222211              -30.48375571
              28.04355390               -1.75116745               61.95488070                0.11518449                7.47298218                9.08511697              -28.34188616                1.09997309               28.37057815              -34.05733352
              29.12632713               -3.13207564               61.26605451                0.59676394                8.27732373               10.38461512              -30.16178866                1.83541473                8.69668189              -45.93193456
              20.29047585               12.12556188               64.70373233                0.63671078               -0.15845822               -0.75925614                2.20677199               -0.10518751                0.12114098                7.06180829
              21.28889127               10.75285849               63.86294997                0.08812167               -0.80504231                0.44084031               -1.15104811               -1.41547795               18.88429507               -6.16074907
              22.27437500                9.35036495               63.39753525                0.00010000               -1.69711369                0.91086022                2.40685565               -5.54118755               52.86123840              -10.76955292
              23.25494899                7.89342132               63.24216663                0.00010000               -1.25781898                1.75545337               -1.60499058               -8.47524285               67.41934603              -12.57177850
              24.24921862                6.43070331               63.07429448                0.00010000                0.01414559                2.54483987               -5.34882096               -8.59899631               65.79817890              -14.38441173
              25.25523190                4.97023723               62.89270856                0.00010000                1.16607488                3.52127383               -9.21781722               -8.04836946               64.03764423              -16.40090445
              26.27254012                3.52008267               62.69641050                0.00010000                2.36785420                4.80493427              -13.50540295               -6.76255955               62.19322895              -18.73354891
              27.30258899                2.08960653               62.48489404                0.00010000                3.87023969                6.38893454              -18.49107393               -4.37701797               60.45187627              -21.35244923
              28.34994491                0.69150906               62.25945886                0.02151404                6.05263783                8.11004769              -24.48829341               -0.26167712               59.27821068              -23.96298087
              29.42364174               -0.65746309               62.02559563                0.12008884                8.44215955                9.54505052              -31.60368970                1.67468673               33.87596058              -25.93558363
              30.51878810               -2.02734203               61.28012682                0.59960527                9.51463603               10.66116712              -33.52038610                1.59154447                9.60421651              -37.83125190
              21.65614276               13.11868849               64.53968505                0.63260848                0.02071220               -0.61822042                1.77065381               -0.10597161                0.12701483                6.99179239
              22.65634989               11.75832837               63.63305931                0.08308572               -0.62735496                0.65671683               -1.90693715               -1.79607302               24.08185943               -6.12679791
              23.64359566               10.36056920               63.20553553                0.00010000               -1.50422518                1.04486494                2.58137668               -5.83539436               63.92595546               -9.00380440
              24.62626538                8.91231570               63.10033276                0.00010000               -1.06718954                1.83622745               -1.67780104               -8.20609067               79.11736911              -10.19677103
              25.62225187                7.45814665               62.98249651                0.00010000                0.10390600                2.72936421               -5.63085525               -7.90917067               77.35884787              -11.40157367
              26.62834350                6.00853736               62.84912729                0.00010000                1.08079282                3.93483082               -9.73540255               -6.95343772               75.32349238              -12.77357113
              27.64386773                4.57233101               62.69869465                0.00010000                2.16579929                5.43214511              -14.33306055               -5.38898652               73.21081617              -14.31282168
              28.67165949                3.15813265               62.53152600                0.00010000                3.74179191                7.12106144              -19.73265341               -2.98097983               71.35738736              -15.88888116
              29.71870357                1.77636015               62.35134308                0.02516054                6.21196183                8.71656675              -26.22917999                0.68994666               70.33658115              -17.24524946
              30.79589872                0.43973356               62.16632552                0.12467544                8.96061663                9.77439174              -33.55911931                1.92529188               39.84113592              -18.25496228
              31.89791590               -0.91885230               61.36334323                0.60234612               10.20171765               11.00558703              -35.54671428                1.25736802               10.39204675              -30.15705284
              23.00907666               14.11319748               64.37477899                0.62856477                0.20124367               -0.48116685                1.32997259               -0.10784364                0.16027901                6.93416194
              24.01108910               12.76599283               63.40303554                0.07800970               -0.26984361                0.87978520               -2.66598243               -2.30336359               30.17121641               -6.23197890
              25.00367979               11.37126225               63.03141083                0.00010000               -0.89196833                0.84042423                2.73878121               -6.10899369               76.24441756               -6.86432453
              25.99324973                9.93014587               62.98266937                0.00010000               -0.44331216                1.39174730               -1.61175861               -7.31314174               91.42765848               -7.37578381
              26.99481355                8.48529059               62.92045842                0.00010000                0.43645317                2.53431230               -5.63131947               -6.43938067               89.46518482               -7.98473066
              28.00197879                7.04893385               62.84080576                0.00010000                1.01757773                3.99952496               -9.81432824               -5.21027630               87.17300519               -8.75301103
              29.01516510                5.62872557               62.74262032                0.00010000                1.84807255                5.68030547              -14.54430559               -3.64307329               84.90706436               -9.60217564
              30.03894025                4.23202776               62.62774944                0.00010000                3.34889185                7.48504764              -20.16615083               -1.54441468               83.10358466              -10.33046875
              31.08214294                2.86584040               62.50224884                0.02897780                5.92098947                9.10227201              -26.97026168                1.27740670               82.09628108              -10.59521875
              32.15736003                1.53802474               62.37139665                0.12957411                8.94821264                9.80003663              -34.14361803                1.75182230               45.96518377              -10.62828043
              33.26110719                0.19276971               61.51027828                0.60501196               10.37471552               11.14384271              -36.23754104                0.80384205               10.98632490              -22.51120563
              24.34839519               15.10906516               64.20999040                0.62461431                0.38226495               -0.33995438                0.89149775               -0.10884422               -0.11526667                6.03513649
              25.35221784               13.77592408               63.17052701                0.07305738                0.44337790                1.10193581               -3.44231960               -3.18956009               37.31929649               -5.62323935
              26.35726274               12.37737769               62.87954584                0.00010000                0.68781862               -0.53424336                2.84008769               -5.07925558               90.15842733               -3.95838250
              27.36597421               10.94015064               62.89368185                0.00010000                0.87067712                0.59031848               -1.42508860               -4.91833277              104.28444605               -3.97080355
              28.37467629                9.50883290               62.89176583                0.00010000                0.73643933                2.19330805               -5.34090257               -3.74297473              101.95984125               -4.14977851
              29.38070299                8.08852786               62.87035262                0.00010000                0.66180332                3.92339374               -9.40062930               -2.80066907               99.38998908               -4.46589059
              30.38791235                6.68593712               62.82917723                0.00010000                1.14766868                5.71808837              -14.02960042               -1.71933687               96.97815110               -4.81725835
              31.40365637                5.30783360               62.77169969                0.00010000                2.51711816                7.53972197              -19.61918097               -0.34547722               95.33334189               -5.03370033
              32.43825472                3.95840559               62.70806516                0.03313574                5.01747446                9.21869550              -26.51868442                1.23308439               94.55860622               -4.72799857
              33.50400586                2.63573429               62.64016072                0.13416052                8.31240455                9.65440938              -33.21495136                1.21488656               52.25964837               -3.63169056
              34.60450281                1.30402455               61.71919767                0.60776070               10.04969497               10.76222010              -35.47369583                0.18989629               11.12092275              -13.62966329
              25.67318194               16.10639839               64.02744662                0.81090376                0.58034271               -0.26667703                0.36170226                0.64199081                2.73462141                5.13509017
              26.67898537               14.78803154               62.95202622                0.53507556                3.23430850                1.21074666               -4.15137903               -4.61429711               46.87700865               -4.88428330
              27.73786811               13.36057739               62.75912717                0.46154445                4.22212500               -1.68003024                2.81972943               -4.24342860              105.07986973               -2.08205874
              28.76342787               11.94195224               62.83874679                0.44425498                1.68543627                0.18015977               -1.22648466               -1.82566588              117.22974429               -1.86452786
              29.77157683               10.52915675               62.89963232                0.43853748                0.27166640                2.03238549               -4.79601434               -1.03747136              114.56445376               -1.92134009
              30.76886119                9.12740172               62.93944993                0.44272547               -0.50521074                3.88738591               -8.47512575               -0.48765074              111.72937680               -2.03568389
              31.76147262                7.74308734               62.95815078                0.45694401               -0.46494849                5.71502230              -12.70301341                0.12705039              109.05289444               -2.15003729
              32.75956222                6.38282220               62.95954486                0.48144851                0.87156579                7.49885911              -17.88929366                0.94693398              107.19211100               -2.14253974
              33.77890394                5.05021431               62.95529058                0.51794002                3.82382901                9.18087140              -24.46262709                1.47945857              106.74486920               -1.72061264
              34.83603880                3.73111293               62.95653637                0.56875383                7.47103309                9.53786352              -30.54965348                1.09328492               60.35620482                0.27875906
              35.92832460                2.40801411               62.01159043                0.80478568                9.22857924               10.39895571              -32.74424530                0.07229710               14.47876136               -7.86507239
              12.30813654                6.43908766               66.77020054                0.86387819               -1.35914176               -1.52625647                5.17900468               -0.38174128               -4.03336162                4.53480259
              13.29454512                4.93589014               66.27796235                0.62161521               -1.28888308               -0.89780986                3.51571034               -0.38559410               -5.70429029               -3.25962731
              14.28235888                3.42681813               65.75306823                0.51521523               -1.15520787               -0.48599885                1.70904388               -0.46089817               -5.87539841               -0.64737069
              15.27144096                1.90334083               65.25828337                0.46753677               -0.87741101               -0.01129196                0.00173090               -0.42822283               -3.63025708               -0.49689306
              16.26481066                0.36270445               64.77858297                0.44376109               -0.30660347                0.46556362               -1.75666631               -0.34861382               -2.23272987               -0.30397550
              17.26530889               -1.19255709               64.31134485                0.44253693                0.50025826                0.95343932               -3.55656468               -0.26286897               -1.36771754               -0.08134286
              18.27481582               -2.75531795               63.84796504                0.46349327                1.38725590                1.43712391               -5.36051661               -0.22430426               -1.47294030                0.14456883
              19.29305401               -4.31727214               63.37736356                0.50728768                2.17298779                1.90730120               -7.12459610               -0.23028734               -2.49636772                0.35882827
              20.31827558               -5.87244231               62.89211766                0.57553998                2.78869786                2.36600933               -8.84869758               -0.23985636               -4.20752513                0.44634487
              21.34882797               -7.41828923               62.38572696                0.67049063                3.27614762                2.81838417              -10.58741014               -0.24978638               -4.78340776                1.14416148
              22.38379853               -8.95520371               61.88718442                0.87342660                3.49705609                3.33992242              -12.29014110               -0.66440238               -4.29078047               -3.27180912
              13.80751665                7.42382509               66.57044920                0.68609638               -1.06927034               -1.53276388                4.54004783               -0.19584893                2.55369914                6.29764414
              14.79682394                5.92691204               66.07223905                0.17162797               -0.67460487               -0.69614068                2.88048929               -0.37907766                6.11518858               -5.92733493
              15.79402455                4.42195814               65.64580795                0.00010000                0.11958145                0.13893361                1.58015514               -1.51033315               10.00485650               -9.47274683
              16.79921557                2.90322791               65.22524018                0.00010000                0.76244637               -0.77932457                0.17806920               -2.92748466               11.07740214              -10.09228339
              17.80927348                1.36736009               64.82013523                0.00010000                1.12379156               -0.77326333               -1.23561547               -3.91360086               12.46692401              -11.55979620
              18.82169141               -0.18302270               64.42740060                0.00010000                1.28284134               -0.46793084               -2.69081713               -4.33407202               13.24947607              -13.53737481
              19.83493031               -1.74094671               64.03801170                0.00010000                1.38109569                0.02765060               -4.14146698               -4.09153779               13.03932985              -15.50679133
              20.84931332               -3.29819913               63.64085265                0.00010000                1.57276254                0.63189329               -5.55021384               -3.20647238               11.87537176              -16.49542565
              21.86638556               -4.84878221               63.22749065                0.07667298                1.91987456                1.57877055               -6.91421841               -1.67803662               10.36144472              -12.96848726
              22.88771081               -6.39010538               62.79891692                0.21781114                2.38417192                2.52468322               -8.28511586               -0.55936641                7.50874487                1.39446012
              23.91406899               -7.92180449               62.32696913                0.66596869                2.63581845                3.49802671               -9.79053836               -0.62395740                5.43578432               -8.24234688
              15.29804567                8.40843238               66.40680844                0.64284272               -0.92151514               -1.45307001                4.12304107               -0.13617688                0.19893911                7.61173440
              16.28883052                6.92196732               65.81359485                0.09803662               -1.11046632               -0.37325165                1.95583731               -0.25728822                7.26958985               -7.85107883
              17.27583635                5.42959680               65.36229973                0.00010000               -1.06705993                0.38611515                1.14968512               -3.66761240               18.73406284              -17.80841273
              18.26748932                3.88775433               65.00021986                0.00010000               -0.15235501               -0.87420186               -0.36378873               -7.07566434               23.00632859              -19.60479867
              19.27278925                2.34723919               64.63623310                0.00010000                0.97224646               -1.33071992               -2.33715910               -7.99272233               22.89642942              -22.74105244
              20.28693425                0.79808429               64.27368650                0.00010000                1.76861263               -1.19470513               -4.38171837               -8.63850801               23.02168093              -26.75578471
              21.30816150               -0.75476493               63.91409574                0.00010000                2.49129092               -0.68311144               -6.54537468               -8.18667187               23.65989219              -30.94610946
              22.33676007               -2.30463428               63.56601768                0.00010000                3.42298003                0.15420932               -8.89245938               -6.34614352               27.95937884              -34.19149731
              23.37662110               -3.84086689               63.29302510                0.00127077                3.69514243                1.49622630              -12.29482078               -3.75637599               41.55866276              -35.26153044
              24.41066292               -5.36779556               63.21529203                0.09221949                2.90482469                4.00169429               -8.37901463               -1.34631519               28.01546293              -35.87849575
              25.43471759               -6.88524318               62.66526655                0.58290770                2.40546743                6.36619544               -9.39908198                0.08372891                4.82668274              -47.89017417
              16.77772323                9.39476369               66.23440901                0.63800595               -0.72094675               -1.27576518                3.63707894               -0.11461783                0.10649962                7.21428879
              17.77051376                7.91944700               65.56935435                0.09194399               -1.14189680               -0.15736389                1.16270693               -0.64329920                9.41199352               -6.96566272
              18.75488529                6.42968044               65.09080828                0.00010000               -1.52269289                0.03773457                2.12192642               -4.27033411               26.93123024              -16.01390592
              19.74005990                4.88574387               64.78080061                0.00010000               -0.78981077                0.14837008               -0.79834185               -7.55595691               34.56885975              -18.69579543
              20.73908908                3.34074569               64.45679570                0.00010000                0.54327321               -0.00511363               -3.35307683               -8.24510720               33.47505307              -21.94519449
              21.75092537                1.79308320               64.12771811                0.00010000                1.74131799                0.23595416               -5.99609033               -8.67358158               33.04362775              -25.75104535
              22.77391544                0.24539106               63.79815846                0.00010000                2.87835211                0.84894129               -8.84808607               -8.34001779               33.41145906              -30.08090042
              23.80849241               -1.29511494               63.47939470                0.00010000                4.02519424                1.87811191              -12.06544620               -6.91206407               35.22350795              -35.26803322
              24.85441932               -2.81885769               63.18798337                0.00365772                4.83341910                3.39144942              -15.06591696               -4.13682546               35.80371778              -44.76253394
              25.90516079               -4.31007150               62.88024912                0.09378915                4.81097436                6.87681631              -19.35725458               -0.77476840               22.21787261              -65.47233590
              26.95063881               -5.79448058               62.30828638                0.58321563                4.54780173                9.68029554              -20.36524228                2.07948154                9.90613767              -77.49693102
              18.24638669               10.38291708               66.06374602                0.63407303               -0.53389071               -1.10073987                3.17619693               -0.10971033                0.11517507                7.33726018
              19.24104779                8.91882004               65.32833482                0.08704916               -1.11269471                0.03808731                0.37350705               -1.14181878               13.03236662               -6.70417130
              20.22413280                7.43035149               64.85157310                0.00010000               -1.78714248                0.25600674                2.25962225               -5.00556330               35.77281903              -13.72974276
              21.20530494                5.89072174               64.57640094                0.00010000               -1.17925131                0.81087696               -1.12526218               -8.08261872               45.17575238              -17.09694267
              22.20054777                4.34713691               64.29037184                0.00010000                0.17561554                1.15517418               -4.26205200               -8.63929783               44.00523568              -20.35631042
              23.20881725                2.80280337               63.99480947                0.00010000                1.45057561                1.65333292               -7.45412115               -8.82918210               42.97751031              -24.03412864
              24.22955928                1.26221389               63.69202589                0.00010000                2.69751455                2.49996681              -10.94758576               -8.36818752               42.16378178              -28.43915241
              25.26276754               -0.26707204               63.38393066                0.00010000                3.96409290                3.77096394              -14.88930054               -6.85543593               41.18425637              -34.28295595
              26.30884114               -1.77303791               63.06397038                0.00701385                5.40114528                5.67315516              -19.66127930               -3.22551675               39.12562633              -42.67229506
              27.37079044               -3.23025924               62.71310713                0.09815405                6.81421221                8.51883949              -25.89365026                0.06497750               23.06071748              -51.84024916
              28.44512539               -4.69163727               62.06214542                0.58574690                7.43349432               10.46392172              -27.99761656                2.26799896                8.93545458              -65.57385227
              19.70372309               11.37274890               65.89459828                0.63048968               -0.34801173               -0.93859017                2.72419179               -0.10860645                0.11860051                7.41357594
              20.70024297                9.92020875               65.08921446                0.08216803               -1.04253758                0.24391014               -0.40821878               -1.56690410               17.37556516               -6.54137008
              21.68287233                8.43480058               64.62917499                0.00010000               -1.93104308                0.63184769                2.28065122               -5.57718471               45.50008992              -12.16764533
              22.66162211                6.90196141               64.39110491                0.00010000               -1.43254262                1.40025246               -1.49195808               -8.35715496               55.96072609              -15.16747790
              23.65422148                5.36384917               64.14298355                0.00010000               -0.11786797                2.06803521               -5.03168538               -8.78262777               54.65693226              -18.15863120
              24.65926475                3.82614986               63.88242369                0.00010000                1.11028084                2.87448817               -8.68974627               -8.68394856               53.09821860              -21.48137192
              25.67642710                2.29539040               63.60752244                0.00010000                2.36853701                3.99490193              -12.74873956               -7.88834566               51.29483515              -25.46485638
              26.70663549                0.78030433               63.31533058                0.00010000                3.83345416                5.51710763              -17.51119536               -5.92664523               49.14337159              -30.40492816
              27.75309618               -0.70539458               63.00033899                0.01040194                5.92121074                7.47496617              -23.39979789               -1.84732893               46.57365611              -36.14678891
              28.82505970               -2.13969471               62.65558885                0.10258188                8.28293355                9.50887927              -31.11406629                1.02879775               27.35570419              -41.66226686
              29.91875485               -3.58520215               61.94652067                0.58843233                9.36951504               10.89275044              -33.47369571                2.13102346               10.12137191              -54.23176140
              21.14929485               12.36414527               65.72614463                0.62655244               -0.16368331               -0.78621314                2.27413411               -0.10775309                0.12677405                7.41957687
              22.14765802               10.92369825               64.85126344                0.07723654               -0.92292037                0.45776281               -1.18391455               -1.93673749               22.40550306               -6.45003066
              23.13083645                9.44298845               64.42206439                0.00010000               -1.92723901                0.96913890                2.25970975               -5.97704155               56.16832441              -10.56590521
              24.10911324                7.91872678               64.22570572                0.00010000               -1.50648390                1.84558592               -1.79588253               -8.34341881               67.21827286              -12.99642224
              25.10070677                6.38849762               64.01963907                0.00010000               -0.27580951                2.70026276               -5.62060445               -8.52041666               65.77509141              -15.42036201
              26.10359705                4.86029314               63.79845446                0.00010000                0.84655623                3.76033256               -9.62801989               -8.05272333               63.79151378              -18.13548264
              27.11763789                3.34211193               63.55787020                0.00010000                2.07112829                5.13951955              -14.15614589               -6.86650149               61.39657277              -21.31960546
              28.14501962                1.84327011               63.29413662                0.00010000                3.71278565                6.83238569              -19.56056500               -4.59456875               58.73842816              -25.00959507
              29.19189361                0.37646142               63.00446282                0.01401758                6.30771724                8.67771166              -26.31408473               -0.51472796               56.21893552              -28.97723414
              30.27117396               -1.04008165               62.69040866                0.10722160                9.34335623               10.27885881              -35.06396174                1.70260417               32.88727383              -32.48444842
              31.37876073               -2.47378226               61.92391555                0.59108717               10.75867698               11.46817034              -37.52721775                1.96271039               11.38003535              -44.95794317
              22.58246208               13.35702463               65.55769274                0.62285379                0.02029693               -0.64058224                1.82780898               -0.10817643                0.13057105                7.34936975
              23.58266504               11.92936401               64.61369400                0.07237552               -0.70795553                0.67883764               -1.96212268               -2.29934559               28.18668093               -6.42004839
              24.56830296               10.45418336               64.23082686                0.00010000               -1.67102430                1.17948599                2.19899370               -6.21227950               67.93374844               -8.79250392
              25.54924456                8.93887313               64.08257760                0.00010000               -1.30280845                1.99916435               -1.99151454               -8.01419622               79.11922943              -10.46449145
              26.54224680                7.41785443               63.92476051                0.00010000               -0.23242950                2.95689059               -5.96357932               -7.75133639               77.54465396              -12.18122561
              27.54459597                5.90135651               63.74952297                0.00010000                0.69366481                4.24570272              -10.18590350               -6.87232674               75.23740336              -14.15051274
              28.55612009                4.39818079               63.55165387                0.00010000                1.78993280                5.85257359              -15.03162275               -5.39253008               72.48324747              -16.42739170
              29.58039462                2.91695205               63.32787806                0.00010000                3.50166466                7.69647128              -20.89915331               -3.06960560               69.59504626              -18.94315502
              30.62615339                1.46815965               63.07781958                0.01739651                6.44804185                9.50362846              -28.29598594                0.58359240               67.21717433              -21.47729116
              31.70935546                0.06588247               62.80811786                0.11165737                9.96284469               10.80285616              -37.72875619                2.04113007               39.03924122              -23.65161978
              32.82541028               -1.35583874               61.98364584                0.59350778               11.60548175               12.13702726              -40.21935362                1.63681684               12.57088097              -36.10251099
              24.00245258               14.35133363               65.38831933                0.61899679                0.20598078               -0.49956286                1.37525410               -0.11120832                0.16700463                7.29045904
              25.00451239               12.93727500               64.37596669                0.06769567               -0.26854205                0.90791822               -2.74296913               -2.75704566               34.83152035               -6.53705014
              25.99708174               11.46657817               64.05681292                0.00010000               -0.96770715                1.05583331                2.07311265               -6.36396368               80.97901656               -6.66020096
              26.98515824                9.95871007               63.96504408                0.00010000               -0.69425384                1.63842660               -2.04500388               -7.07659907               91.78752017               -7.47082651
              27.98319666                8.44763543               63.86253816                0.00010000                0.03329560                2.83625723               -6.00883118               -6.24736202               90.00899046               -8.47385504
              28.98582416                6.94520719               63.74038696                0.00010000                0.54975455                4.37293765              -10.27870755               -5.08798023               87.42275332               -9.69962758
              29.99419175                5.45916340               63.59347356                0.00010000                1.39122451                6.16285265              -15.25078110               -3.57072616               84.44322247              -11.11783377
              31.01364865                3.99719954               63.41966850                0.00010000                3.02216416                8.14399802              -21.36687814               -1.49077443               81.49449540              -12.59602631
              32.05463503                2.56653399               63.22088365                0.02123974                6.11731532               10.05332880              -29.16058923                1.37884257               79.20220070              -13.82985911
              33.13599495                1.17597547               63.00457119                0.11604539               10.01522235               11.10858988              -38.95342875                1.96283927               45.55105150              -14.61903800
              34.25493948               -0.23104171               62.12129470                0.59615727               11.89445298               12.61482168              -41.50241627                1.11615907               13.60137195              -27.09656856
              25.40835517               15.34703338               65.21909041                0.61505961                0.39244279               -0.35435390                0.92548618               -0.11224961               -0.12318702                6.34776278
              26.41227959               13.94752237               64.13557254                0.06302932                0.56167268                1.13655586               -3.54376179               -3.55256968               42.50097284               -5.90571690
              27.41958862               12.47530002               63.90433885                0.00010000                0.71878602               -0.22849962                1.88019451               -5.18925215               95.67690764               -3.75135967
              28.42665531               10.97164166               63.87751652                0.00010000                0.56069084                0.93958830               -1.94505244               -4.72011998              105.17599920               -3.95187673
              29.43080244                9.47457957               63.83673254                0.00010000                0.23265394                2.56076671               -5.73144883               -3.59742605              103.06591090               -4.36362798
              30.43130839                7.98881526               63.77425131                0.00010000                0.09553927                4.34311781               -9.84096406               -2.70657386              100.22972892               -4.93734765
              31.43271322                6.52143784               63.68550576                0.00010000                0.59500793                6.23582172              -14.68720590               -1.64159962               97.07696918               -5.60763320
              32.44320855                5.07983201               63.56953762                0.00010000                2.11205405                8.22403611              -20.75495859               -0.22450159               94.18544093               -6.26468681
              33.47495430                3.66922623               63.43183554                0.02505546                5.14896979               10.19724104              -28.64500404                1.47367376               92.23328478               -6.59421588
              34.54618795                2.28805427               63.28160752                0.12075387                9.34067665               11.14653757              -38.31097983                1.49209198               52.41805815               -5.87232691
              35.66176783                0.89645769               62.33704818                0.59874862               11.55798881               12.38258273              -40.94557274                0.35339802               14.10689142              -16.36025915
              26.79922960               16.34424655               65.03117247                0.80625013                0.59647500               -0.27868254                0.38051569                0.66339970                2.87937989                5.40318147
              27.80519435               14.96000612               63.90987750                0.53014364                3.49739057                1.24837460               -4.27555830               -4.82044359               52.61612279               -5.13556892
              28.86917741               13.46200817               63.78299645                0.46033320                4.31409729               -1.32918486                1.72738291               -4.16633515              111.36684156               -1.84137495
              29.89147629               11.97750184               63.82443901                0.44403485                1.24485652                0.58601796               -1.76018368               -1.67577270              118.86596056               -1.84003828
              30.89407454               10.49885076               63.85023715                0.43851019               -0.33209413                2.42711895               -5.15499603               -0.94440433              116.54039054               -2.02993156
              31.88483441                9.03206955               63.85302175                0.44257852               -1.18657632                4.32542876               -8.84586210               -0.39594477              113.51506938               -2.29069788
              32.87034301                7.58387984               63.82847796                0.45595959               -1.17320888                6.24419920              -13.24020253                0.24351468              110.16772808               -2.57829011
              33.86137023                6.16168026               63.77583938                0.47932174                0.27716207                8.18482530              -18.82907721                1.14611660              107.08577611               -2.81177708
              34.87588625                4.77047881               63.70151465                0.51390501                3.86175455               10.12525811              -26.28124856                1.95449324              105.52059143               -2.77344767
              35.93860532                3.39890622               63.62628397                0.56186848                8.46571655               11.08519594              -35.31220069                1.54829424               61.30123343               -1.00008479
              37.04520058                2.01660994               62.65862076                0.80021953               10.65952611               12.01522459              -37.75197392                0.11364644               18.01861438               -9.47494209
              12.76753106                6.68823159               67.82271074                0.85639677               -1.39676212               -1.56824840                5.32063891               -0.39441289               -4.20103922                4.70564503
              13.75356344                5.11143966               67.31358054                0.61205014               -1.33034052               -0.91897992                3.60737794               -0.40701930               -5.94294567               -3.41203092
              14.74092425                3.52838597               66.77036016                0.51120855               -1.18641703               -0.49925409                1.75032717               -0.46871763               -6.13771855               -0.62051317
              15.72983510                1.93051040               66.25826701                0.46592182               -0.87681398               -0.00778126               -0.00332633               -0.43082820               -3.87041113               -0.50008815
              16.72338797                0.31549963               65.76074587                0.44355412               -0.27389177                0.48206467               -1.80860490               -0.35156869               -2.52379704               -0.30342766
              17.72435726               -1.31378086               65.27525438                0.44225074                0.55445163                0.98518089               -3.65615026               -0.27022942               -1.68656731               -0.08497319
              18.73447700               -2.95005207               64.79358658                0.46223796                1.45188827                1.48422455               -5.50895267               -0.23415295               -1.77860507                0.14118246
              19.75339503               -4.58508425               64.30508566                0.50380815                2.24488052                1.96891193               -7.32052450               -0.23879128               -2.76597525                0.35459463
              20.77937461               -6.21304085               63.80234370                0.56839435                2.87034909                2.44257200               -9.09502295               -0.24790584               -4.46622007                0.44746861
              21.81080201               -7.83151205               63.27835116                0.65806425                3.36932222                2.90940962              -10.88349548               -0.25885549               -5.03512626                1.15668613
              22.84676106               -9.44096955               62.76254989                0.86528566                3.59590475                3.44357165              -12.63676177               -0.67176255               -4.53010308               -3.42200954
              14.34037886                7.67254910               67.61646109                0.67305326               -1.09628077               -1.58089201                4.66139493               -0.20640326                2.71993069                6.58268143
              15.32941605                6.10224986               67.10140896                0.15611385               -0.68385809               -0.70501043                2.95376089               -0.40927435                6.46303808               -6.22544138
              16.32670170                4.52339343               66.66176142                0.00010000                0.12769675                0.04647616                1.61197723               -1.60305564               10.48561054               -9.56135641
              17.33196999                2.93043259               66.22695832                0.00010000                0.76581072               -0.88193059                0.16440474               -3.06167024               11.50393219              -10.44439969
              18.34201791                1.32032027               65.80749329                0.00010000                1.12304133               -0.83315560               -1.29413047               -4.07287069               12.86555327              -12.37225200
              19.35443081               -0.30392905               65.39994038                0.00010000                1.28846278               -0.50937189               -2.79953174               -4.51760451               13.63109108              -14.82872314
              20.36778717               -1.93520982               64.99581332                0.00010000                1.40353453               -0.01617597               -4.29800400               -4.30424463               13.44553167              -17.34650249
              21.38250150               -3.56539513               64.58430421                0.00010000                1.61611423                0.56986043               -5.75653302               -3.43980122               12.32007192              -19.00954126
              22.40010945               -5.18861513               64.15705553                0.06622032                1.98381491                1.46177940               -7.16903062               -1.90950512               10.82362926              -16.71237308
              23.42217780               -6.80241796               63.71456113                0.19960083                2.46957369                2.63948040               -8.58911800               -0.67104859                7.90027749               -0.07665930
              24.44950093               -8.40653383               63.22734595                0.65366987                2.73231239                3.63816644              -10.14075717               -0.52433013                5.76013081               -9.63079911
              15.90400148                8.65661375               67.44858022                0.63176106               -0.94678611               -1.50298227                4.23451402               -0.13453745                0.18350784                7.97684561
              16.89453362                7.09733945               66.83339863                0.08607628               -1.16605415               -0.36995358                2.00712518               -0.39435124                7.97751802               -8.22768928
              17.88068040                5.52931549               66.37461413                0.00010000               -1.14293870                0.08503230                1.31629083               -4.00859567               19.75526063              -17.43237519
              18.87167485                3.91287179               65.99670017                0.00010000               -0.21941031               -1.04679174               -0.36176256               -7.32862151               23.46115063              -20.28789202
              19.87629220                2.29883651               65.61252849                0.00010000                0.89302083               -1.44026386               -2.41059333               -8.25432359               23.13802726              -24.32962338
              20.88953527                0.67603170               65.22913013                0.00010000                1.67829981               -1.27101117               -4.52684336               -8.97217875               23.17464344              -29.28644987
              21.90985819               -0.95037559               64.84737829                0.00010000                2.42345216               -0.76393960               -6.78389273               -8.58822763               23.63207314              -34.54785224
              22.93800431               -2.57368704               64.47504761                0.00010000                3.41745701                0.03127211               -9.27254251               -6.83308376               27.25124571              -39.09475058
              23.97820733               -4.18380526               64.16709227                0.00010000                3.86477148                1.32700949              -12.79883456               -3.99480621               43.69037418              -41.48536530
              25.01529974               -5.77872245               64.12433466                0.08058981                3.31494368                3.76866307              -10.07754336               -1.31210522               31.46850761              -44.00839130
              26.04450621               -7.36820622               63.56592145                0.57492966                2.92064667                6.10026953              -10.65994553                0.33649702                6.29725621              -56.20708889
              17.45623671                9.64248946               67.27127548                0.62749540               -0.74094286               -1.31774457                3.73636392               -0.11448539                0.11072207                7.55954297
              18.44882728                8.09485079               66.58113545                0.08039274               -1.26196339               -0.15356887                1.19526218               -1.02150011               11.18818927               -7.27424418
              19.43099744                6.52509408               66.11294568                0.00010000               -1.64753715               -0.25705555                2.17881041               -4.68272678               28.51815114              -15.41700774
              20.41587654                4.90949676               65.77281176                0.00010000               -0.86129560                0.02817194               -0.84382070               -7.62128466               34.43453085              -19.31327037
              21.41377153                3.29151499               65.42274546                0.00010000                0.41614014               -0.05597621               -3.47285582               -8.40945797               33.55205393              -23.45053299
              22.42419934                1.67065073               65.06670170                0.00010000                1.59849169                0.23047479               -6.20211364               -8.89813785               32.99051120              -28.16765002
              23.44574136                0.04951138               64.70788614                0.00010000                2.75350817                0.85979719               -9.18017111               -8.63097823               33.05193488              -33.52295560
              24.47926950               -1.56476969               64.35582717                0.00010000                3.97536831                1.87178732              -12.58909513               -7.23696607               34.71013368              -39.90309330
              25.52524873               -3.16207494               64.03243326                0.00010000                5.05335765                3.34621704              -15.97225319               -4.42959553               34.61616860              -50.55268128
              26.58033666               -4.72704470               63.67882938                0.08180408                5.49748448                6.37061497              -20.68600423               -0.96532433               22.00540457              -76.85861401
              27.63519842               -6.28452844               63.09508310                0.57522659                5.48617622                9.17302734              -22.12961211                2.07111243               11.45722614              -90.31076991
              18.99698912               10.63025885               67.09596213                0.62379615               -0.54901179               -1.13714690                3.26333376               -0.11194497                0.11740810                7.69849598
              19.99149900                9.09426807               66.33212379                0.07597683               -1.23046126                0.04523790                0.38608363               -1.62573239               15.41136956               -7.00705434
              20.97237990                7.52417438               65.87446673                0.00010000               -1.93353830                0.17068650                2.14322664               -5.43683442               37.95476838              -13.61019966
              21.95282824                5.91343523               65.56478592                0.00010000               -1.27154151                0.75277666               -1.27004363               -8.04096857               44.95157427              -17.68350961
              22.94694907                4.29771699               65.24693028                0.00010000                0.03739408                1.16475042               -4.45158107               -8.68489934               43.95947444              -21.74883361
              23.95357612                2.68064120               64.91887146                0.00010000                1.28549895                1.70943654               -7.72854673               -8.94901203               42.79233711              -26.27600169
              24.97265904                1.06682036               64.58028849                0.00010000                2.56375972                2.57897473              -11.36381016               -8.55779148               41.61743512              -31.65795176
              26.00485131               -0.53625130               64.23140085                0.00010000                3.96156903                3.84095664              -15.53760112               -7.11468329               39.98341075              -38.69431423
              27.05189043               -2.11688092               63.86154823                0.00011579                5.67977204                5.64029614              -20.64514184               -3.61126162               36.71811347              -49.04136129
              28.11844675               -3.65131015               63.44499865                0.08601351                7.45027615                8.26651908              -27.33345367               -0.18575538               21.90559922              -60.81766679
              29.20089595               -5.18474567               62.77027944                0.57767663                8.24491942               10.30237180              -30.03480084                2.24107239                9.71859253              -76.05650808
              20.52597938               11.61974652               66.92221727                0.62030532               -0.35822743               -0.96999437                2.79752512               -0.10986752                0.12189955                7.78066664
              21.52239711               10.09575554               66.08509001                0.07100383               -1.14428932                0.25551348               -0.41416114               -2.08280712               20.27694253               -6.83821322
              22.50309359                8.52850781               65.65126827                0.00010000               -2.04412726                0.66103003                1.94623710               -6.01419739               48.23371167              -12.09880935
              23.48151456                6.92455229               65.37530804                0.00010000               -1.51130095                1.42924799               -1.75951859               -8.23931354               55.78298252              -15.73141858
              24.47286757                5.31481000               65.09148688                0.00010000               -0.26994135                2.14010598               -5.30116790               -8.73450917               54.62710315              -19.40050636
              25.47611573                3.70483946               64.79379782                0.00010000                0.93052282                2.98935502               -9.03244088               -8.72320984               52.87256859              -23.49863751
              26.49147803                2.10109088               64.47736059                0.00010000                2.22806912                4.13693860              -13.24110098               -8.03298223               50.56986587              -28.40976744
              27.52067712                0.51204944               64.13597584                0.00010000                3.83021571                5.65592227              -18.25508368               -6.22231381               47.53134361              -34.56216304
              28.56808234               -1.04926902               63.75945560                0.00327576                6.19045932                7.56823579              -24.54322693               -2.38012986               43.40826596              -41.93291515
              29.64448630               -2.56171431               63.33259937                0.09023031                8.94042898                9.58145363              -32.93842634                0.71378724               25.83536093              -49.80688231
              30.74689092               -4.07848101               62.59658060                0.58023627               10.24046223               11.05598067              -36.04031273                2.24728496               11.07158878              -63.36763494
              22.04277372               12.61085897               66.74921501                0.61672545               -0.16921481               -0.81226652                2.33755671               -0.10944886                0.13157102                7.79097982
              23.04108157               11.09937834               65.83927168                0.06665882               -0.97372602                0.47343062               -1.21123462               -2.44558554               25.79607734               -6.74632543
              24.02329920                9.53739498               65.44272945                0.00010000               -1.96709029                1.07313937                1.66758670               -6.35323575               59.48260703              -10.50758816
              25.00173977                7.94202019               65.20624898                0.00010000               -1.56637441                1.95676119               -2.19612584               -8.18370548               67.19938014              -13.46190716
              25.99197171                6.34051911               64.96188239                0.00010000               -0.44543617                2.84065196               -5.97171164               -8.41299384               65.87678840              -16.46320942
              26.99283105                4.74042830               64.70014817                0.00010000                0.64088507                3.93775762              -10.03408004               -8.04387558               63.62897692              -19.86758191
              28.00478942                3.14955913               64.41328758                0.00010000                1.89669443                5.35444656              -14.71568036               -6.99307981               60.61760135              -23.90875971
              29.03076493                1.57686715               64.09368274                0.00010000                3.66310837                7.08441132              -20.40958579               -4.91788720               56.89172762              -28.70928764
              30.07805158                0.03448379               63.73317717                0.00658185                6.55847766                8.98312594              -27.68238441               -1.09116553               52.54796935              -34.17114045
              31.16193449               -1.45968107               63.32431640                0.09466736               10.06617246               10.71264762              -37.49143100                1.41305665               31.23866237              -39.74031675
              32.27937503               -2.96362606               62.52958247                0.58255656               11.74405451               12.00996685              -40.76393737                2.17483328               12.70502354              -53.02164040
              23.54675166               13.60350119               66.57624123                0.61315451                0.01977209               -0.66249955                1.87864620               -0.11028695                0.13413771                7.71960855
              24.54694938               12.10522416               65.59381686                0.06194728               -0.66823151                0.69974697               -2.00911304               -2.76931249               32.03962018               -6.71998383
              25.53338703               10.54997059               65.24951541                0.00010000               -1.61165269                1.35756315                1.32559843               -6.53265605               71.88457183               -8.75660055
              26.51471632                8.96368751               65.06050247                0.00010000               -1.35937198                2.18851161               -2.52380969               -7.84062155               79.39879714              -10.79244677
              27.50619959                7.37162304               64.86322492                0.00010000               -0.42590615                3.16611733               -6.39203455               -7.62070701               77.90739463              -12.97140830
              28.50619820                5.78359461               64.64540922                0.00010000                0.44889989                4.48923259              -10.64467386               -6.83879075               75.27358703              -15.52466582
              29.51517759                4.20817981               64.39806219                0.00010000                1.55982514                6.14789392              -15.64585718               -5.49491769               71.80039053              -18.54616486
              30.53739470                2.65373767               64.11354293                0.00010000                3.38148342                8.07902597              -21.84695831               -3.35655869               67.67893355              -22.04679623
              31.58280725                1.13039350               63.78542336                0.00993523                6.67312922               10.03717301              -29.90436190                0.10168271               63.28235021              -25.91263403
              32.67085729               -0.34746136               63.41175039                0.09877412               10.77351554               11.59176981              -40.88196767                1.86801763               37.47055073              -29.86201531
              33.79827756               -1.83828167               62.55895615                0.58505088               12.74202756               13.05310287              -44.21509532                1.93359794               14.41475658              -43.04654600
              25.03712205               14.59760898               66.40228407                0.60948350                0.21038707               -0.51669533                1.41462037               -0.11279322                0.17500664                7.65997362
              26.03922592               13.11337328               65.34817616                0.05740251               -0.14696631                0.93373846               -2.81124558               -3.15116245               39.11958888               -6.85084181
              27.03418272               11.56454625               65.07287308                0.00010000               -0.79755162                1.30981824                0.94506946               -6.60564838               85.61893419               -6.66382276
              28.02327489                9.98579042               64.94176929                0.00010000               -0.72661235                1.90153359               -2.70681655               -6.91603083               92.53300026               -7.63497517
              29.01965048                8.40384145               64.80028180                0.00010000               -0.18882133                3.11191557               -6.49997253               -6.12586708               90.79395674               -8.97679078
              30.01949846                6.83021295               64.63523161                0.00010000                0.25487632                4.67757539              -10.77157574               -5.04991496               87.84192894              -10.64407293
              31.02474800                5.27251701               64.43760470                0.00010000                1.09608039                6.53001224              -15.89476092               -3.63887233               84.06419357              -12.63771388
              32.04142007                3.73844767               64.20041188                0.00010000                2.82681312                8.63156639              -22.37620468               -1.68245238               79.74271667              -14.90656514
              33.08128427                2.23522725               63.91903706                0.01346166                6.32749701               10.77483868              -30.96234609                1.08749595               75.27388383              -17.24140937
              34.16797001                0.77215432               63.59232808                0.10316140               10.92016703               12.20181672              -42.77936276                1.92529170               44.20949083              -19.39117450
              35.29968761               -0.70256400               62.68022995                0.58751074               13.17175967               13.88874894              -46.14496666                1.40225493               15.96412239              -32.60956700
              26.51296719               15.59316728               66.22850013                0.60584750                0.40216719               -0.36555310                0.95330017               -0.11496487               -0.13149009                6.67233994
              27.51698886               14.12389892               65.09965178                0.05342561                0.79448644                1.16684863               -3.63515974               -3.83712066               47.19522035               -6.19885952
              28.52885692               12.57616696               64.91714973                0.00010000                1.00558197                0.09442125                0.54158238               -5.28600160              101.05958284               -3.72872824
              29.53710050               11.00171818               64.85478080                0.00010000                0.52014003                1.27580435               -2.69995380               -4.60370541              106.57688475               -3.97967470
              30.53925972                9.43386135               64.77713686                0.00010000               -0.02880738                2.88537252               -6.25588253               -3.52103214              104.47763280               -4.58750036
              31.53652435                7.87714612               64.67353334                0.00010000               -0.25471471                4.69169663              -10.33898679               -2.68289949              101.29626065               -5.40564775
              32.53416542                6.33878006               64.53543311                0.00010000                0.22555287                6.65300679              -15.32266629               -1.67577860               97.32882276               -6.39855603
              33.54103541                4.82636900               64.35660052                0.00010000                1.83425466                8.77677399              -21.75874508               -0.30343958               92.96598751               -7.51941865
              34.57085052                3.34589027               64.13516508                0.01721825                5.30594859               11.00799424              -30.49143753                1.38964402               88.78899564               -8.57096705
              35.64715438                1.89657497               63.87394112                0.10728174               10.24543999               12.48020019              -42.62583514                1.52951915               51.66983377               -8.56222152
              36.77575932                0.43949331               62.90028621                0.58990392               12.86049355               13.89670535              -45.98083425                0.50861866               17.13285325              -19.63092565
              27.97335947               16.59029791               66.03505694                0.80166672                0.61243647               -0.28693680                0.39197791                0.68046174                3.02656519                5.68215996
              28.97948383               15.13671025               64.86651505                0.52523900                3.86419821                1.28113268               -4.38832433               -4.94366486               57.82683173               -5.39877300
              30.05064343               13.56643467               64.79367483                0.45921777                4.70112758               -0.97322864                0.30533786               -4.09153557              117.51843054               -1.79570497
              31.07350638               12.01130651               64.80354312                0.44379500                1.15792347                0.95883246               -2.51757449               -1.60369976              121.08657588               -1.86397750
              32.07380190               10.46154891               64.79653240                0.43858617               -0.62923072                2.76875521               -5.66331576               -0.90876284              118.86456172               -2.16463272
              33.06092177                8.92404688               64.76253269                0.44226040               -1.58961742                4.69007665               -9.31121587               -0.35884634              115.59417863               -2.56392348
              34.04200955                7.40557714               64.69334673                0.45502165               -1.63403556                6.67970866              -13.82030487                0.28122618              111.54831942               -3.03438239
              35.02824106                5.91398315               64.58296331                0.47714654               -0.15691924                8.76141513              -19.74049334                1.21106485              107.08165046               -3.53459793
              36.03887117                4.45538714               64.42966561                0.50987804                3.83581494               10.94968646              -27.96132483                2.19082425              103.41817072               -3.96923080
              37.10495736                3.02175833               64.25029236                0.55522122                9.25760689               12.51833540              -39.57680676                1.77944594               61.73269722               -2.58388766
              38.22402331                1.57537010               63.25655096                0.79576504               11.90659488               13.58767942              -42.58782803                0.18757670               22.10837743              -11.43317657
              13.24237616                6.94569986               68.87661332                0.84889624               -1.43393647               -1.60906139                5.45872721               -0.40638006               -4.37145916                4.87993106
              14.22803679                5.29199268               68.35010991                0.60252036               -1.37290601               -0.94075656                3.69799202               -0.42996757               -6.18463753               -3.56747560
              15.21491803                3.63160534               67.78807477                0.50749966               -1.21948769               -0.51282950                1.79399982               -0.47487558               -6.39973226               -0.59250887
              16.20364704                1.95595645               67.25821684                0.46450090               -0.87853441               -0.00496919               -0.00519051               -0.43168284               -4.10634396               -0.50295152
              17.19734735                0.26314105               66.74241087                0.44325404               -0.24550999                0.49913765               -1.85474332               -0.35373464               -2.81043438               -0.30078615
              18.19873684               -1.44362854               66.23822184                0.44206700                0.60325509                1.01556302               -3.74662946               -0.27880653               -2.00388669               -0.08893971
              19.20941245               -3.15694779               65.73778599                0.46115170                1.51202731                1.52793219               -5.64215214               -0.24297542               -2.08359821                0.13777214
              20.22897738               -4.86861736               65.23095307                0.50028674                2.31366140                2.02654483               -7.50149756               -0.24892370               -3.03581615                0.34727020
              21.25568568               -6.57291660               64.71021720                0.56154126                2.94709390                2.51383536               -9.32277699               -0.25635103               -4.72883221                0.44634006
              22.28791926               -8.26757546               64.16805705                0.64624602                3.45566682                2.99533896              -11.15926553               -0.26530300               -5.29152945                1.16835670
              23.32479901               -9.95323603               63.63444918                0.85727825                3.68797518                3.54439885              -12.96308274               -0.67575964               -4.77519355               -3.56494745
              14.89201953                7.92960924               68.66367710                0.66019330               -1.12351542               -1.62724742                4.78123589               -0.21727034                2.89208226                6.87779753
              15.88078438                6.28258512               68.13131427                0.14078586               -0.69160655               -0.71528184                3.02707353               -0.44110104                6.82062608               -6.52793875
              16.87818740                4.62647704               67.67804749                0.00010000                0.13889885               -0.09201469                1.64238642               -1.69781900               10.97462033               -9.57490299
              17.88356235                2.95590675               67.22852828                0.00010000                0.77075468               -0.99066931                0.15061890               -3.15968378               11.93299792              -10.79329985
              18.89360249                1.26813243               66.79425262                0.00010000                1.12154203               -0.88732528               -1.35456839               -4.18035867               13.26806801              -13.18816240
              19.90599319               -0.43347291               66.37140996                0.00010000                1.29373059               -0.53887466               -2.90521495               -4.64802075               14.01155460              -16.13119031
              20.91947710               -2.14166847               65.95205162                0.00010000                1.42396778               -0.04235015               -4.45282595               -4.47029835               13.84458495              -19.21267436
              21.93447255               -3.84835191               65.52572199                0.00010000                1.65620565                0.52825533               -5.95786573               -3.65080765               12.76129118              -21.59172046
              22.95260122               -5.54777824               65.08411004                0.05571127                2.04766989                1.34823358               -7.41975761               -2.19071498               11.28148448              -20.53043041
              23.97542595               -7.23762207               64.62713456                0.18162239                2.55503846                2.76719107               -8.88598488               -0.83645837                8.28727884               -2.37126005
              25.00370199               -8.91779204               64.12415399                0.64163414                2.82760397                3.80569560              -10.48586459               -0.38249158                6.08054575              -11.55808064
              16.53207900                8.91315491               68.49149872                0.62115546               -0.97320298               -1.55183020                4.34477786               -0.13687670                0.16482078                8.35478691
              17.52234697                7.27768705               67.85373735                0.07444037               -1.22194908               -0.36740773                2.06092234               -0.57834491                8.77211682               -8.60971041
              18.50764002                5.62976504               67.38862555                0.00010000               -1.17744972               -0.24946747                1.47149635               -4.30796902               20.81096396              -17.10819270
              19.49879798                3.93614306               66.99298461                0.00010000               -0.22600925               -1.22570218               -0.40503584               -7.44910595               23.85974547              -20.97043144
              20.50311983                2.24539454               66.58802123                0.00010000                0.83896708               -1.53995932               -2.49956849               -8.39556848               23.38385488              -25.92563828
              21.51557732                0.54559397               66.18314963                0.00010000                1.58828237               -1.32691119               -4.66760676               -9.17938086               23.32335037              -31.83236712
              22.53488548               -1.15779479               65.77841789                0.00010000                2.32468422               -0.81548899               -6.99540833               -8.86473306               23.56937735              -38.18778574
              23.56207100               -2.85805225               65.38056683                0.00010000                3.31280272               -0.05890713               -9.59302209               -7.22408568               26.50666893              -44.08256905
              24.60114154               -4.54595192               65.03704840                0.00010000                3.95664430                1.17054872              -13.16781828               -4.15200612               45.04561105              -47.91162864
              25.64120389               -6.21223164               65.01374116                0.06871835                3.81737928                3.48571464              -12.40202340               -1.19885509               34.41055054              -52.50656873
              26.67748912               -7.87712211               64.45206764                0.56709115                3.62852331                5.63690358              -12.43741727                0.68964718                8.33955121              -65.11677895
              18.16021772                9.89857264               68.30913629                0.61708770               -0.76103785               -1.36048533                3.83166613               -0.11694091                0.11308917                7.91246463
              19.15260734                8.27523696               67.59325959                0.06894343               -1.33228579               -0.14813269                1.23038665               -1.43306674               12.94376081               -7.58663349
              20.13357201                6.62148769               67.13438448                0.00010000               -1.68283052               -0.49700698                1.97614128               -5.04591199               30.14242135              -14.96612979
              21.11895073                4.93139271               66.76392420                0.00010000               -0.86658963               -0.07938980               -0.97629633               -7.55397805               34.34406190              -19.97249644
              22.11624021                3.23733324               66.38733859                0.00010000                0.33220914               -0.09878588               -3.62576355               -8.44359740               33.65117839              -24.97251611
              23.12559491                1.53998887               66.00367584                0.00010000                1.47942242                0.22966267               -6.40059310               -8.97915155               32.93679712              -30.59838619
              24.14582866               -0.15797825               65.61455504                0.00010000                2.62765248                0.86876009               -9.46097368               -8.75129021               32.65148205              -36.98413951
              25.17814796               -1.84953005               65.22761280                0.00010000                3.89559095                1.84726266              -13.00011659               -7.36420022               34.02476094              -44.56149680
              26.22374048               -3.52436727               64.86853831                0.00010000                5.22355348                3.25322253              -16.73111845               -4.49568252               33.21518996              -56.40990951
              27.28261903               -5.16790777               64.46652903                0.07027226                6.17677032                5.59245379              -21.59740416               -1.08596860               21.48709838              -87.56367444
              28.34727589               -6.80505397               63.86569414                0.56747593                6.46568525                8.14285944              -23.65187145                1.85770770               12.50109677             -103.02013104
              19.77641154               10.88594520               68.12901269                0.61368564               -0.56409532               -1.17316455                3.34489264               -0.11218779                0.11969092                8.06898749
              20.77077058                9.27472439               67.33605649                0.06463362               -1.29227518                0.05298151                0.40268198               -2.09984137               17.67187354               -7.31312837
              21.75056603                7.61982490               66.89443763                0.00010000               -1.94488574                0.15369889                1.70132673               -5.82062962               40.12499679              -13.60518307
              22.73187287                5.93455526               66.55100007                0.00010000               -1.24571527                0.72386366               -1.55080080               -7.91468294               44.85235409              -18.32656504
              23.72565173                4.24341883               66.20134022                0.00010000               -0.02835456                1.17768487               -4.69017531               -8.61672441               43.97189444              -23.15982995
              24.73130578                2.55018722               65.84023854                0.00010000                1.18634345                1.74557650               -7.99553284               -8.92954629               42.62258721              -28.52312665
              25.74937860                0.85958041               65.46474968                0.00010000                2.49351197                2.60871062              -11.70989516               -8.57382461               41.03487162              -34.87112993
              26.78117602               -0.82110700               65.07317864                0.00010000                4.01135065                3.81546141              -16.02412245               -7.17242481               38.69368496              -43.08312308
              27.82960561               -2.48088747               64.65106754                0.00010000                5.94975989                5.43427198              -21.27772687               -3.91890355               34.19412016              -55.27931536
              28.90017121               -4.10038256               64.16643806                0.07437471                7.96650248                7.63788365              -27.94545874               -0.56772836               20.40660213              -69.56169125
              29.98893566               -5.71426493               63.46144940                0.56982088                8.87644445                9.65980463              -31.19963962                1.85917763                9.89829964              -86.45475720
              21.38041559               11.87510935               67.95054878                0.61031160               -0.36847718               -1.00021451                2.86622776               -0.11120595                0.12609415                8.15976402
              22.37673081               10.27629659               67.08093124                0.06011961               -1.15435215                0.26602494               -0.41527228               -2.56265643               22.95528181               -7.13906081
              23.35732854                8.62456167               66.66809974                0.00010000               -1.98338317                0.73823221                1.25790699               -6.37406752               50.91253816              -12.17510434
              24.33706315                6.94586998               66.35591454                0.00010000               -1.45273886                1.48694721               -2.18359799               -8.07998504               55.79894528              -16.34859283
              25.32827377                5.26088694               66.03696019                0.00010000               -0.31103708                2.20382813               -5.63489898               -8.61389814               54.69303708              -20.65760569
              26.33084241                3.57490040               65.70177487                0.00010000                0.86863112                3.05714384               -9.37115517               -8.66126770               52.68362142              -25.51214047
              27.34564639                1.89419596               65.34270042                0.00010000                2.21624700                4.18273621              -13.64983206               -8.05222377               49.83253590              -31.33249537
              28.37516735                0.22677918               64.95022891                0.00010000                3.94957922                5.63121333              -18.78255737               -6.40446149               45.84670910              -38.66985500
              29.42463797               -1.41568183               64.50947446                0.00010000                6.47372847                7.39791603              -25.20384118               -2.96577749               40.08036650              -47.66725676
              30.50464192               -3.01515010               63.99682032                0.07831046                9.37930990                9.31717763              -33.61344265                0.15973244               23.85964856              -57.94151421
              31.61222417               -4.61185787               63.22571442                0.57216470               10.75822518               10.88371526              -37.43032964                1.99889283               11.28571796              -72.67994281
              22.97181293               12.86594091               67.77289577                0.60696799               -0.17477961               -0.83808016                2.39519072               -0.11070347                0.13477729                8.17359994
              23.97006513               11.28004489               66.82703874                0.05603458               -0.91508180                0.48816322               -1.23145454               -2.89494565               28.84090314               -7.04719174
              24.95351129                9.63458955               66.45541612                0.00010000               -1.80586160                1.21730195                0.73143439               -6.68852187               62.66911967              -10.63382969
              25.93394790                7.96429421               66.18178321                0.00010000               -1.45839719                2.08169460               -2.76262995               -8.03231596               67.44887436              -13.97805700
              26.92434335                6.28749539               65.90020483                0.00010000               -0.45882514                2.95699566               -6.39987097               -8.28749647               66.10921986              -17.52249983
              27.92477140                4.61133010               65.59777286                0.00010000                0.60559963                4.04396753              -10.44392791               -7.99361161               63.52816236              -21.59094254
              28.93645534                2.94323513               65.26355659                0.00010000                1.90965900                5.43722047              -15.18644547               -7.07325165               59.84417204              -26.46713286
              29.96296458                1.29151727               64.88594491                0.00010000                3.78819985                7.12539040              -21.00892135               -5.23597527               54.95451345              -32.36592423
              31.01221934               -0.33292915               64.45081513                0.00010000                6.82886650                8.98644541              -28.47892598               -1.83006603               48.58550995              -39.36447288
              32.09954191               -1.91403901               63.94058004                0.08222666               10.50548603               10.78902915              -38.52253459                0.84651484               29.01860203              -47.25074081
              33.22232906               -3.49659062               63.10863680                0.57444281               12.27871513               12.22203663              -42.65819470                2.09832479               13.25324727              -61.56001835
              24.54999356               13.85834775               67.59526566                0.60360604                0.01897066               -0.68333569                1.92417956               -0.11100842                0.13911529                8.10136021
              25.55018327               12.28605986               66.57351174                0.05195219               -0.53423846                0.71891785               -2.04872952               -3.15950089               35.41726038               -7.02569114
              26.53930879               10.64890771               66.25733883                0.00010000               -1.33361376                1.55389204                0.15605727               -6.80999969               75.59437914               -8.91076556
              27.52351099                8.98750388               66.03210141                0.00010000               -1.19104227                2.37190180               -3.22675360               -7.72096163               80.02589090              -11.18567862
              28.51548794                7.32002685               65.79691981                0.00010000               -0.41402774                3.33461436               -6.91008582               -7.52269968               78.43701367              -13.78480934
              29.51523044                5.65577975               65.53662949                0.00010000                0.42531199                4.64357540              -11.12158378               -6.82590212               75.40063772              -16.89025585
              30.52399418                4.00294037               65.23873673                0.00010000                1.56908463                6.29015363              -16.17967237               -5.63263788               71.13965035              -20.63224192
              31.54661213                2.36928699               64.89093889                0.00010000                3.47993725                8.22466907              -22.53791084               -3.73936256               65.65285837              -25.11323384
              32.59359293                0.76404708               64.47973234                0.00250422                6.93107771               10.24466147              -30.89460545               -0.63396648               58.84052715              -30.38971426
              33.68523368               -0.79936952               63.99047851                0.08629705               11.28504813               12.00001301              -42.48148810                1.39928731               35.13171720              -36.49321848
              34.81929389               -2.36741714               63.09934393                0.57676536               13.40602095               13.60137531              -46.82272225                1.99969394               15.42258607              -50.62165480
              26.11416854               14.85227420               67.41661174                0.60007248                0.21466140               -0.53202201                1.44753225               -0.11366970                0.18304592                8.04261819
              27.11631515               13.29442325               66.31974177                0.04742562                0.08493726                0.95732137               -2.87115026               -3.46278391               42.82918436               -7.17291231
              28.11586728               11.66566739               66.07571431                0.00010000               -0.39528117                1.55079990               -0.42495337               -6.81742705               89.94938740               -6.83407712
              29.10840953               10.01173224               65.91090775                0.00010000               -0.51269003                2.13852328               -3.52933779               -6.83924103               93.70262029               -7.88563239
              30.10561348                8.35418768               65.73253871                0.00010000               -0.15348466                3.32760570               -7.09711617               -6.07080168               91.79118454               -9.50963410
              31.10533984                6.70420161               65.52495544                0.00010000                0.23409332                4.88107352              -11.30647041               -5.07212796               88.38518560              -11.58312016
              32.11029535                5.06903820               65.27557834                0.00010000                1.08653926                6.73921606              -16.48467197               -3.79813205               83.73266038              -14.12732958
              33.12707062                3.45601065               64.97214441                0.00010000                2.89505829                8.88026084              -23.15378632               -2.04449624               77.86059340              -17.18166735
              34.16819651                1.87196408               64.60163672                0.00574695                6.59606278               11.15656268              -32.16576263                0.48756407               70.66211269              -20.69888263
              35.25899188                0.32596125               64.14898393                0.09034564               11.51108346               12.91075360              -44.96549418                1.63513090               42.00495319              -24.66483864
              36.39841818               -1.22456311               63.19839537                0.57910131               13.94263078               14.74676594              -49.36079283                1.56960483               17.59337357              -38.77173163
              27.66342207               15.84770731               67.23815642                0.59688912                0.41123315               -0.37490353                0.97365969               -0.11629533               -0.14113880                7.00510101
              28.66753440               14.30520629               66.06286935                0.04363118                1.11145942                1.19404290               -3.71516400               -4.04928313               51.24728487               -6.49714575
              29.68565125               12.67992371               65.91517049                0.00010000                1.53357424                0.36882416               -0.95087616               -5.41406383              106.12195208               -3.83151586
              30.69820588               11.03027434               65.82351745                0.00010000                0.79756465                1.54827017               -3.61060557               -4.57020178              108.47357439               -4.08003932
              31.70160255                9.38657897               65.71161489                0.00010000                0.03657336                3.12896687               -6.90755153               -3.50552030              106.14514329               -4.83517282
              32.69893735                7.75340122               65.56747158                0.00010000               -0.26900241                4.92953845              -10.91543913               -2.71452256              102.51726501               -5.87132349
              33.69622250                6.13772469               65.37905244                0.00010000                0.19294908                6.91633742              -15.95525784               -1.79627939               97.66063438               -7.16790142
              34.70279633                4.54689220               65.13436272                0.00010000                1.85855551                9.11260302              -22.59971642               -0.54663103               91.64645521               -8.74828513
              35.73339361                2.98717833               64.82200679                0.00941242                5.58335799               11.50645290              -31.84015861                1.03387286               84.48620339              -10.53445630
              36.81446349                1.45884555               64.42909082                0.09458340               10.91705566               13.42823737              -45.40428993                1.38609455               49.96427720              -11.73345742
              37.95173472               -0.07248182               63.41743149                0.58139632               13.72712315               14.99900198              -49.71823926                0.68890040               19.61052990              -23.53334430
              29.19684467               16.84477613               67.03901202                0.79729382                0.62684146               -0.29311773                0.39603444                0.69505843                3.17813683                5.96465560
              30.20311309               15.31830411               65.82211101                0.52063801                4.28366394                1.30978213               -4.48589637               -5.02874387               62.38729163               -5.66350608
              31.28251795               13.67304387               65.78910321                0.45812606                5.36185746               -0.68798357               -1.20709804               -4.09365331              123.39130049               -1.88548128
              32.31035024               12.04269765               65.77408752                0.44356059                1.49291230                1.24233064               -3.43652040               -1.59940753              123.83045838               -1.95387154
              33.31237620               10.41676701               65.73697083                0.43857638               -0.52232903                3.01880495               -6.32193815               -0.91789855              121.44703349               -2.33133011
              34.29990366                8.80279238               65.66679743                0.44217352               -1.57487095                4.93911566               -9.90471680               -0.37347251              117.83613598               -2.85342544
              35.28087878                7.20736495               65.55207186                0.45414925               -1.66096478                6.96402589              -14.48354829                0.23914467              113.03711005               -3.50061408
              36.26668436                5.63826271               65.38102951                0.47515487               -0.19790786                9.13705093              -20.62711913                1.12521197              107.07018324               -4.28249952
              37.27692062                4.10209313               65.14228815                0.50603329                3.98447812               11.49148011              -29.36033812                2.16586557              100.45209223               -5.18738343
              38.34637392                2.59452600               64.83474784                0.54856738                9.89651608               13.56804469              -42.63259159                1.85723269               61.31395254               -4.69348330
              39.47485094                1.07541693               63.80686420                0.79139931               12.84770202               14.78987476              -46.45039005                0.40071454               25.94349590              -14.07812283
              13.73310869                7.21170265               69.93188529                0.84167321               -1.46994612               -1.64829997                5.59192094               -0.41837633               -4.54233141                5.05408248
              14.71840923                5.47768142               69.38754038                0.59357140               -1.41430111               -0.96177807                3.78449540               -0.45072036               -6.42443207               -3.72339716
              15.70482267                3.73659035               68.80624016                0.50362815               -1.25185577               -0.52457527                1.83777452               -0.47690332               -6.65755781               -0.56493062
              16.69337212                1.97982850               68.25816320                0.46322685               -0.88241950               -0.00296754               -0.00357414               -0.43422620               -4.33914517               -0.50234913
              17.68717428                0.20580041               67.72365100                0.44314582               -0.22338508                0.51462537               -1.89343033               -0.35588912               -3.09307914               -0.29857139
              18.68890441               -1.58193590               67.20032180                0.44195943                0.64497642                1.04552498               -3.82606786               -0.28556622               -2.31450282               -0.08919174
              19.70007381               -3.37582789               66.68074353                0.45957223                1.56715374                1.57326822               -5.76906401               -0.25773678               -2.38613235                0.12958437
              20.72024749               -5.16767670               66.15505571                0.49693738                2.38100875                2.08333975               -7.67525666               -0.26144955               -3.30715825                0.34041446
              21.74769398               -6.95189973               65.61588816                0.55439486                3.02459743                2.58447844               -9.54290541               -0.26790248               -4.98834314                0.43872822
              22.78073944               -8.72629993               65.05516585                0.63452709                3.53894702                3.07726634              -11.42001179               -0.27491921               -5.54463874                1.17600634
              23.81847292              -10.49167810               64.50328823                0.84940091                3.77334863                3.63642043              -13.26361638               -0.67781049               -5.01750301               -3.70873000
              15.46294616                8.19521965               69.71208581                0.64798170               -1.14879809               -1.67261783                4.89489231               -0.23000354                3.06550812                7.17592904
              16.45145818                6.46806364               69.16195043                0.12595196               -0.69830301               -0.72407482                3.09650988               -0.47175730                7.18098323               -6.83030862
              17.44898010                4.73134459               68.69460915                0.00010000                0.14833224               -0.28878485                1.66765987               -1.77175323               11.46718705               -9.52276571
              18.45442482                2.97979882               68.22997070                0.00010000                0.77587449               -1.08806262                0.13873559               -3.21479857               12.36410112              -11.15898662
              19.46449759                1.21094667               67.78040192                0.00010000                1.12190414               -0.92813171               -1.41316662               -4.23247401               13.66773496              -14.01403153
              20.47686290               -0.57148065               67.34183608                0.00010000                1.29346258               -0.54728062               -3.00633909               -4.71703362               14.38961512              -17.43929092
              21.49036684               -2.36009521               66.90675681                0.00010000                1.44030025               -0.04034135               -4.60676950               -4.58039543               14.24586756              -21.09214396
              22.50566891               -4.14684330               66.46514690                0.00010000                1.69798689                0.52237324               -6.15892442               -3.83500234               13.20343367              -24.20526568
              23.52432658               -5.92605494               66.00866038                0.04529963                2.11052624                1.27168113               -7.67069619               -2.52163690               11.74309190              -24.37610507
              24.54787943               -7.69552727               65.53684144                0.16380909                2.63732066                2.90258185               -9.17556966               -1.07534385                8.67839395               -5.85330087
              25.57707299               -9.45531390               65.01762866                0.62980786                2.91935556                3.97980760              -10.81411671               -0.17009492                6.39855878              -14.35671407
              17.18282064                9.17825029               69.53547578                0.61070846               -0.99715041               -1.59974327                4.44546845               -0.13974977                0.14434021                8.73752616
              18.17284914                7.46319992               68.87461708                0.06308511               -1.25841098               -0.36323282                2.11315293               -0.82197550                9.63565889               -8.99096535
              19.15765242                5.73081465               68.40404406                0.00010000               -1.16875315               -0.56926005                1.57164256               -4.54657570               21.86391922              -16.92961445
              20.14947407                3.95806724               67.98859946                0.00010000               -0.19240748               -1.38837245               -0.49308902               -7.40990119               24.18705141              -21.68824213
              21.15380427                2.18723778               67.56253712                0.00010000                0.80657722               -1.61004900               -2.60696400               -8.42014435               23.63640842              -27.54137774
              22.16560562                0.40711849               67.13577799                0.00010000                1.50121385               -1.34626244               -4.80630379               -9.25082842               23.46760366              -34.39135771
              23.18382855               -1.37663472               66.70747012                0.00010000                2.19507769               -0.82039952               -7.18021353               -8.99402576               23.48180803              -41.84416009
              24.20950717               -3.15722923               66.28318717                0.00010000                3.10583334               -0.08840725               -9.85871721               -7.48594191               25.75343285              -49.10651140
              25.24594521               -4.92646610               65.90373591                0.00010000                3.94921731                1.08813355              -13.46531026               -4.23546730               45.27585716              -54.47802205
              26.28849152               -6.66824829               65.87629419                0.05745511                4.43495351                3.22560937              -15.43269900               -1.02862434               36.52261265              -61.20761770
              27.33464428               -8.41208195               65.31717311                0.55935505                4.61527671                5.05005358              -14.96455776                1.10749251               11.04131111              -74.56639250
              18.89025190               10.16322478               69.34790880                0.60711209               -0.77975934               -1.40120881                3.91945416               -0.11884475                0.11491834                8.27223764
              19.88245431                8.46079898               68.60574318                0.05766006               -1.35353192               -0.14330334                1.26703105               -1.83014951               14.54121224               -7.89857032
              20.86318126                6.71995939               68.15246850                0.00010000               -1.63253175               -0.62295907                1.55321737               -5.32418886               31.71496209              -14.77664311
              21.84980367                4.95203137               67.75328583                0.00010000               -0.80689019               -0.15768300               -1.18733790               -7.38575245               34.36554642              -20.70718799
              22.84704346                3.17874569               67.35023019                0.00010000                0.29575816               -0.11694940               -3.81171429               -8.35465283               33.77353583              -26.52604525
              23.85571883                1.40159410               66.93868984                0.00010000                1.38952929                0.24805717               -6.59462685               -8.91180533               32.88076579              -33.04707740
              24.87483404               -0.37650320               66.51866667                0.00010000                2.50313099                0.89435478               -9.69330351               -8.68088604               32.21673828              -40.45399483
              25.90578145               -2.14861144               66.09582484                0.00010000                3.79011256                1.83496817              -13.30501095               -7.24445432               33.17386498              -49.21237977
              26.95063629               -3.90429227               65.69781089                0.00010000                5.35706710                3.15313625              -17.36278822               -4.29177211               31.67772425              -62.23011714
              28.01292280               -5.63101508               65.24688130                0.05893443                6.81269289                4.77065184              -22.18668991               -1.11575674               20.64486650              -96.81273844
              29.08689015               -7.35431283               64.62204568                0.55997223                7.39673560                6.91104252              -24.89798720                1.37997434               12.82451991             -114.65657686
              20.58529535               11.15022611               69.16285998                0.60383258               -0.57838137               -1.20830289                3.41981896               -0.11500307                0.12037573                8.44735532
              21.57951153                9.46033385               68.34017743                0.05392313               -1.26795475                0.05965451                0.42303377               -2.51865797               19.65627345               -7.61971364
              22.55993625                7.71835547               67.90849326                0.00010000               -1.82694003                0.20339185                1.02507832               -6.11202395               42.17014439              -13.75478933
              23.54297273                5.95491358               67.53376991                0.00010000               -1.13938830                0.73829600               -1.93524861               -7.73136689               44.93462916              -19.05022092
              24.53714849                4.18489879               67.15312677                0.00010000               -0.01771672                1.20237942               -4.97210033               -8.45047123               44.04378935              -24.60922020
              25.54261840                2.41207963               66.75896080                0.00010000                1.16339430                1.77341114               -8.25686603               -8.76586584               42.45660500              -30.78577812
              26.56041637                0.64125238               66.34609059                0.00010000                2.48943776                2.60686317              -11.98763215               -8.38844142               40.41384581              -38.07635080
              27.59240715               -1.12052987               65.91091840                0.00010000                4.10485191                3.72487609              -16.34855689               -6.97999726               37.35078450              -47.41029502
              28.64251341               -2.86340338               65.43599369                0.00010000                6.18948933                5.09652650              -21.56923563               -3.99217113               31.76892677              -61.22451620
              29.71619694               -4.57283526               64.88608948                0.06272461                8.31629266                6.81642508              -27.85707662               -0.89706036               18.78461836              -77.60683977
              30.80883926               -6.27386110               64.14628665                0.56209515                9.26423230                8.75227797              -31.47783225                1.29376280                9.61347003              -95.98354726
              22.26773635               12.13905872               68.97954182                0.60046308               -0.37845653               -1.03060109                2.93002241               -0.11226685                0.13010164                8.54731664
              23.26395179               10.46199207               68.07678457                0.04980535               -1.06876518                0.27600756               -0.41172284               -2.95818701               25.24016921               -7.44166170
              24.24636105                8.72402723               67.67642641                0.00010000               -1.76593889                0.85619137                0.35917789               -6.65969489               53.36317663              -12.40166195
              25.22863301                6.96679729               67.33163608                0.00010000               -1.27465331                1.56792995               -2.71371402               -7.91390734               56.05426296              -17.03840016
              26.22086799                5.20279327               66.97878890                0.00010000               -0.22925406                2.26053487               -6.02038371               -8.43584976               54.84013187              -21.95437388
              27.22404793                3.43706232               66.60637471                0.00010000                0.94033638                3.08376000               -9.70551805               -8.48675385               52.50803552              -27.53575699
              28.23967471                1.67563406               66.20436395                0.00010000                2.33946651                4.14638933              -13.97490618               -7.90459025               49.07087019              -34.23001005
              29.27083726               -0.07411392               65.76032470                0.00010000                4.17117738                5.46842724              -19.08764997               -6.39031439               44.13418501              -42.68399095
              30.32309826               -1.80236174               65.25537877                0.00010000                6.73010248                7.01699144              -25.37269558               -3.39797111               36.86998330              -53.18760799
              31.40543931               -3.49468658               64.66033052                0.06651853                9.58594154                8.72405918              -33.23803103               -0.43088071               21.67657815              -65.67997385
              32.51481709               -5.17926727               63.84797401                0.56428679               10.93777808               10.27025794              -37.52915622                1.51629074               10.86416455              -81.68936589
              23.93718332               13.12961409               68.79711883                0.59740532               -0.18040303               -0.86231520                2.44702133               -0.11073599                0.13837489                8.56723082
              24.93537929               11.46585400               67.81464259                0.04586802               -0.76230915                0.50076162               -1.24507200               -3.24325838               31.39247467               -7.35197364
              25.92193713                9.73547930               67.45735813                0.00010000               -1.47253714                1.37149318               -0.35661474               -6.96289677               65.55151956              -10.89947429
              26.90592854                7.98627218               67.15099638                0.00010000               -1.18853368                2.20260527               -3.42949606               -7.91748320               67.98690043              -14.58335348
              27.89816646                6.23010949               66.83388497                0.00010000               -0.29430047                3.03998512               -6.88674699               -8.14867785               66.44481989              -18.62213321
              28.90004253                4.47375483               66.49126961                0.00010000                0.76671765                4.07722926              -10.85523894               -7.87916065               63.45125201              -23.31948191
              29.91350081                2.72418016               66.10955867                0.00010000                2.12770670                5.39395798              -15.56627330               -7.04648390               59.04815679              -28.98816349
              30.94259667                0.98883868               65.67350432                0.00010000                4.08129166                6.96937033              -21.34652408               -5.43123563               52.97466821              -35.93003746
              31.99512665               -0.72306355               65.16359865                0.00010000                7.09440930                8.70696804              -28.65882480               -2.51064137               44.65399955              -44.39705896
              33.08448485               -2.39835407               64.55386571                0.07008880               10.65999040               10.44784781              -38.17507952                0.15241699               26.41538577              -54.58448388
              34.20832645               -4.06845594               63.67641858                0.56642556               12.38416001               11.93969694              -42.97688573                1.69888063               12.94568150              -70.08937790
              25.59304181               14.12181242               68.61472482                0.59450049                0.01796098               -0.70217549                1.96195055               -0.11353223                0.14147804                8.49167517
              26.59322142               12.47200730               67.55284227                0.04167164               -0.31784344                0.73517081               -2.07881129               -3.45137835               38.22437102               -7.33477242
              27.58668494               10.75145709               67.25263655                0.00010000               -0.87841297                1.72768706               -1.07754981               -7.05452710               78.97099210               -9.21326273
              28.57565316                9.01084940               66.99596740                0.00010000               -0.81365790                2.51947766               -4.02294260               -7.66448857               80.98053847              -11.67345892
              29.57041178                7.26359298               66.72502320                0.00010000               -0.16295575                3.44221055               -7.49496616               -7.44912364               79.09583508              -14.64354585
              30.57239404                5.51860691               66.42297754                0.00010000                0.66247042                4.69768162              -11.61264459               -6.79798725               75.56200103              -18.25892405
              31.58366119                3.78351322               66.07446874                0.00010000                1.85311084                6.27372724              -16.62940129               -5.73109957               70.45410324              -22.67423563
              32.60945626                2.06527348               65.66278472                0.00010000                3.82084976                8.12759074              -22.94935008               -4.08793549               63.54832741              -28.08528861
              33.66007818                0.37177762               65.16753125                0.00010000                7.22118918               10.10193514              -31.19071442               -1.42213782               54.29366719              -34.74368024
              34.75388004               -1.28572962               64.56212063                0.07400796               11.44601267               11.92996578              -42.34714838                0.72873140               32.21908967              -43.10729081
              35.88899844               -2.94047333               63.62250171                0.56866975               13.51183947               13.61848716              -47.51719815                1.74591745               15.37349162              -58.34259449
              27.23452290               15.11557058               68.43123471                0.59096331                0.21841394               -0.54716993                1.47363996               -0.11747882                0.18944209                8.43199153
              28.23670704               13.48055742               67.29075315                0.03770200                0.37407961                0.97897342               -2.92032500               -3.69192400               45.89810442               -7.49746973
              29.24200450               11.77003304               67.06437401                0.00010000                0.18979230                1.73453207               -1.78128512               -6.99663821               93.88887650               -7.13883811
              30.24050289               10.03666174               66.87118254                0.00010000               -0.02890106                2.30441171               -4.43259343               -6.83024522               95.23751446               -8.22840028
              31.24142647                8.29895370               66.65833948                0.00010000                0.18298269                3.45664007               -7.77290486               -6.05782986               92.93838772              -10.09093984
              32.24416254                6.56770846               66.40910220                0.00010000                0.53928848                4.96353750              -11.87852912               -5.11304639               88.97183823              -12.52579096
              33.25221224                4.84965471               66.10791126                0.00010000                1.42055075                6.77076440              -17.01624456               -3.97460985               83.37187800              -15.57254557
              34.27257356                3.15139049               65.73733616                0.00010000                3.27373762                8.86223540              -23.66858887               -2.45628257               75.86133160              -19.36115103
              35.31768700                1.47897515               65.27572181                0.00010000                6.93684365               11.13860509              -32.63606310               -0.26884720               65.76044936              -24.04965367
              36.41131043               -0.15975476               64.69301819                0.07781339               11.75226076               13.09357724              -45.24572681                1.10369124               39.05247376              -30.05609726
              37.55273221               -1.79608620               63.69301409                0.57091706               14.14217814               15.04154591              -50.60038140                1.48136220               18.10968882              -45.14958283
              28.86071855               16.11086902               68.24797332                0.58778562                0.42019303               -0.38453837                0.98587106               -0.11815880               -0.15016164                7.34666474
              29.86492048               14.49158677               67.02534850                0.03408261                1.49646546                1.21996897               -3.78407082               -4.21449251               54.62888402               -6.79997450
              30.89064786               12.78614774               66.89813221                0.00010000                2.26035560                0.54132868               -2.37413222               -5.50803489              110.77412895               -4.01657847
              31.91012759               11.05693763               66.78256869                0.00010000                1.37802982                1.72136012               -4.59013195               -4.58384575              110.75641345               -4.25639401
              32.91820846                9.33272578               66.63898583                0.00010000                0.46522564                3.26283597               -7.65726769               -3.52268956              107.97160066               -5.11894517
              33.91943211                7.61787766               66.45522456                0.00010000                0.11392537                5.03090979              -11.56574771               -2.77081752              103.77406577               -6.34091838
              34.92048696                5.91892851               66.21632796                0.00010000                0.57890275                6.99356510              -16.58163775               -1.95260168               97.94699657               -7.90777237
              35.93101016                4.24251819               65.90460619                0.00010000                2.26797634                9.18045438              -23.24341947               -0.87619544               90.17042389               -9.90270001
              36.96584649                2.59454972               65.49836191                0.00191228                6.00025296               11.60507971              -32.52483583                0.50657095               79.70949890              -12.41520423
              38.05101522                0.97614192               64.96585533                0.08169928               11.27210348               13.81646892              -46.22584723                1.05788968               47.40195079              -15.01254722
              39.19128856               -0.63964241               63.90592143                0.57290819               14.02733402               15.55142155              -51.51725777                0.71798110               21.06546892              -27.53970637
              30.47072423               17.10787981               68.04297763                0.79278045                0.64142514               -0.29892066                0.39382883                0.70826629                3.33793413                6.25619276
              31.47713848               15.50495680               66.77679712                0.51567113                4.78843558                1.33700296               -4.57507990               -5.12921043               66.29835658               -5.93281256
              32.56649294               13.78085961               66.76953287                0.45705682                6.25547271               -0.52881246               -2.63241322               -4.10888527              128.89955409               -2.04503689
              33.60224793               12.07108894               66.73481271                0.44335393                2.17698592                1.41513071               -4.43358337               -1.62042576              126.94507788               -2.10623228
              34.61003266               10.36421042               66.67009364                0.43861328                0.01477644                3.14846396               -7.10827965               -0.95569394              124.15164417               -2.53003524
              35.60254346                8.66832666               66.56443836                0.44202167               -1.07564899                5.04490004              -10.62413839               -0.42308491              120.05806293               -3.15485138
              36.58851968                6.98952601               66.40367576                0.45336467               -1.15575126                7.05974994              -15.22729034                0.13691733              114.41478928               -3.96239846
              37.57942844                5.33499958               66.17042093                0.47307588                0.28375052                9.24813863              -21.45573255                0.91936448              106.82198930               -5.00076601
              38.59419469                3.71107675               65.84245885                0.50208488                4.36159609               11.65270255              -30.32611054                1.91357171               96.93008619               -6.38555459
              39.66666036                2.11657462               65.39764053                0.54222983               10.22329051               14.04326981              -43.97885908                1.75778801               60.18008186               -6.92013037
              40.79866050                0.51494223               64.32754315                0.78717876               13.20001400               15.45846432              -48.68393619                0.57395510               29.06848532              -16.78429612
              14.24021934                7.48638046               70.98845173                0.83474579               -1.50260558               -1.68431255                5.71507459               -0.42946962               -4.71207996                5.22225297
              15.22519328                5.66870465               70.42579981                0.58463839               -1.45376387               -0.98023987                3.86451135               -0.47184448               -6.66006384               -3.87717702
              16.21114406                3.84356873               69.82483026                0.49983751               -1.28699940               -0.53509056                1.87974661               -0.48382780               -6.90900548               -0.53742027
              17.19945329                2.00229447               69.25814536                0.46190690               -0.89084424               -0.00037001                0.00136333               -0.43521652               -4.56471186               -0.49799364
              18.19332717                0.14366778               68.70454227                0.44291041               -0.20495230                0.52979012               -1.92641777               -0.36030583               -3.36671793               -0.29681285
              19.19535425               -1.72844093               68.16170048                0.44176436                0.68143589                1.07260090               -3.89795646               -0.29488441               -2.62399928               -0.09084933
              20.20695589               -3.60638265               67.62240471                0.45858932                1.61676727                1.61447086               -5.88548085               -0.26475109               -2.68984422                0.12497418
              21.22768959               -5.48199145               67.07744794                0.49340152                2.44263911                2.14027631               -7.83870636               -0.27038562               -3.57816618                0.33288394
              22.25580867               -7.34968647               66.51935909                0.54769684                3.09684136                2.65383828               -9.75423512               -0.27476920               -5.25062438                0.43091860
              23.28962642               -9.20740651               65.93965682                0.62297112                3.61977560                3.15900850              -11.67084573               -0.28033689               -5.79617681                1.18327171
              24.32820418              -11.05609147               65.36917686                0.84165062                3.85777672                3.72802791              -13.55461873               -0.67904241               -5.25431110               -3.85411623
              16.05360045                8.46953734               70.76157494                0.63578236               -1.17197551               -1.71490075                4.99893177               -0.24031558                3.24128554                7.47297003
              17.04188070                6.65890225               70.19324447                0.11136940               -0.70447922               -0.73148293                3.16068592               -0.50104583                7.54261093               -7.13025928
              18.03951087                4.83821783               69.71140069                0.00010000                0.15854535               -0.51276647                1.69298968               -1.84097539               11.96556338               -9.44351586
              19.04505160                3.00229077               69.23130299                0.00010000                0.77904739               -1.16156912                0.12642275               -3.23297489               12.80034147              -11.56215198
              20.05509182                1.14896568               68.76598929                0.00010000                1.11895037               -0.94645287               -1.46770493               -4.23317011               14.06717995              -14.85954521
              21.06743061               -0.71771492               68.31128318                0.00010000                1.29959097               -0.53230060               -3.10386336               -4.72807364               14.76333221              -18.75576979
              22.08108364               -2.59023794               67.85991623                0.00010000                1.46035170               -0.01026057               -4.75024409               -4.63585892               14.64030261              -22.96631569
              23.09663765               -4.46058868               67.40254350                0.00010000                1.73424387                0.55655120               -6.35641783               -3.98629310               13.64208321              -26.82542682
              24.11576851               -6.32314809               66.93069612                0.03553943                2.16939526                1.25117985               -7.91481265               -2.87423778               12.20362848              -28.21678119
              25.14002555               -8.17581642               66.44362317                0.14675038                2.71651061                3.04913288               -9.46022966               -1.35352931                9.07616804              -10.86313246
              26.17009873              -10.01881120               65.90787165                0.61834761                3.00731740                4.16122447              -11.13315981                0.11818893                6.72832346              -18.45462454
              17.85668320                9.45208245               70.58040809                0.60059994               -1.01913286               -1.64520745                4.53999952               -0.13840242                0.12430541                9.12578715
              18.84649187                7.65407499               69.89600041                0.05187543               -1.28735846               -0.35985201                2.16208635               -1.08889284               10.52567972               -9.36947449
              19.83093603                5.83331340               69.42005840                0.00010000               -1.12229625               -0.83561001                1.57530979               -4.70970856               22.87381517              -16.94109784
              20.82404594                3.97906309               68.98312283                0.00010000               -0.11332820               -1.51061355               -0.62078885               -7.25631598               24.45757276              -22.48370996
              21.82866946                2.12473872               68.53588195                0.00010000                0.79752213               -1.63714982               -2.73191942               -8.34674628               23.90067112              -29.19640298
              22.83999639                0.26091305               68.08702356                0.00010000                1.42215025               -1.32102807               -4.94338538               -9.19917151               23.61605741              -36.96812486
              23.85711247               -1.60658786               67.63481362                0.00010000                2.04387455               -0.77203367               -7.34055001               -8.99143433               23.38613258              -45.49990695
              24.88087388               -3.47086042               67.18339248                0.00010000                2.82195949               -0.04600980              -10.07327097               -7.61158094               25.01663821              -54.12884543
              25.91355166               -5.32466287               66.76774220                0.00010000                3.86725311                1.09603457              -13.73500433               -4.25467196               44.05469319              -61.15714977
              26.95821894               -7.14642385               66.70508718                0.04624348                5.15029223                3.09292961              -18.91386670               -0.84740437               37.39706763              -69.95587540
              28.01655750               -8.97286698               66.15277648                0.55189562                5.83385642                4.57560754              -18.28737966                1.52262712               14.16901811              -84.34442418
              19.64684732               10.43663319               70.38752537                0.59706550               -0.79754378               -1.44115808                4.00114371               -0.11774974                0.11718574                8.63794591
              20.63887188                8.65170521               69.61860021                0.04724903               -1.32593607               -0.13931268                1.30503376               -2.16783251               15.88839295               -8.20918297
              21.62032860                6.82150563               69.16544883                0.00010000               -1.51859557               -0.62710980                1.02649483               -5.50931477               33.16582976              -14.91355906
              22.60849997                4.97207850               68.74017744                0.00010000               -0.70108375               -0.19312444               -1.45828660               -7.16984759               34.54005994              -21.54326698
              23.60630692                3.11622268               68.31110430                0.00010000                0.31368937               -0.10315008               -4.02483656               -8.17734135               33.92584151              -28.13217716
              24.61477376                1.25586451               67.87178330                0.00010000                1.33607505                0.29368650               -6.78387445               -8.72118079               32.83005953              -35.52414739
              25.63302842               -0.60567861               67.42068897                0.00010000                2.38536420                0.94719835               -9.87879974               -8.43939736               31.76966865              -43.93333982
              26.66248104               -2.46150888               66.96151258                0.00010000                3.66050401                1.85238337              -13.51109206               -6.90670287               32.16743931              -53.83717723
              27.70623850               -4.30122740               66.52128254                0.00010000                5.44002671                3.08585938              -17.87486037               -3.80937724               30.08010207              -67.94049293
              28.77128158               -6.11395783               66.02279524                0.04801772                7.35995140                4.02276390              -22.59661745               -0.93599828               19.57429699             -104.05442918
              29.85343753               -7.92729904               65.36773439                0.55252226                8.21559562                5.65013911              -25.89060520                0.87853944               12.49085509             -124.41852729
              21.42418416               11.42325928               70.19740907                0.59404029               -0.59213827               -1.24181721                3.49000283               -0.11281447                0.12351977                8.83323926
              22.41826278                9.65128873               69.34451716                0.04307821               -1.19038584                0.06464949                0.44607957               -2.83551741               21.27549005               -7.92630951
              23.40037644                7.82077121               68.91493920                0.00010000               -1.61654188                0.30789655                0.27650574               -6.33380847               43.98382832              -14.06045327
              24.38593194                5.97520060               68.51229510                0.00010000               -0.95199104                0.78985058               -2.37757423               -7.54047693               45.21913577              -19.88634142
              25.38133662                4.12267572               68.10189821                0.00010000                0.07710616                1.24092916               -5.28390685               -8.21914846               44.17391593              -26.12073143
              26.38747406                2.26678678               67.67510122                0.00010000                1.21806463                1.80059697               -8.50856299               -8.48326470               42.29590896              -33.08314255
              27.40569791                0.41235611               67.22499704                0.00010000                2.54072712                2.59031453              -12.19718366               -8.02570772               39.76969654              -41.28357282
              28.43828861               -1.43381275               66.74620750                0.00010000                4.20575770                3.60111600              -16.51781127               -6.54733075               36.01953499              -51.66345693
              29.48981307               -3.26294568               66.21968283                0.00010000                6.36410092                4.70942233              -21.56769052               -3.81812545               29.56011777              -66.75010861
              30.56557062               -5.06596857               65.60929653                0.05150313                8.54988239                5.87160119              -27.32714772               -1.13109228               17.17214844              -84.75606774
              31.66081072               -6.85986420               64.83189275                0.55456195                9.52400932                7.57609628              -31.10788097                0.64958470                9.01425486             -104.27125242
              23.18853213               12.41179684               70.00914923                0.59102612               -0.38825206               -1.05783735                2.98776981               -0.11242782                0.13292359                8.94345956
              24.18464961               10.65299820               69.07269678                0.03928518               -0.93957822                0.28294915               -0.40345977               -3.23603707               27.07539840               -7.74451055
              25.16974057                8.82766356               68.67528329                0.00010000               -1.44318430                0.98093569               -0.54557036               -6.86556162               55.52223478              -12.76782727
              26.15578592                6.98787551               68.30164026                0.00010000               -0.97013987                1.65476090               -3.29252449               -7.76975799               56.53567499              -17.83114774
              27.15033777                5.14104126               67.91655251                0.00010000               -0.01789258                2.30713526               -6.43452397               -8.21845799               55.05696720              -23.31787323
              28.15542807                3.29187645               67.50766451                0.00010000                1.13880201                3.07754248              -10.02653213               -8.21324543               52.33475475              -29.59350223
              29.17311381                1.44612768               67.06320230                0.00010000                2.57040750                4.05054770              -14.21300164               -7.59385789               48.29374602              -37.11754564
              30.20683622               -0.38948656               66.56847591                0.00010000                4.44590039                5.21346269              -19.17985219               -6.15186356               42.47030817              -46.59081097
              31.26203182               -2.20703895               66.00202054                0.00010000                6.93710135                6.49614384              -25.11373246               -3.59571891               33.98300908              -58.40834909
              32.34557825               -3.99652581               65.33205970                0.05501517                9.60943336                7.92248879              -32.12551174               -0.96395476               19.52649701              -72.72240913
              33.45422048               -5.77577712               64.47513129                0.55667673               10.86422345                9.34791619              -36.57457456                0.84118079               10.02206011              -89.89763321
              24.93953289               13.40210254               69.82183619                0.58820219               -0.18575736               -0.88657402                2.49112565               -0.11267787                0.13887582                8.96488144
              25.93767532               11.65694772               68.80213730                0.03569245               -0.56724969                0.51278274               -1.25151838               -3.48016375               33.42586765               -7.65476987
              26.92818790                9.84038992               68.44828383                0.00010000               -1.02581220                1.49815084               -1.38575155               -7.13944826               68.08316950              -11.29485463
              27.91715907                8.00829582               68.11319329                0.00010000               -0.76106897                2.29865139               -4.12697837               -7.83111563               68.76723525              -15.29134258
              28.91296652                6.16881842               67.76246989                0.00010000                0.04818318                3.08300805               -7.40083585               -7.99507222               66.85564433              -19.79049791
              29.91812274                4.32833763               67.38066808                0.00010000                1.11086247                4.04461119              -11.25311664               -7.69272584               63.37098262              -25.07803211
              30.93518377                2.49336706               66.95223113                0.00010000                2.51476121                5.24876942              -15.84738075               -6.88629353               58.22352848              -31.48722312
              31.96841796                0.67045650               66.45901442                0.00010000                4.48770862                6.66179669              -21.42611913               -5.43549614               51.02752472              -39.38921123
              33.02493794               -1.13302281               65.87763863                0.00010000                7.33058679                8.20446334              -28.28823648               -2.99383780               41.05167855              -49.18104617
              34.11502970               -2.90751880               65.17707845                0.05854422               10.55995057                9.79289928              -36.73932838               -0.54081509               23.73357012              -61.33753929
              35.23613695               -4.67290588               64.24909909                0.55863798               12.11072539               11.24562842              -41.79001304                1.05034639               11.97366048              -77.97140575
              26.67658821               14.39406536               69.63450467                0.58499441                0.01707369               -0.72185055                1.99273909               -0.11177024                0.14878288                8.88913844
              27.67675895               12.66325385               68.53193551                0.03178072               -0.04923552                0.75099558               -2.10070350               -3.64880822               40.46881116               -7.64456171
              28.67560350               10.85762658               68.23578783                0.00010000               -0.30119192                1.85025259               -2.20026846               -7.21888943               81.94744829               -9.62453366
              29.67073511                9.03384854               67.95164256                0.00010000               -0.26044980                2.61335683               -4.82486094               -7.64449363               82.18386594              -12.26513641
              30.67039451                7.20270143               67.64702049                0.00010000                0.31449014                3.47939174               -8.10825085               -7.37924022               79.83230847              -15.57064629
              31.67702491                5.37276868               67.30437660                0.00010000                1.14372830                4.65505679              -12.09674421               -6.72581393               75.70940647              -19.65279653
              32.69326907                3.55110307               66.90614870                0.00010000                2.37456286                6.11805093              -16.98050571               -5.73520588               69.71477067              -24.68485310
              33.72451617                1.74374938               66.43195189                0.00010000                4.34306432                7.82548290              -23.07567931               -4.29920032               61.43014681              -30.94500894
              34.78013036               -0.04294968               65.85591805                0.00010000                7.50644236                9.65815757              -30.82600057               -2.08158390               50.02858175              -38.86671016
              35.87464502               -1.80066782               65.14353554                0.06195028               11.29356068               11.43117060              -40.77669981               -0.00977524               29.10568499              -49.25981301
              37.00600157               -3.55086455               64.14899997                0.56065960               13.13565539               13.09656942              -46.31659671                1.20448767               14.47576070              -65.57472126
              28.39892051               15.38766553               69.44608454                0.58214298                0.22174342               -0.55838366                1.49298192               -0.11577622                0.19642306                8.83032054
              29.40113794               13.67196763               68.26133527                0.02839331                0.71474595                0.99544851               -2.95963716               -3.85381545               48.37488756               -7.82658921
              30.41321542               11.87739497               68.04008861                0.00010000                0.90282064                1.84033535               -2.95942978               -7.15472676               97.40803494               -7.53219709
              31.41919435               10.06056295               67.82225588                0.00010000                0.66230754                2.38338757               -5.32623233               -6.86216478               97.01648869               -8.66258649
              32.42646158                8.23840626               67.57708062                0.00010000                0.80052319                3.48722368               -8.48271860               -6.05700009               94.15749483              -10.73506787
              33.43520482                6.42143877               67.28738486                0.00010000                1.15186883                4.92390089              -12.45974574               -5.13132768               89.52389649              -13.48936833
              34.44949895                4.61572808               66.93525345                0.00010000                2.06409449                6.63508373              -17.46666390               -4.09804425               82.91977615              -16.98226059
              35.47648671                2.82696616               66.49877263                0.00010000                3.91122546                8.60020252              -23.89869607               -2.79665278               73.78532626              -21.42472643
              36.52772346                1.06014034               65.94891546                0.00010000                7.31311779               10.75434443              -32.37852458               -0.98287253               61.01501509              -27.17654355
              37.62274906               -0.67889539               65.24406940                0.06573376               11.64483492               12.73200493              -43.77799223                0.45915682               35.69264917              -35.15500754
              38.76062016               -2.41097449               64.18638774                0.56276051               13.78710978               14.65297708              -49.65858356                1.13760583               17.50288082              -51.22466119
              30.10566848               16.38289769               69.25787384                0.57902893                0.42847095               -0.38870766                0.99077343               -0.12129388               -0.15955393                7.69487549
              31.10995319               14.68316282               67.98718793                0.02497452                1.91225804                1.23914858               -3.84086419               -4.35386855               57.40754156               -7.10893315
              32.14391364               12.89443328               67.86768785                0.00010000                3.12636701                0.59734171               -3.57804163               -5.61842561              114.97239257               -4.26163303
              33.17248053               11.08151629               67.73171481                0.00010000                2.22325219                1.77610006               -5.55438712               -4.62453573              113.26254992               -4.49259297
              34.18837869                9.27244590               67.55846954                0.00010000                1.22980014                3.27722110               -8.45520634               -3.54738686              109.84295226               -5.44651676
              35.19707653                7.47124669               67.33615662                0.00010000                0.87010559                4.99144920              -12.25396915               -2.81815911              104.94927881               -6.82576633
              36.20578080                5.68380474               67.04741968                0.00010000                1.35471596                6.88466418              -17.16693592               -2.09001163               98.07126672               -8.62398180
              37.22417085                3.91575343               66.66949433                0.00010000                3.02768265                8.98258760              -23.64749965               -1.19065907               88.52044432              -10.97577528
              38.26633445                2.17213721               66.17151007                0.00010000                6.53860671               11.30239113              -32.50057640               -0.06009322               74.87626477              -14.11672958
              39.35494299                0.45397228               65.50457387                0.06941361               11.32887225               13.57241872              -45.10421961                0.60999877               44.17196685              -18.17944764
              40.49291190               -1.25780501               64.38708634                0.56472007               13.79689083               15.37310207              -51.01628509                0.61203346               21.19206158              -31.40254112
              31.79596436               17.37989137               69.04688860                0.78839350                0.65606148               -0.30063154                0.38312574                0.71551049                3.49623928                6.55652212
              32.80252497               15.69675060               67.73060942                0.51125488                5.32645432                1.35877778               -4.65225395               -5.27029994               69.61589791               -6.21221885
              33.90249345               13.88934181               67.73645495                0.45593682                7.30830239               -0.50914744               -3.85103267               -4.17530201              133.95127380               -2.24777438
              34.94869102               12.09608495               67.68541585                0.44311547                3.16449934                1.45686647               -5.43061217               -1.64850742              130.24617424               -2.29794086
              35.96578343               10.30395068               67.59480524                0.43866359                0.93958841                3.15047805               -7.97161365               -1.00038539              126.83107246               -2.75520145
              36.96748279                8.52126775               67.45431467                0.44181852               -0.12957223                5.00210590              -11.42394786               -0.48584010              122.09303334               -3.46438306
              37.96319199                6.75342137               67.24752605                0.45240759               -0.15708646                6.96166231              -15.99410976                0.00862679              115.47451071               -4.40704643
              38.96434106                5.00661791               66.95191486                0.47099266                1.25553795                9.08644840              -22.14719560                0.65536073              106.19354985               -5.66626000
              39.98830275                3.28618817               66.53576594                0.49829754                5.02750960               11.40509593              -30.73015022                1.49358350               93.00111292               -7.44042620
              41.06489125                1.59255299               65.95517066                0.53582569               10.40563249               13.85807128              -43.58114456                1.50979574               58.10812598               -9.14129885
              42.19641540               -0.10351245               64.83318548                0.78302154               13.15241440               15.42925598              -49.01105827                0.74380637               30.76223597              -19.50838072
              14.76417093                7.76990129               72.04618678                0.82764661               -1.53415049               -1.71785990                5.83121081               -0.43908323               -4.88136425                5.39241005
              15.74882943                5.86524857               71.46483061                0.57570917               -1.49369568               -0.99907158                3.94074764               -0.49448836               -6.89369143               -4.03110088
              16.73429702                3.95270108               70.84383509                0.49607433               -1.32317766               -0.54549405                1.92158755               -0.49117811               -7.15462584               -0.50866492
              17.72236587                2.02355336               70.25819047                0.46043204               -0.90061114                0.00249483                0.00778236               -0.43883004               -4.78052989               -0.49332163
              18.71628479                0.07697012               69.68512264                0.44257592               -0.19019425                0.54459603               -1.95599624               -0.36596226               -3.63288998               -0.29377809
              19.71856199               -1.88291828               69.12236267                0.44160320                0.71223384                1.09991628               -3.96445424               -0.30201707               -2.92374635               -0.09263428
              20.73052947               -3.84835146               68.56303392                0.45735161                1.65838951                1.65210225               -5.98669984               -0.27628385               -2.99025779                0.11926158
              21.75172978               -5.81121016               67.99828158                0.49014418                2.49715715                2.19137744               -7.98637284               -0.28010605               -3.85464071                0.32241182
              22.78047261               -7.76595540               67.42080346                0.54105729                3.16341803                2.71817281               -9.94712992               -0.28316507               -5.51357354                0.42253983
              23.81499814               -9.71056720               66.82174893                0.61169125                3.69370047                3.23469116              -11.90319351               -0.28681892               -6.05026835                1.18568712
              24.85434662              -11.64615002               66.23219586                0.83418821                3.93484853                3.81440039              -13.83028868               -0.67869574               -5.49904440               -3.99631218
              16.66443282                8.75272269               71.81206445                0.62362148               -1.19481712               -1.75428445                5.09836560               -0.24892460                3.42342220                7.77648559
              17.65248465                6.85525785               71.22516415                0.09675049               -0.70999871               -0.73969407                3.22297008               -0.52967748                7.91213681               -7.43104781
              18.65023284                4.94724614               70.72846895                0.00010000                0.16792051               -0.73782640                1.71894363               -1.89851314               12.47205480               -9.39595466
              19.65584306                3.02357831               70.23249916                0.00010000                0.78140753               -1.20173813                0.11419750               -3.21969824               13.24113206              -12.02215613
              20.66586099                1.08241608               69.75104782                0.00010000                1.11797739               -0.93877072               -1.52011749               -4.19326280               14.47297983              -15.73321180
              21.67820260               -0.87191912               69.27975881                0.00010000                1.30257875               -0.49129218               -3.19740627               -4.69066990               15.14225522              -20.07831318
              22.69191257               -2.83183044               68.81175192                0.00010000                1.47640420                0.04729305               -4.88354255               -4.63622266               15.02680732              -24.83379602
              23.70773069               -4.78929638               68.33801854                0.00010000                1.77034579                0.62174694               -6.53871234               -4.08808296               14.06938732              -29.42996422
              24.72731948               -6.73877367               67.85036413                0.02561705                2.22482858                1.28799365               -8.14554301               -3.20260709               12.66224738              -32.06024877
              25.75222726               -8.67822028               67.34763684                0.13013584                2.79115022                3.20146613               -9.73058985               -1.64159472                9.47316197              -17.51507152
              26.78314249              -10.60800601               66.79496546                0.60708766                3.09152292                4.36584212              -11.43884139                0.43639847                7.05809977              -24.22548723
              18.55412211                9.73481560               71.62627577                0.59065267               -1.04096846               -1.68699848                4.63064136               -0.13543472                0.10183341                9.52042021
              19.54371242                7.85045469               70.91785881                0.04059598               -1.30579030               -0.35796431                2.21037433               -1.35284913               11.38603784               -9.74540923
              20.52800630                5.93794455               70.43555025                0.00010000               -1.04552252               -1.02193652                1.46675884               -4.81241549               23.85107696              -17.17281527
              21.52280197                3.99951860               69.97618368                0.00010000               -0.00446681               -1.57922687               -0.77395340               -7.03217559               24.71644268              -23.38936089
              22.52791697                2.05819470               69.50789873                0.00010000                0.80965634               -1.61650969               -2.86850071               -8.20846462               24.18743657              -30.91142083
              23.53899510                0.10725587               69.03691029                0.00010000                1.36326553               -1.25236912               -5.07786728               -9.05337712               23.77898519              -39.56566092
              24.55518228               -1.84740560               68.56065912                0.00010000                1.89581265               -0.67614933               -7.47851822               -8.87227605               23.30707464              -49.14901124
              25.57691135               -3.79877522               68.08172175                0.00010000                2.50810495                0.05631848              -10.23705931               -7.59919760               24.30502443              -59.12083545
              26.60534438               -5.74019553               67.62903582                0.00010000                3.72436173                1.18654549              -13.98863547               -4.20632312               41.31432975              -67.93219875
              27.65139859               -7.64653787               67.49801685                0.03550714                5.86508383                3.09536374              -22.31619423               -0.64540123               36.72411239              -78.76561244
              28.72264605               -9.55883318               66.95142551                0.54467225                7.12474644                4.31031837              -22.28512376                1.95479241               17.18291696              -94.43157756
              20.43044594               10.71898272               71.42793167                0.58730201               -0.81472348               -1.47742792                4.07775732               -0.11704274                0.12117247                9.00861192
              21.42229871                8.84809857               70.63184386                0.03649635               -1.27626584               -0.13717980                1.34279949               -2.41982636               16.96676577               -8.51587272
              22.40492063                6.92680741               70.17299840                0.00010000               -1.36746558               -0.53163065                0.51565586               -5.61381082               34.46248108              -15.35419940
              23.39494940                4.99199377               69.72412010                0.00010000               -0.54831009               -0.18973317               -1.75898800               -6.95635344               34.87180203              -22.50023133
              24.39395442                3.05008588               69.26973346                0.00010000                0.38929811               -0.05793762               -4.25292728               -7.95282780               34.12284204              -29.80964656
              25.40273536                1.10303350               68.80301235                0.00010000                1.32718553                0.36398483               -6.96519186               -8.44983278               32.80390377              -38.03992175
              26.42049814               -0.84535342               68.32109067                0.00010000                2.29006526                1.02365934              -10.02047667               -8.08408851               31.34344298              -47.41975787
              27.44853666               -2.78817001               67.82560300                0.00010000                3.52287717                1.90064404              -13.62831356               -6.42443143               31.05740466              -58.42657490
              28.49095568               -4.71504276               67.34031368                0.00010000                5.47101105                3.05259866              -18.23853957               -3.14303167               28.43576244              -73.48428713
              29.55795689               -6.61631301               66.79494895                0.03729232                7.79366314                3.46583974              -22.93065164               -0.53627451               18.31216496             -109.18637631
              30.64682894               -8.52179965               66.10423357                0.54524991                8.88720561                4.60750626              -26.67341698                0.51562904               11.60530745             -131.88500133
              22.29354956               11.70526704               71.23266004                0.58458004               -0.60583512               -1.27409648                3.55509834               -0.11290551                0.12316640                9.22503016
              23.28749121                9.84771109               70.34909902                0.03275986               -1.08573355                0.06915748                0.47158348               -3.04640560               22.53463507               -8.23159572
              24.27183489                7.92731194               69.91402338                0.00010000               -1.35473856                0.42593237               -0.39635787               -6.45227608               45.55740307              -14.52250952
              25.26039643                5.99572393               69.48621842                0.00010000               -0.70071011                0.86411883               -2.82649184               -7.35740496               45.68021029              -20.84821071
              26.25782068                4.05703595               69.04744864                0.00010000                0.25206572                1.28891226               -5.60468185               -7.95798545               44.36991293              -27.71337280
              27.26543775                2.11453557               68.58878954                0.00010000                1.34416651                1.82959584               -8.74275008               -8.13052366               42.15844381              -35.43083597
              28.28470401                0.17306759               68.10214691                0.00010000                2.63371573                2.57012417              -12.34077272               -7.55289015               39.14329186              -44.50284119
              29.31811206               -1.76076234               67.58056217                0.00010000                4.29613635                3.47164750              -16.54839182               -5.96613151               34.77060318              -55.83739163
              30.37062674               -3.67914355               67.00463988                0.00010000                6.46589605                4.32791175              -21.35259004               -3.41198863               27.67156446              -71.83648947
              31.44742998               -5.57722108               66.33954652                0.04051321                8.66525832                4.96981617              -26.56181611               -1.13189413               15.75161494              -90.90589291
              32.54393191               -7.46668305               65.52412903                0.54735376                9.65019230                6.36866897              -30.32516066                0.16811118                8.31271246             -111.08261605
              24.14329973               12.69350079               71.03929722                0.58166632               -0.39740328               -1.08553795                3.03793530               -0.11145448                0.13532661                9.34198646
              25.13932570               10.84948172               70.06871537                0.02914608               -0.77187318                0.29043920               -0.39035591               -3.41084651               28.49551719               -8.04405348
              26.12786227                8.93532606               69.66551501                0.00010000               -1.06242031                1.08828617               -1.32436131               -6.97479591               57.38516532              -13.26149634
              27.11807729                7.00927615               69.26578559                0.00010000               -0.59395931                1.73595518               -3.85228182               -7.63855937               57.19273762              -18.73684885
              28.11598308                5.07586413               68.85009842                0.00010000                0.30079771                2.33978018               -6.84763303               -7.98334331               55.33822275              -24.76785594
              29.12409324                3.13962541               68.40584407                0.00010000                1.43775784                3.04732665              -10.31954618               -7.87759310               52.17598514              -31.70541937
              30.14473824                1.20604906               67.92010391                0.00010000                2.86659659                3.92108514              -14.36301590               -7.17207240               47.54177193              -40.01107379
              31.18142518               -0.71873706               67.37672765                0.00010000                4.72182065                4.91704016              -19.08851706               -5.74529974               40.94399240              -50.39540108
              32.23917465               -2.62848453               66.75310413                0.00010000                7.07166625                5.92807854              -24.55036051               -3.53550889               31.56885381              -63.30885474
              33.32285850               -4.51691669               66.01782028                0.04377839                9.49702299                7.03201898              -30.61898692               -1.28379635               17.65420345              -78.93932920
              34.42911511               -6.39442627               65.11648252                0.54922234               10.62566078                8.24651594              -34.94858432                0.24036584                9.07912310              -97.01443333
              25.97935861               13.68355628               70.84694134                0.57901410               -0.19096047               -0.90769746                2.52826335               -0.11083788                0.14262153                9.36834351
              26.97744901               11.85351988               69.78961223                0.02588017               -0.34070358                0.52181901               -1.25151156               -3.62449181               35.00547842               -7.95661753
              27.97254454                9.94907766               69.42964310                0.00010000               -0.51809143                1.59177914               -2.23728565               -7.25061244               70.27012280              -11.80035429
              28.96708718                8.03044304               69.06845681                0.00010000               -0.23699948                2.36039639               -4.78266878               -7.76127924               69.71151446              -16.10437581
              29.96780455                6.10383155               68.68586825                0.00010000                0.53068867                3.08526009               -7.90388341               -7.83100525               67.32037607              -21.04486869
              30.97770095                4.17548210               68.26620727                0.00010000                1.59102446                3.96043924              -11.61470501               -7.44907715               63.28808113              -26.88862868
              31.99962504                2.25148929               67.79261105                0.00010000                3.00193518                5.03723861              -16.02246183               -6.61302808               57.40471825              -33.98491557
              33.03773966                0.33757847               67.24498193                0.00010000                4.92355742                6.26760782              -21.27759131               -5.26033027               49.21366096              -42.75259558
              34.09809619               -1.56058198               66.59783392                0.00010000                7.49780720                7.58255571              -27.50981292               -3.21338219               38.00189662              -53.67544125
              35.18769580               -3.43658070               65.81907914                0.04705452               10.28310992                8.94999277              -34.69813215               -1.05587126               21.34400645              -67.34031931
              36.30375839               -5.30175273               64.84061831                0.55115886               11.60625871               10.25849318              -39.59697427                0.40628097               10.82432789              -84.89280972
              27.80115578               14.67534684               70.65457960                0.57611121                0.01586961               -0.73742295                2.01898952               -0.11330995                0.15301442                9.29460326
              28.80131448               12.85991810               69.51082820                0.02249453                0.23855383                0.76266697               -2.11631050               -3.77167382               42.22945056               -7.95611910
              29.80592686               10.96716164               69.20863118                0.00010000                0.33916700                1.92057065               -3.10370083               -7.33669890               84.52956751              -10.11730500
              30.80809782                9.05648407               68.89947018                0.00010000                0.41985252                2.64473595               -5.56428560               -7.64194195               83.53047672              -12.95317238
              31.81432391                7.13756933               68.56285819                0.00010000                0.96780714                3.44858716               -8.70288933               -7.30035173               80.60278549              -16.57938725
              32.82745396                5.21883420               68.18104266                0.00010000                1.80286998                4.53294863              -12.54143180               -6.60044057               75.82584555              -21.09295227
              33.85038131                3.30679383               67.73485863                0.00010000                3.04179421                5.86246116              -17.21540814               -5.63120732               68.94180522              -26.68680389
              34.88828984                1.40661510               67.20127113                0.00010000                4.93424318                7.38875271              -22.93695638               -4.33744133               59.40795886              -33.70354062
              35.94906617               -0.47683341               66.55101124                0.00010000                7.73109909                9.02171221              -29.94431794               -2.49687897               46.34375675              -42.70758587
              37.04291183               -2.33791683               65.74658664                0.05048097               10.92593109               10.63437283              -38.35463020               -0.62138275               26.21952761              -54.70861384
              38.16758479               -4.18925640               64.69616977                0.55302320               12.46729670               12.15434698              -43.78170077                0.58578066               13.20506610              -71.92181573
              29.60794990               15.66880782               70.46109435                0.57321505                0.22508322               -0.56921851                1.50426411               -0.11628546                0.20130147                9.23475683
              30.61020073               13.86877322               69.23156041                0.01881499                1.06473444                1.01079346               -2.98921930               -3.96879611               50.36224023               -8.15627447
              31.62924459               11.98748908               69.00518542                0.00010000                1.68199608                1.86935456               -3.88355860               -7.28967426              100.50332112               -7.97046015
              32.64384065               10.08333775               68.76465789                0.00010000                1.51014024                2.37208652               -6.14090300               -6.90933468               98.90366738               -9.18147532
              33.65944739                8.17280330               68.48868511                0.00010000                1.63134917                3.42507449               -9.17197125               -6.04474501               95.37967155              -11.44893850
              34.67646764                6.26614107               68.15990728                0.00010000                1.98863019                4.77991654              -13.00611775               -5.10256015               89.99996959              -14.49122438
              35.69922000                4.36873852               67.75857798                0.00010000                2.90752192                6.36912188              -17.80311198               -4.12971372               82.37128395              -18.37915583
              36.73461807                2.48535352               67.25936223                0.00010000                4.67352695                8.16226827              -23.84550103               -2.99237211               71.73350991              -23.38653629
              37.79269053                0.61985226               66.62815131                0.00010000                7.65365316               10.10990326              -31.51815881               -1.50103447               56.80772169              -30.04410592
              38.88769114               -1.22389324               65.81745835                0.05375937               11.27313058               11.96842705              -41.15618760               -0.12757959               32.42278483              -39.61804671
              40.01815315               -3.05866579               64.69984242                0.55480730               13.04620090               13.73827163              -46.99287523                0.64874830               16.27052373              -56.45173968
              31.39889929               16.66396247               70.26778879                0.57065207                0.43580156               -0.39135450                0.98885139               -0.11997613               -0.16827714                8.04451870
              32.40325730               14.88013397               68.94853121                0.01561961                2.33347747                1.25481206               -3.88517795               -4.48621898               59.70373630               -7.41685839
              33.44556883               13.00454873               68.82657137                0.00010000                4.06698026                0.54404256               -4.50632382               -5.73703858              118.74135539               -4.53377563
              34.48459691               11.10392580               68.67148094                0.00010000                3.25284272                1.71951417               -6.43631724               -4.67487206              115.82850448               -4.78312831
              35.51062569                9.20607082               68.46988170                0.00010000                2.24353154                3.18158424               -9.23937166               -3.55926884              111.66734536               -5.81929165
              36.52946754                7.31443253               68.21014518                0.00010000                1.89744483                4.82909173              -12.92152140               -2.83394351              105.97182943               -7.33689937
              37.54857459                5.43417627               67.87298924                0.00010000                2.39305594                6.62169079              -17.65555103               -2.16911834               97.99146297               -9.33431640
              38.57732866                3.56986046               67.43165620                0.00010000                3.98588306                8.57399015              -23.77891943               -1.41850714               86.75190255              -11.98125200
              39.62829225                1.72536465               66.84835038                0.00010000                7.07748174               10.69521135              -31.83773553               -0.50690675               70.44537252              -15.64153670
              40.71887829               -0.09854829               66.06377093                0.05730307               11.09063060               12.82241585              -42.56251877                0.19282882               40.82299590              -20.92092753
              41.85010486               -1.91449097               64.88559573                0.55663902               13.12265686               14.56210664              -48.52906275                0.39185326               20.38303305              -34.61790441
              33.17320738               17.66098073               70.05064014                0.78430667                0.66827066               -0.29817380                0.36424205                0.71968220                3.65306980                6.85369300
              34.17989009               15.89386946               68.68375204                0.50682528                5.87522983                1.37354901               -4.70922945               -5.46726136               72.44744584               -6.48944688
              35.29071198               13.99836993               68.69251222                0.45483753                8.44655178               -0.61788037               -4.80340909               -4.29275651              138.56326758               -2.46169475
              36.34882112               12.11772804               68.62620047                0.44281594                4.35216557                1.38022344               -6.36469989               -1.67432552              133.55889409               -2.50962402
              37.37775529               10.23643498               68.51066137                0.43865557                2.14310937                3.03641619               -8.84217859               -1.03729633              129.38126887               -2.99810851
              38.39168331                8.36272291               68.33595940                0.44153047                1.13272029                4.82903804              -12.22678193               -0.54155486              123.84490041               -3.77827700
              39.40040970                6.50117233               68.08379357                0.45161360                1.16881180                6.69960605              -16.69209816               -0.11096812              116.13116132               -4.83234580
              40.41505955                4.65683332               67.72747702                0.46897804                2.52757267                8.69728643              -22.59733326                0.40229721              105.14927138               -6.26385560
              41.45096115                2.83375649               67.22785584                0.49471898                5.81718952               10.83918362              -30.54328073                1.05297779               89.06065112               -8.33382497
              42.53140334                1.03255507               66.52601764                0.52975981               10.34572122               13.11033642              -41.66253437                1.19349737               55.43346564              -11.01183789
              43.65787557               -0.76742366               65.34732199                0.77903014               12.64722355               14.70673118              -47.33043331                0.77919816               30.98194466              -21.72719412
              15.30530439                8.06247333               73.10507595                0.82096862               -1.56332474               -1.74952690                5.93827544               -0.44926708               -5.05100093                5.55839385
              16.28967114                6.06741555               72.50461477                0.56740108               -1.53063537               -1.01624581                4.01056389               -0.51250096               -7.12223889               -4.18343775
              17.27469168                4.06412772               71.86326201                0.49251372               -1.35580007               -0.55441497                1.95989675               -0.48771661               -7.39038782               -0.47921538
              18.26255514                2.04381067               71.25830100                0.45928199               -0.90972510                0.00437719                0.01619654               -0.43527040               -4.98999793               -0.48512336
              19.25649718                0.00594185               70.66542234                0.44239906               -0.17935474                0.55835012               -1.97912498               -0.36537040               -3.89099805               -0.28890563
              20.25896804               -2.04508591               70.08241140                0.44137694                0.73673220                1.12570960               -4.02093918               -0.30840677               -3.21729822               -0.09246905
              21.27123182               -4.10143343               69.50267071                0.45616124                1.69295949                1.68943634               -6.07973809               -0.28373815               -3.28805842                0.11150687
              22.29282723               -6.15501713               68.91772048                0.48700086                2.54190131                2.23889930               -8.11715018               -0.28758378               -4.13055869                0.31284044
              23.32206985               -8.20035701               68.32041650                0.53466286                3.22007101                2.77715885              -10.11594681               -0.29004232               -5.77733212                0.40973890
              24.35722865              -10.23546859               67.70159295                0.60039550                3.76298004                3.30828139              -12.12014705               -0.29411510               -6.30553447                1.18617695
              25.39732945              -12.26155692               67.09257108                0.82689969                4.01007951                3.90063254              -14.09330856               -0.68142920               -5.74740629               -4.13907472
              17.29586949                9.04497806               72.86354225                0.61191867               -1.21505585               -1.79248516                5.19090665               -0.26002653                3.60648820                8.08003776
              18.28371893                7.05725309               72.25770387                0.08258484               -0.71262676               -0.74642285                3.27921814               -0.55637429                8.28251648               -7.72888654
              19.28161696                5.05858357               71.74577956                0.00010000                0.17882174               -0.94000378                1.74119432               -1.92288196               12.97552146               -9.43276177
              20.28729537                3.04385444               71.23358694                0.00010000                0.78374015               -1.20778700                0.10265146               -3.17935169               13.67931691              -12.54444508
              21.29729176                1.01152536               70.73558694                0.00010000                1.11381241               -0.90585950               -1.56761685               -4.12444184               14.87470214              -16.63861678
              22.30957162               -1.03382881               70.24733506                0.00010000                1.30341462               -0.42838989               -3.28452799               -4.61083823               15.51750086              -21.40834110
              23.32336005               -3.08453906               69.76224538                0.00010000                1.49207856                0.12632982               -5.01202270               -4.57943234               15.41403844              -26.68189578
              24.33941319               -5.13262814               69.27176926                0.00010000                1.80175516                0.70777696               -6.70604560               -4.11379607               14.49210870              -31.99985373
              25.35939516               -7.17258542               68.76778526                0.01612653                2.27371360                1.35503048               -8.35958698               -3.41421696               13.11579794              -35.89329614
              26.38488746               -9.20238578               68.24901137                0.11390697                2.86041674                3.32101908               -9.98905204               -1.84411691                9.87861369              -25.62807383
              27.41660349              -11.22255060               67.67909482                0.59626290                3.17160305                4.53951369              -11.73818940                0.78697146                7.40044973              -31.98593294
              19.27555379               10.02662362               72.67302092                0.58089335               -1.06156448               -1.72784534                4.71280226               -0.13480754                0.07731137                9.91823466
              20.26493814                8.05248709               71.94020790                0.02985998               -1.29605445               -0.35527770                2.25854568               -1.59372210               12.15849894              -10.11802871
              21.24963270                6.04532765               71.44939357                0.00010000               -0.94559099               -1.13175267                1.26727271               -4.85735736               24.77098814              -17.57726062
              22.24602632                4.01965493               70.96764376                0.00010000                0.10294460               -1.59076556               -0.93017843               -6.77987005               25.00597364              -24.42724378
              23.25169159                1.98782466               70.47851194                0.00010000                0.83946883               -1.55227556               -3.00884985               -8.03644370               24.50122280              -32.69764518
              24.26281570               -0.05365370               69.98546621                0.00010000                1.33754565               -1.14921834               -5.20797382               -8.84042431               23.96734573              -42.18864768
              25.27844250               -2.09890683               69.48524325                0.00010000                1.78909864               -0.55112484               -7.59686986               -8.66306524               23.26237167              -52.77525417
              26.29859767               -4.14086159               68.97865130                0.00010000                2.25503238                0.18736662              -10.35758351               -7.46783159               23.63158934              -64.05474027
              27.32354315               -6.17325640               68.48796949                0.00010000                3.58569109                1.30341113              -14.18216164               -4.09869867               37.25262652              -74.75333991
              28.37031149               -8.16904821               68.25876330                0.02505304                6.49276861                3.15853742              -24.91794891               -0.43963622               34.26614637              -87.67259590
              29.45339852              -10.17076665               67.70707401                0.53767118                8.30870291                4.24240058              -26.45262118                2.34670337               19.13536256             -104.83588974
              21.24144640               11.01042115               72.46908052                0.57795982               -0.83059295               -1.51146421                4.14701752               -0.11657411                0.12322558                9.38019853
              22.23314047                9.05014754               71.64545620                0.02640591               -1.20722105               -0.13508952                1.37946932               -2.59093146               17.80497883               -8.81671972
              23.21730198                7.03594852               71.17576195                0.00010000               -1.19697604               -0.37616164                0.08921488               -5.66680036               35.60180423              -16.00830595
              24.20920095                5.01203913               70.70499768                0.00010000               -0.37152315               -0.15420159               -2.05380397               -6.76920550               35.33201711              -23.58083787
              25.20987152                2.98047984               70.22604576                0.00010000                0.51468377                0.01093198               -4.47974597               -7.71900643               34.37395499              -31.56862238
              26.21949462                0.94318682               69.73247946                0.00010000                1.37175593                0.44960227               -7.13433445               -8.14562206               32.82083435              -40.59596560
              27.23730663               -1.09556156               69.22027943                0.00010000                2.24557509                1.10964364              -10.12539688               -7.68595046               30.97164169              -50.90481217
              28.26440613               -3.12888080               68.68894631                0.00010000                3.41505833                1.95881741              -13.66902225               -5.91728028               29.91146744              -62.96186873
              29.30560780               -5.14651720               68.15651175                0.00010000                5.45994292                3.03952403              -18.41740062               -2.48086815               26.77316968              -78.84724443
              30.37360498               -7.13921503               67.56418220                0.02651269                8.06833193                3.10452212              -23.14869946               -0.01915535               16.94876467             -112.48856846
              31.46697444               -9.13770259               66.83426605                0.53835852                9.33694547                3.85005904              -27.12922598                0.37631571               10.37798131             -136.92472111
              23.19376953               11.99639434               72.26851104                0.57540628               -0.61773819               -1.30329384                3.60898062               -0.11310566                0.12221904                9.61636395
              24.18759214               10.04978530               71.35394883                0.02286269               -0.96822121                0.07281925                0.49936166               -3.16941145               23.49215384               -8.52923745
              25.17440510                8.03780441               70.90701204                0.00010000               -1.07406298                0.54326935               -0.92338322               -6.50713659               46.90181817              -15.11292002
              26.16611089                6.01657089               70.45576526                0.00010000               -0.41206696                0.94305093               -3.23441251               -7.19523984               46.26653096              -21.92667320
              27.16616376                3.98804330               69.98980458                0.00010000                0.49168876                1.33923426               -5.91114797               -7.70301634               44.63319726              -29.39284601
              28.17594466                1.95533834               69.50024621                0.00010000                1.53136781                1.85817545               -8.95093092               -7.76548025               42.06920156              -37.83186277
              29.19679112               -0.07671396               68.97818159                0.00010000                2.76315218                2.55018118              -12.42571956               -7.06322764               38.58193122              -47.72956288
              30.23120770               -2.10168524               68.41523967                0.00010000                4.37344455                3.35332315              -16.46974356               -5.37211151               33.66958759              -59.92591830
              31.28426001               -4.11246592               67.79263103                0.00010000                6.49530345                4.00535570              -20.99935150               -2.92820322               26.13161936              -76.51273288
              32.36111377               -6.10695777               67.07806021                0.02969269                8.68199709                4.21850088              -25.72537071               -0.98103033               14.59241686              -96.20875902
              33.45789995               -8.09376547               66.22538954                0.54005470                9.67861793                5.25737571              -29.38442388               -0.10556822                7.65459185             -116.71300596
              25.13240236               12.98435527               72.06990794                0.57253837               -0.40601889               -1.11036552                3.08175195               -0.11143386                0.13807609                9.74384926
              26.12834217               11.05160392               71.06488966                0.01934785               -0.60143500                0.29586176               -0.37388839               -3.50251956               29.57598006               -8.33953915
              27.12037366                9.04681391               70.64879607                0.00010000               -0.66424532                1.17311227               -1.91745178               -7.01815568               58.95920441              -13.85326381
              28.11505726                7.03090015               70.22459463                0.00010000               -0.16649578                1.79764061               -4.34455458               -7.52480231               57.95790816              -19.74919616
              29.11704374                5.00726453               69.77959985                0.00010000                0.69425093                2.35589899               -7.22892080               -7.75449992               55.67747992              -26.30791068
              30.12894228                2.98035033               69.30127359                0.00010000                1.80109619                3.00140661              -10.57020397               -7.53127835               52.05897427              -33.87636262
              31.15306566                0.95544206               68.77594198                0.00010000                3.18867891                3.78139965              -14.43147969               -6.72261595               46.87094448              -42.91271202
              32.19271586               -1.06181434               68.18670557                0.00010000                4.96252980                4.62731753              -18.86251129               -5.27957683               39.63882737              -54.09927936
              33.25231626               -3.06641008               67.51101333                0.00010000                7.12840344                5.40135865              -23.81914288               -3.32060057               29.68531681              -67.89665228
              34.33528393               -5.05484501               66.71967996                0.03294421                9.30811097                6.19331144              -29.03983885               -1.40666637               16.19255256              -84.43819968
              35.43847848               -7.03255507               65.77615961                0.54180499               10.31945530                7.16580686              -33.11375005               -0.18874585                8.26241579             -103.18235814
              27.05704355               13.97418703               71.87240146                0.57015246               -0.19604260               -0.92754305                2.55943740               -0.11100194                0.14459138                9.77675382
              28.05508312               12.05570254               70.77710707                0.01593918               -0.11488903                0.52896820               -1.24575848               -3.69830821               36.22597436               -8.25639595
              29.05474577               10.06126666               70.40353811                0.00010000                0.00405459                1.64621278               -2.87094980               -7.29998095               72.13502388              -12.37982384
              30.05516421                8.05252371               70.01753991                0.00010000                0.34389048                2.38419323               -5.34784763               -7.70224962               70.73729798              -17.01868644
              31.06162358                6.03516128               69.60439223                0.00010000                1.09886719                3.05161485               -8.35887418               -7.66616163               67.82447517              -22.38722058
              32.07714156                4.01536647               69.14837398                0.00010000                2.14399479                3.84296445              -11.91797509               -7.18240743               63.22802373              -28.75847158
              33.10450347                1.99891404               68.63178189                0.00010000                3.51633788                4.79789990              -16.09369725               -6.28471645               56.65553213              -36.48996521
              34.14746832               -0.00913889               68.03346260                0.00010000                5.31875976                5.85563019              -20.95683345               -4.97729507               47.64266503              -46.02553075
              35.21087867               -2.00443875               67.32744238                0.00010000                7.58285584                6.94956453              -26.50294282               -3.22894593               35.59983942              -57.87920012
              36.29912543               -3.98309154               66.48311581                0.03581985                9.93332450                8.08128492              -32.52489403               -1.37087383               19.44158231              -72.63587358
              37.40954516               -5.95044933               65.45715960                0.54365658               11.04197259                9.20150488              -37.07458878               -0.11287253                9.80887357              -90.88316333
              28.96715130               14.96580441               71.67488446                0.56748946                0.01450775               -0.75177785                2.03728442               -0.11356867                0.15518599                9.69934891
              29.96729637               13.06218329               70.48960930                0.01277766                0.52007869                0.77182941               -2.12221555               -3.84288484               43.62279586               -8.26260113
              30.97755287               11.07973816               70.17371382                0.00010000                0.99106347                1.93894617               -3.75957834               -7.40803420               86.76855544              -10.66118825
              31.98711764                9.07858401               69.84035685                0.00010000                1.16624350                2.61994887               -6.19602851               -7.64187683               84.92241382              -13.72875842
              33.00087774                7.06829683               69.47296270                0.00010000                1.72118676                3.36213454               -9.23569217               -7.20961761               81.38293203              -17.66897466
              34.02154138                5.05720962               69.05354796                0.00010000                2.54994802                4.35726439              -12.91470621               -6.43634956               75.93002767              -22.58830811
              35.05187670                3.05140006               68.56184054                0.00010000                3.74906802                5.55501619              -17.32623739               -5.44725751               68.20233948              -28.69553516
              36.09652274                1.05529826               67.97321277                0.00010000                5.49066437                6.89946282              -22.58555790               -4.23517997               57.61605030              -36.37526147
              37.16168999               -0.92741879               67.25703169                0.00010000                7.86771479                8.31789143              -28.75598614               -2.68072326               43.39781843              -46.26499174
              38.25387704               -2.89321931               66.37644294                0.03900033               10.46233146                9.73254593              -35.68284974               -1.03589816               23.86083477              -59.42624482
              39.37093662               -4.84852497               65.27336595                0.54549645               11.70595825               11.05070472              -40.70435216                0.05530022               12.00107432              -77.30464580
              30.86201442               15.95915147               71.47616982                0.56474521                0.22772539               -0.57810698                1.50854788               -0.11789458                0.20707385                9.63887390
              31.86429168               14.07113913               70.20155089                0.00969124                1.40849690                1.02253645               -3.00715516               -4.05784660               51.98361855               -8.48259340
              32.89018436               12.10004558               69.96241743                0.00010000                2.47381669                1.83464057               -4.54936094               -7.39891475              103.23244314               -8.43448578
              33.91376801               10.10492268               69.69943782                0.00010000                2.43106256                2.28635691               -6.83414954               -6.95094772              100.78664736               -9.76661982
              34.93880561                8.10240397               69.39364119                0.00010000                2.57716595                3.28934888               -9.78992255               -6.01136507               96.56658089              -12.22931540
              35.96531133                6.10251176               69.02726251                0.00010000                2.93320338                4.56234849              -13.47274573               -5.02627041               90.40761467              -15.54020001
              36.99746968                4.11001436               68.57919121                0.00010000                3.81361206                6.02513834              -18.00100947               -4.07195306               81.78942693              -19.78324099
              38.04158357                2.12885037               68.02186261                0.00010000                5.41560485                7.63576681              -23.54493647               -3.03851286               69.85694316              -25.27472976
              39.10578178                0.16191908               67.31855229                0.00010000                7.89650385                9.35103687              -30.26626084               -1.79269034               53.38497009              -32.65483212
              40.19951365               -1.78844062               66.42094565                0.04196598               10.77403547               11.01068746              -38.11495585               -0.55368962               29.66705313              -43.38622878
              41.32126249               -3.72943524               65.24653023                0.54723544               12.17488383               12.54411559              -43.53166989                0.19985593               14.97653100              -60.75688107
              32.74081809               16.95424227               71.27765087                0.56213931                0.44272391               -0.39444713                0.97930843               -0.12144941               -0.17963601                8.39673135
              33.74524533               15.08263402               69.90948437                0.00681300                2.74864627                1.26904349               -3.91703310               -4.62505822               61.63886272               -7.72273383
              34.79579102               13.11643097               69.77756137                0.00010000                5.02474819                0.40903236               -5.17920106               -5.85984281              122.11923211               -4.81777140
              35.84574030               11.12431115               69.60298846                0.00010000                4.36351709                1.57653717               -7.19062969               -4.71977140              118.33078062               -5.11134642
              36.88306136                9.13408380               69.37368210                0.00010000                3.38326441                3.00125983               -9.95014888               -3.55051469              113.39322459               -6.23353179
              37.91340559                7.14845659               69.07772619                0.00010000                3.05188376                4.57810022              -13.50684082               -2.81218544              106.83962936               -7.88015359
              38.94409904                5.17190283               68.69430866                0.00010000                3.52210874                6.25757131              -17.99693036               -2.18075394               97.76131473              -10.05453073
              39.98384776                3.20801360               68.19391594                0.00010000                4.95140646                8.04243941              -23.63743024               -1.53101222               85.02681179              -12.94896242
              41.04312717                1.25960194               67.53475536                0.00010000                7.51549009                9.92908302              -30.70517076               -0.79128942               66.72694204              -17.00632509
              42.13415756               -0.67300556               66.65332350                0.04522061               10.68979034               11.81317210              -39.40163406               -0.13319172               37.82866605              -23.17567612
              43.25692297               -2.59764266               65.41650508                0.54898121               12.27654108               13.39631902              -45.00728795                0.14544498               19.20755608              -37.15388937
              34.60280195               17.95126253               71.05417344                0.78015646                0.67998673               -0.29797442                0.34080319                0.72413227                3.81739436                7.15181880
              35.60960182               16.09652000               69.63642483                0.50243226                6.42542138                1.38859800               -4.75502210               -5.71616675               74.91414978               -6.76131592
              36.73131038               14.10822623               69.64038677                0.45375148                9.60589683               -0.82047433               -5.50887395               -4.45139283              142.75292770               -2.66215767
              37.80171975               12.13645343               69.55812185                0.44265499                5.61697504                1.21422795               -7.18392354               -1.69190732              136.75564459               -2.72589184
              38.84364988               10.16242917               69.41796167                0.43872259                3.47644225                2.83453669               -9.64913132               -1.06013151              131.75298642               -3.24951669
              39.87124860                8.19407377               69.20977903                0.44138914                2.53238589                4.56171749              -12.95044787               -0.57886799              125.31694581               -4.09337282
              40.89429759                6.23516579               68.91368409                0.45078093                2.60078080                6.32629571              -17.23287915               -0.19887482              116.44602740               -5.23993890
              41.92326421                4.28969915               68.49996820                0.46705864                3.83387787                8.16855540              -22.74170000                0.20839322              103.86529575               -6.80225408
              42.97097515                2.36050074               67.92490032                0.49107356                6.54151036               10.08987992              -29.80690040                0.69098214               85.48427088               -9.07904592
              44.05409442                0.44782282               67.12191997                0.52379434               10.12352176               12.08283858              -38.91598114                0.89320599               52.66468564              -12.41637276
              45.17344559               -1.46150886               65.88657681                0.77501844               11.93511664               13.61338060              -44.40974360                0.71909353               30.30133691              -23.29571482
              15.86407328                8.36413656               74.16495229                0.81440446               -1.58746918               -1.77580808                6.03091318               -0.45688729               -5.21607950                5.72135530
              16.84819859                6.27540161               73.54504189                0.55852867               -1.56351267               -1.03146178                4.07256877               -0.53283631               -7.34437594               -4.33423552
              17.83280302                4.17808167               72.88303302                0.48884426               -1.38965004               -0.56223273                1.99777714               -0.50041186               -7.61773679               -0.44698657
              18.82040559                2.06327902               72.25851440                0.45783653               -0.92242925                0.00676248                0.02686991               -0.43929925               -5.18765650               -0.47820898
              19.81435444               -0.06913719               71.64554014                0.44227771               -0.17189648                0.56913304               -1.99535592               -0.36945214               -4.14227340               -0.28284205
              20.81696766               -2.21461498               71.04194388                0.44122918                0.75523917                1.14742238               -4.06590325               -0.31402142               -3.50678221               -0.09293854
              21.82945922               -4.36527066               70.44143916                0.45496327                1.72025819                1.72297662               -6.15932994               -0.29180471               -3.58294546                0.10472227
              22.85137282               -6.51305090               69.83593858                0.48393060                2.57971409                2.28266324               -8.22927057               -0.29535744               -4.40296512                0.30315234
              23.88105350               -8.65249814               69.21848452                0.52824611                3.26800213                2.83055542              -10.26426191               -0.29749718               -6.04489686                0.39067372
              24.91673286              -10.78168050               68.57934599                0.58994290                3.81943614                3.37283885              -12.30674274               -0.29833231               -6.57253814                1.18790968
              25.95744223              -12.90197899               67.95032969                0.81979729                4.07093654                3.97513984              -14.31315626               -0.67561451               -6.01089148               -4.27147932
              17.94823935                9.34637848               73.91588258                0.60062020               -1.23416849               -1.82472659                5.27085437               -0.26809326                3.78709853                8.38247175
              18.93589767                7.26508699               73.29074851                0.06926139               -0.71895745               -0.75299136                3.32796437               -0.58039852                8.65448636               -8.01969485
              19.93386020                5.17245934               72.76329283                0.00010000                0.18621781               -1.08323570                1.76384256               -1.92765870               13.48766444               -9.58743388
              20.93962202                3.06334664               72.23455219                0.00010000                0.78733587               -1.18580196                0.08899814               -3.12538510               14.12096561              -13.12587616
              21.94960692                0.93655414               71.71969549                0.00010000                1.11360781               -0.85399185               -1.60941996               -4.03614344               15.27195760              -17.57803537
              22.96189418               -1.20314076               71.21406825                0.00010000                1.30761087               -0.35232532               -3.36170365               -4.49759961               15.88533866              -22.74515952
              23.97575914               -3.34804089               70.71151147                0.00010000                1.50694040                0.21629624               -5.12879835               -4.46490534               15.79553483              -28.50779958
              24.99203299               -5.49022427               70.20389763                0.00010000                1.83170976                0.80019152               -6.86275849               -4.03538046               14.90906590              -34.52055930
              26.01239333               -7.62419259               69.68317239                0.00680153                2.32284898                1.42546612               -8.55913288               -3.42482219               13.56136755              -39.68194594
              27.03848997               -9.74795211               69.14785580                0.09800328                2.92956218                3.32599379              -10.22746253               -1.85754357               10.27159343              -34.58731378
              28.07098458              -11.86222760               68.56020167                0.58575340                3.24946097                4.56283973              -12.01126883                1.13693487                7.72682439              -41.58920708
              20.02129438               10.32764203               73.72053181                0.57156148               -1.07846306               -1.76409525                4.78238469               -0.13403671                0.05239278               10.31581201
              21.01050975                8.26034178               72.96302972                0.01987804               -1.26520894               -0.35318775                2.30213578               -1.77029373               12.80496162              -10.48068294
              21.99599020                6.15641696               72.46089571                0.00010000               -0.83533320               -1.17182597                1.03603249               -4.86118866               25.59484568              -18.11348978
              22.99380308                4.03956298               71.95758011                0.00010000                0.20643872               -1.55455639               -1.07670649               -6.54750363               25.34689801              -25.59365420
              24.00011897                1.91378298               71.44772173                0.00010000                0.89038087               -1.45666738               -3.14450558               -7.84398242               24.83733839              -34.55803045
              25.01161070               -0.22166149               70.93275081                0.00010000                1.35628277               -1.02625294               -5.33119189               -8.58517602               24.18235088              -44.83386963
              26.02724463               -2.36094473               70.40872173                0.00010000                1.76031016               -0.41735528               -7.70127407               -8.38402989               23.25449337              -56.36740244
              27.04681690               -4.49704707               69.87457008                0.00010000                2.15201368                0.31142564              -10.44264276               -7.22716869               22.99894500              -68.89813985
              28.07028490               -6.62398882               69.34539259                0.00010000                3.54000478                1.37716990              -14.27527663               -3.96618531               32.39841894              -81.51390339
              29.11761700               -8.71516063               68.99965787                0.01463993                6.92234940                3.12854137              -25.98675345               -0.30227345               30.05925319              -96.63018536
              30.20873189              -10.81072220               68.42237309                0.53077208                9.11148913                4.18089958              -29.67351513                2.60565731               18.99478127             -115.44596014
              22.08015910               11.31109657               73.51087202                0.56883026               -0.84422396               -1.54375610                4.20458465               -0.11613483                0.12313396                9.74980680
              23.07171686                9.25802324               72.65943324                0.01599255               -1.13719332               -0.13244517                1.41549039               -2.68751076               18.44979355               -9.10990880
              24.05741523                7.14902282               72.17478270                0.00010000               -1.02054643               -0.21987681               -0.22308641               -5.68515484               36.58829546              -16.77523332
              25.05130593                5.03225552               71.68304402                0.00010000               -0.17317460               -0.09847298               -2.31636840               -6.62352958               35.87375476              -24.77643415
              26.05395174                2.90742080               71.18013854                0.00010000                0.68062194                0.09209772               -4.69004083               -7.50183172               34.67523448              -33.40440910
              27.06491837                0.77633418               70.66032566                0.00010000                1.47561917                0.53828383               -7.28721020               -7.84873635               32.88822472              -43.18288844
              28.08346412               -1.35638800               70.11858273                0.00010000                2.28076636                1.18792618              -10.20184940               -7.31126925               30.66928507              -54.36686657
              29.11053370               -3.48399576               69.55222255                0.00010000                3.38595273                2.00035566              -13.65021868               -5.50118609               28.79565921              -67.40645072
              30.15118318               -5.59664919               68.97196567                0.00010000                5.43220906                3.00445132              -18.37484823               -2.06159200               25.11226259              -84.00788481
              31.21917788               -7.68538129               68.33197496                0.01649580                8.15188459                2.91333036              -23.15288173                0.34711975               15.56915585             -114.59987516
              32.31422087               -9.77860960               67.56164905                0.53144083                9.50429922                3.39427376              -27.13437965                0.35882727                9.05590373             -139.82203600
              24.12511835               12.29676690               73.30483965                0.56622824               -0.62850683               -1.33046101                3.65572605               -0.11046705                0.12510734               10.00968270
              25.11883328               10.25769288               72.35908626                0.01292209               -0.85317615                0.07547279                0.52800242               -3.22535857               24.22579740               -8.82108754
              26.10805482                8.15201942               71.89555571                0.00010000               -0.79493792                0.63559432               -1.29123423               -6.50866005               48.04755386              -15.79092019
              27.10293452                6.03759352               71.42153017                0.00010000               -0.10255752                1.01310262               -3.57482223               -7.06343771               46.91916009              -23.10590134
              28.10600367                3.91562493               70.92922568                0.00010000                0.77551245                1.38487330               -6.18341491               -7.47936787               44.95617737              -31.14927832
              29.11844477                1.78910419               70.40977092                0.00010000                1.76727558                1.88181048               -9.12666381               -7.43994527               42.04445552              -40.27232849
              30.14134919               -0.33718621               69.85363252                0.00010000                2.93048015                2.52912576              -12.46403266               -6.64415627               38.11863132              -50.94087361
              31.17705437               -2.45703996               69.25116730                0.00010000                4.45447024                3.25250901              -16.31584640               -4.90584550               32.74670036              -63.90509930
              32.23043859               -4.56389979               68.58465285                0.00010000                6.47327189                3.77101362              -20.57481413               -2.55653233               24.92431428              -80.84334014
              33.30651981               -6.65689402               67.82503911                0.01921077                8.59632419                3.73225016              -24.89950417               -0.82757653               13.71134540             -100.83070207
              34.40236507               -8.74283672               66.93644055                0.53308105                9.58452638                4.43830557              -28.42208733               -0.23510729                7.10342026             -121.48119240
              26.15609780               13.28448735               73.10093226                0.56381964               -0.41406331               -1.13260337                3.11903650               -0.10942224                0.13797062               10.14827610
              27.15195717               11.25953269               72.06123761                0.00984485               -0.43782056                0.29897190               -0.35428476               -3.53770374               30.41153690               -8.62932221
              28.14734139                9.16173471               71.62716597                0.00010000               -0.27627513                1.22720086               -2.32163793               -7.01288843               60.30484743              -14.51912181
              29.14643167                7.05251757               71.17889450                0.00010000                0.27561623                1.83567829               -4.74602522               -7.42859721               58.76731066              -20.85126877
              30.15285372                4.93511826               70.70552000                0.00010000                1.12494698                2.35496795               -7.55538207               -7.55454333               56.06917953              -27.92476512
              31.16893061                2.81397039               70.19443999                0.00010000                2.19357154                2.94670534              -10.76920504               -7.22483768               52.00928564              -36.09202901
              32.19672515                0.69419452               69.63147432                0.00010000                3.50998808                3.64888192              -14.43330282               -6.33090446               46.32783366              -45.80375426
              33.23913037               -1.41894558               68.99947743                0.00010000                5.15907218                4.38003075              -18.55874437               -4.87726664               38.60067487              -57.68874315
              34.29990659               -3.52122892               68.27672127                0.00010000                7.12164557                4.98577245              -23.04667078               -3.08947645               28.30785457              -72.19039923
              35.38156328               -5.61073628               67.43702351                0.02196949                9.07487732                5.54164375              -27.59750378               -1.41620848               15.15413480              -89.35862856
              36.48140414               -7.68984349               66.45420752                0.53476287                9.98408572                6.31071902              -31.40012840               -0.43656141                7.65759494             -108.60873801
              28.17283922               14.27411484               72.89813009                0.56132454               -0.20073721               -0.94609471                2.58341732               -0.10865084                0.14757984               10.18500443
              29.17083184               12.26367232               71.76469706                0.00657575                0.09864823                0.53447829               -1.23409197               -3.72837632               37.19103664               -8.54978611
              30.17481218               10.17656344               71.37222411                0.00010000                0.50735906                1.66619220               -3.29919416               -7.30780998               73.73982330              -13.01372832
              31.18097902                8.07430709               70.96149986                0.00010000                0.93239018                2.37467120               -5.80157203               -7.64868047               71.77744857              -18.01241981
              32.19345998                5.96272429               70.51869077                0.00010000                1.69463685                2.99113041               -8.73955259               -7.51655377               68.36238199              -23.80356442
              33.21487176                3.84803830               70.02784777                0.00010000                2.70935415                3.71045584              -12.14933690               -6.93433950               63.22467314              -30.67554768
              34.24764707                1.73579143               69.47073711                0.00010000                4.00303552                4.56396459              -16.07618165               -5.97197454               56.04153676              -38.99068742
              35.29493247               -0.36943934               68.82584527                0.00010000                5.63963492                5.48277140              -20.53512358               -4.68432211               46.38889269              -49.19861590
              36.36043977               -2.46418434               68.06777506                0.00010000                7.59388723                6.39928800              -25.44325976               -3.13680092               33.84104706              -61.80686930
              37.44681022               -4.54606114               67.16858126                0.02499011                9.57042508                7.32323590              -30.52845630               -1.51035085               18.07331028              -77.33320076
              38.55184827               -6.61662234               66.09912654                0.53646013               10.50380501                8.25617714              -34.69896077               -0.43831465                9.05275857              -96.09771970
              30.17480982               15.26556546               72.69532529                0.55890481                0.01312205               -0.76479710                2.04856169               -0.10981824                0.15914718               10.10722917
              31.17494104               13.27022226               71.46838389                0.00374772                0.78703021                0.77869786               -2.11973286               -3.88566266               44.75755187               -8.56602933
              32.19055042               11.19505856               71.13343962                0.00010000                1.61780830                1.91941824               -4.20217055               -7.45084652               88.72155825              -11.23816609
              33.20729721                9.10001099               70.77554961                0.00010000                1.91205045                2.55333262               -6.69906848               -7.63734339               86.28938801              -14.56945475
              34.22879143                6.99494087               70.37814434                0.00010000                2.49397367                3.23866495               -9.67654975               -7.11685715               82.16562899              -18.82500367
              35.25717668                4.88817951               69.92274853                0.00010000                3.29859316                4.15602740              -13.19627328               -6.26344589               76.06239011              -24.13051389
              36.29476330                2.78547381               69.38833388                0.00010000                4.41215086                5.24070742              -17.32292993               -5.23541492               67.58044409              -30.70805373
              37.34541970                0.69070985               68.74955997                0.00010000                5.95145372                6.42975461              -22.09886368               -4.06267861               56.16328477              -38.96376698
              38.41379237               -1.39324316               67.97589152                0.00010000                7.91872834                7.66081484              -27.47607745               -2.70571380               41.21644983              -49.55731720
              39.50379426               -3.46427156               67.03292964                0.02774522                9.99839375                8.87813822              -33.18636447               -1.26163798               22.13072445              -63.51747207
              40.61376024               -5.52471995               65.88208273                0.53815364               10.99659820                9.98399003              -37.73486073               -0.31152248               11.08096117              -81.87805017
              32.16132924               16.25881889               72.49126531                0.55650225                0.22962471               -0.58359889                1.50796778               -0.11577513                0.21254904               10.04310174
              33.16362549               14.27924628               71.17141730                0.00076700                1.73386358                1.02915464               -3.01511324               -4.13420407               53.34568056               -8.80537614
              34.19600652               12.21495180               70.91419820                0.00010000                3.23621749                1.75827080               -5.00323116               -7.49867867              105.64807312               -8.91222402
              35.22834984               10.12537374               70.62797490                0.00010000                3.34739042                2.15019258               -7.38698196               -6.98298150              102.59489915              -10.39733049
              36.26295432                8.02749759               70.29288665                0.00010000                3.53600323                3.10694175              -10.30112469               -5.96269383               97.70879831              -13.06227075
              37.29906991                5.93115884               69.89045237                0.00010000                3.87270516                4.30667135              -13.82933606               -4.92175632               90.79252918              -16.63143394
              38.34040843                3.84060558               69.39855779                0.00010000                4.66629792                5.65594853              -18.05829422               -3.95776313               81.27533267              -21.19975768
              39.39239586                1.75915575               68.78846350                0.00010000                6.04492377                7.10328903              -23.06791163               -2.97875642               68.30316739              -27.10655823
              40.46130690               -0.31096805               68.02282610                0.00010000                8.03291931                8.60666352              -28.86314788               -1.90114802               50.81931949              -35.04428929
              41.55305425               -2.36849838               67.05515923                0.03088728               10.26038427               10.06177149              -35.20858328               -0.80334352               27.59041625              -46.53457834
              42.66651459               -4.41694254               65.82920903                0.53988443               11.34603379               11.35523076              -40.09104388               -0.13778834               13.90896881              -64.25036265
              34.13163955               17.25389348               72.28737496                0.55406076                0.44844962               -0.39234676                0.96330929               -0.12264983               -0.18964254                8.74794303
              35.13612405               15.29080535               70.87019055                0.00010000                3.14049170                1.27579784               -3.93479320               -4.76676194               63.31456524               -8.02810380
              36.19444939               13.23022397               70.72298735                0.00010000                5.94838708                0.22620939               -5.64828213               -5.98617586              125.15396223               -5.10397458
              37.25509179               11.14301485               70.52766835                0.00010000                5.46515328                1.37848424               -7.79917594               -4.75674964              120.69924666               -5.46267485
              38.30375245                9.05707971               70.27087872                0.00010000                4.52708882                2.76939633              -10.54419806               -3.52491944              115.01240559               -6.67908467
              39.34563357                6.97431294               69.94000836                0.00010000                4.19293384                4.27954707              -13.96611255               -2.76285142              107.60793002               -8.45272920
              40.38761113                4.89859278               69.51305063                0.00010000                4.58923118                5.85085577              -18.16940833               -2.14023290               97.50530592              -10.79089718
              41.43741819                2.83277563               68.95890759                0.00010000                5.79062034                7.47639976              -23.26872456               -1.54746496               83.53520665              -13.89696294
              42.50342354                0.77889011               68.23424697                0.00010000                7.81418497                9.14268464              -29.33997058               -0.92119374               63.88903779              -18.25239669
              43.59370189               -1.26303613               67.27573825                0.03389864               10.22346358               10.77665273              -36.25333131               -0.32695675               35.49059746              -24.97879058
              44.70789281               -3.29761533               65.98544997                0.54138926               11.41909177               12.17305663              -41.31369717               -0.05421811               18.09726097              -39.07604811
              36.08505250               18.25097196               72.05745620                0.77618719                0.69072601               -0.29215205                0.31189970                0.72032231                3.97375836                7.45218588
              37.09195976               16.30476223               70.58865160                0.49825834                6.95105031                1.39568800               -4.78736028               -5.99122710               77.10789490               -7.03816047
              38.22407351               14.21947599               70.58233474                0.45291782               10.71996769               -1.07479802               -6.01847706               -4.62852834              146.56153957               -2.83809568
              39.30635911               12.15294342               70.48252200                0.44234005                6.85421688                0.99285792               -7.86192946               -1.70279127              139.76675320               -2.93577115
              40.36115784               10.08288552               70.31767874                0.43879845                4.79703450                2.58058103              -10.33824634               -1.06914271              133.95127334               -3.50098955
              41.40229980                8.01674978               70.07695044                0.44122159                3.89916158                4.24368480              -13.53518636               -0.59651739              126.59136830               -4.40598324
              42.43914108                5.95762269               69.73913599                0.44992969                3.94247129                5.90299122              -17.57002021               -0.25030735              116.59273465               -5.63247916
              43.48114923                3.90868374               69.27264302                0.46516011                4.97768587                7.59081121              -22.58532894                0.08625183              102.61875306               -7.29659465
              44.53869479                1.87188565               68.63171784                0.48752412                7.09356671                9.29955325              -28.69917915                0.44467250               82.58530794               -9.70691816
              45.62302056               -0.15296532               67.74769801                0.51788813                9.79469168               11.00708103              -35.94800072                0.66351468               50.24698109              -13.42203502
              46.73458863               -2.17348141               66.45912712                0.77128785               11.15680627               12.41339240              -41.01942684                0.61797337               29.26031342              -24.33703772
              16.44080360                8.67503985               75.22569421                0.80803564               -1.61007124               -1.79918822                6.11124168               -0.46462545               -5.37604091                5.88151124
              17.42470288                6.48931759               74.58606614                0.55074048               -1.59695832               -1.04462314                4.12450101               -0.54902162               -7.55645272               -4.48441998
              18.40886443                4.29466837               73.90321756                0.48567570               -1.42039979               -0.56961618                2.03326063               -0.48711964               -7.83404964               -0.41149769
              19.39629489                2.08217092               73.25883840                0.45649853               -0.93211006                0.01002865                0.03918346               -0.43298850               -5.37787079               -0.47090634
              20.39022223               -0.14802567               72.62551522                0.44195477               -0.16807503                0.58087316               -2.00681184               -0.36895458               -4.38381472               -0.27533907
              21.39293339               -2.39119341               72.00109333                0.44110257                0.76779954                1.16544820               -4.10047680               -0.31999489               -3.79029885               -0.09427185
              22.40557822               -4.63948361               71.37948411                0.45400034                1.73945877                1.75059842               -6.22012269               -0.29762359               -3.87463654                0.09770869
              23.42772256               -6.88487218               70.75313507                0.48084516                2.60931374                2.32013608               -8.31919461               -0.30068052               -4.67540489                0.29039149
              24.45776449               -9.12191926               70.11513126                0.52206398                3.31050830                2.87868631              -10.39188592               -0.30290817               -6.31027004                0.36956885
              25.49393273              -11.34873002               69.45545809                0.57949443                3.86898687                3.42860841              -12.45754563               -0.30482917               -6.82591265                1.18629560
              26.53514423              -13.56673048               68.80630796                0.81284754                4.12115025                4.03523365              -14.48474878               -0.66964520               -6.25498932               -4.40613409
              18.62187960                9.65704797               74.96895934                0.58965674               -1.24811910               -1.85447146                5.33794829               -0.27754912                3.96940505                8.68321768
              19.60939841                7.47887136               74.32426316                0.05607015               -0.71565132               -0.75644452                3.37012913               -0.60525812                9.03094413               -8.30595773
              20.60756657                5.28897221               73.78105642                0.00010000                0.19568096               -1.15501936                1.77953571               -1.92426834               13.99671844               -9.85563336
              21.61331203                3.08227121               73.23536690                0.00010000                0.78241381               -1.14404556                0.07766270               -3.06728923               14.55937983              -13.75792823
              22.62321485                0.85778306               72.70339854                0.00010000                1.10751905               -0.78766642               -1.64996117               -3.93823530               15.67315132              -18.54726553
              23.63546241               -1.37953893               72.18010098                0.00010000                1.31132618               -0.26975478               -3.42809380               -4.36156745               16.24746936              -24.08995529
              24.64944137               -3.62197762               71.65966941                0.00010000                1.52355897                0.30787328               -5.23112465               -4.29985070               16.16290156              -30.30855301
              25.66593359               -5.86167082               71.13451409                0.00010000                1.86114793                0.88614360               -7.00599767               -3.84858156               15.30995013              -36.97904594
              26.68666433               -8.09313240               70.59660260                0.00010000                2.36782296                1.47957587               -8.74324672               -3.20569375               13.99827005              -43.36670189
              27.71329005              -10.31444393               70.04446212                0.08250988                2.98919560                3.14794724              -10.44698752               -1.63312103               10.66549164              -43.48389348
              28.74644824              -12.52637814               69.43886945                0.57532378                3.31581962                4.27986238              -12.25308974                1.44255322                8.05725813              -52.23999997
              20.79160582               10.63795042               74.76866861                0.56236539               -1.09323452               -1.79692604                4.84004013               -0.13081977                0.02706308               10.71142818
              21.78067348                8.47418870               73.98625061                0.00958010               -1.23133015               -0.34892663                2.33983986               -1.87775882               13.32747095              -10.83365821
              22.76697922                6.27156799               73.47011422                0.00010000               -0.72676117               -1.15941813                0.83660363               -4.85040781               26.34045548              -18.78357164
              23.76613826                4.05929001               72.94610963                0.00010000                0.31442179               -1.48554124               -1.20728805               -6.36694067               25.74449020              -26.86787626
              24.77326766                1.83622100               72.41562183                0.00010000                0.96622335               -1.34476702               -3.26702364               -7.64993977               25.19072300              -36.48364889
              25.78546272               -0.39658851               71.87884238                0.00010000                1.42227226               -0.89760649               -5.44358378               -8.30973107               24.41589462              -47.49548110
              26.80171310               -2.63332614               71.33121777                0.00010000                1.82214938               -0.29160322               -7.79274613               -8.06033688               23.27025062              -59.91142401
              27.82190571               -4.86714931               70.76979844                0.00010000                2.23553142                0.40318903              -10.49511350               -6.89994079               22.39515207              -73.61465146
              28.84642373               -7.09232775               70.20246396                0.00010000                3.63051706                1.35986220              -14.23762327               -3.85927238               27.49015222              -88.07255872
              29.89451605               -9.28577107               69.73902823                0.00461593                7.07199926                2.89250857              -25.26450904               -0.33954071               24.66141495             -105.38626996
              30.98786372              -11.48113323               69.11360370                0.52416251                9.33476643                3.90836890              -30.70934273                2.57858859               16.48765269             -125.87901964
              22.94678664               11.62110945               74.55317221                0.55978699               -0.85609704               -1.57113316                4.25324769               -0.11302936                0.12546403               10.12103093
              23.93822567                9.47189283               73.67376601                0.00618503               -1.06647624               -0.13147557                1.45020862               -2.73035210               18.96107594               -9.39480334
              24.92545711                7.26578385               73.17130022                0.00010000               -0.84527335               -0.09826243               -0.42594231               -5.66997048               37.44947082              -17.60029361
              25.92132020                5.05256038               72.65867031                0.00010000                0.03187272               -0.03438085               -2.53216331               -6.51051319               36.44596489              -26.06195711
              26.92609457                2.83088772               72.13224494                0.00010000                0.87473644                0.17276384               -4.87256309               -7.31362672               35.01453386              -35.29999068
              27.93881493                0.60250894               71.58673526                0.00010000                1.63504377                0.61829728               -7.41896734               -7.58666030               32.99856983              -45.78125894
              28.95879544               -1.62780969               71.01624245                0.00010000                2.40607240                1.24515632              -10.25490105               -7.00308609               30.42854719              -57.77605600
              29.98693638               -3.85360704               70.41594194                0.00010000                3.46526012                2.00536057              -13.58418762               -5.24548973               27.75857774              -71.71140924
              31.02810064               -6.06593516               69.78901479                0.00010000                5.41841709                2.91197126              -18.10774678               -2.02679794               23.47740503              -88.92236610
              32.09530472               -8.25659376               69.10112457                0.00632468                8.03218443                2.85753606              -22.83543616                0.33806594               14.24283405             -116.28656714
              33.18874433              -10.44821077               68.29157846                0.52499576                9.34396148                3.25927268              -26.64332647                0.30338744                7.86860267             -141.27610079
              25.08777847               12.60652776               74.34162556                0.55751046               -0.63864346               -1.35395413                3.69716370               -0.10863446                0.12531662               10.40555286
              26.08139204               10.47155919               73.36450888                0.00345277               -0.74331046                0.07569250                0.55643559               -3.24057459               24.80599458               -9.10639767
              27.07291226                8.26960274               72.88118736                0.00010000               -0.52839571                0.69896125               -1.52554699               -6.48001000               49.03586420              -16.53142234
              28.07082412                6.05860239               72.38426881                0.00010000                0.20671501                1.06723522               -3.83936534               -6.95986095               47.58742337              -24.35734453
              29.07704656                3.83967628               71.86613628                0.00010000                1.08014013                1.42082081               -6.40899722               -7.30188398               45.32290843              -32.96041367
              30.09242692                1.61577744               71.31771294                0.00010000                2.03604023                1.89619805               -9.26607435               -7.18702722               42.08497000              -42.72537236
              31.11776737               -0.60842302               70.72890093                0.00010000                3.13472306                2.50360406              -12.46709447               -6.35150403               37.76056222              -54.10036622
              32.15512139               -2.82704210               70.08892274                0.00010000                4.55535629                3.16699389              -16.11730234               -4.65596368               31.99094522              -67.73756258
              33.20887449               -5.03408832               69.38113475                0.00010000                6.42157968                3.62974371              -20.12109972               -2.43758116               23.98094553              -84.88477346
              34.28355298               -7.22862035               68.58007012                0.00921740                8.41454894                3.55170157              -24.12786067               -0.81418996               13.05676698             -104.94824574
              35.37716547               -9.41594778               67.65694779                0.52641382                9.36124916                4.03974731              -27.52105369               -0.30684121                6.67421644             -125.73020528
              27.21455108               13.59403036               74.13228867                0.55529652               -0.42118823               -1.15168336                3.14629889               -0.10823156                0.13686062               10.55118086
              28.21033919               11.47340668               73.05780397                0.00081948               -0.28686819                0.30006706               -0.33006819               -3.54247456               31.08253698               -8.91152574
              29.20881371                9.27976307               72.60236331                0.00010000                0.08551229                1.25578540               -2.57736700               -6.98372126               61.46618980              -15.23233233
              30.21204944                7.07390509               72.12967412                0.00010000                0.70340618                1.85089027               -5.05090696               -7.35182678               59.57321425              -22.01710406
              31.22288184                4.85930414               71.62849221                0.00010000                1.55621176                2.33946905               -7.81527656               -7.39977198               56.50245559              -29.59247429
              32.24317368                2.64043290               71.08588949                0.00010000                2.58515326                2.88847699              -10.91396954               -6.99399929               52.03953208              -38.32321903
              33.27458490                0.42226239               70.48727592                0.00010000                3.81543661                3.53318708              -14.38700165               -6.05653594               45.93172691              -48.64984196
              34.31948241               -1.79026717               69.81553068                0.00010000                5.31711849                4.19241730              -18.22788696               -4.62579231               37.82511733              -61.13698768
              35.38092727               -3.99334028               69.05007992                0.00010000                7.06989838                4.71709708              -22.32137173               -2.96017206               27.34624648              -76.19744373
              36.46088038               -6.18555973               68.16772989                0.01173205                8.81675449                5.14793330              -26.38905505               -1.41941763               14.45978932              -93.82792269
              37.55726236               -8.36741582               67.14815704                0.52794788                9.63819861                5.78344194              -29.96909007               -0.56839393                7.24948756             -113.50170431
              29.32686121               14.58349409               73.92406981                0.55313670               -0.20513715               -0.96082952                2.60055538               -0.11005773                0.14872272               10.59017063
              30.32480984               12.47756053               72.75242523                0.00010000                0.29391122                0.53678868               -1.21725465               -3.73908796               37.98310114               -8.83495053
              31.33273943               10.29471844               72.33755423                0.00010000                0.97183446                1.66188366               -3.57093769               -7.29678686               75.13736909              -13.68133190
              32.34424652                8.09562020               71.90150847                0.00010000                1.48919364                2.34073941               -6.14213637               -7.60507744               72.78852245              -19.05942457
              33.36252330                5.88646566               71.42960117                0.00010000                2.26710780                2.91483657               -9.03432793               -7.39818269               68.92994681              -25.26721689
              34.38958868                3.67354698               70.90538724                0.00010000                3.24067061                3.57809219              -12.30672425               -6.73994840               63.30425198              -32.61243359
              35.42733672                1.46224073               70.31025826                0.00010000                4.43097676                4.35779554              -15.99391830               -5.73257482               55.60358048              -41.45842066
              36.47820822               -0.74319376               69.62276013                0.00010000                5.88134505                5.18359252              -20.08144890               -4.46193563               45.47201871              -52.24875927
              37.54496362               -2.93974638               68.81857718                0.00010000                7.55159736                5.98620558              -24.45781884               -3.03729431               32.63837317              -65.46883944
              38.62924016               -5.12566169               67.87254668                0.01442891                9.22730757                6.77065019              -28.86471961               -1.55563133               17.16880993              -81.56113004
              39.72950977               -7.30027894               66.76318039                0.52955548               10.02696055                7.56236780              -32.72243771               -0.61236041                8.55936129             -100.74794957
              31.42421704               15.57481377               73.71585569                0.55057765                0.01160451               -0.77651270                2.05367197               -0.11212149                0.16080033               10.51290874
              32.42433308               13.48414245               72.44721464                0.00010000                1.03006388                0.78322054               -2.10919795               -3.91752312               45.71385491               -8.86260500
              33.44481831               11.31300075               72.08967040                0.00010000                2.19337991                1.87674606               -4.48827899               -7.47868915               90.44242238              -11.83446216
              34.46820068                9.12071987               71.70637548                0.00010000                2.60865429                2.46185699               -7.07511023               -7.63344324               87.59363024              -15.45103276
              35.49699140                6.91760087               71.27943171                0.00010000                3.21994802                3.09792615              -10.01301818               -7.03721595               82.95363832              -20.02263864
              36.53259964                4.71199475               70.78962250                0.00010000                3.98413709                3.95381378              -13.38260968               -6.11402333               76.26414769              -25.69647489
              37.57667414                2.50941830               70.21538194                0.00010000                4.98155808                4.95308672              -17.23148509               -5.04807890               67.14257529              -32.70366925
              38.63223080                0.31340468               69.53123549                0.00010000                6.29875878                6.02826684              -21.55914604               -3.89320375               55.10006267              -41.45737883
              39.70264932               -1.87361617               68.70751015                0.00010000                7.90347540                7.12121133              -26.26891308               -2.65212952               39.72527757              -52.61232504
              40.79030031               -4.05014673               67.71271565                0.01733436                9.58001723                8.18604449              -31.08857690               -1.34267042               20.97806938              -67.12321014
              41.89424966               -6.21616846               66.51866874                0.53119560               10.39493522                9.12346072              -35.23889779               -0.51054808               10.47508391              -85.85039323
              33.50596142               16.56796384               73.50632918                0.54842428                0.23109835               -0.59017672                1.50213462               -0.11503807                0.21598770               10.44553103
              34.50827240               14.49322494               72.14124862                0.00010000                2.03134060                1.03475948               -3.01348440               -4.20596545               54.52627380               -9.12203352
              35.54658823               12.33225337               71.86235281                0.00010000                3.93525698                1.66070980               -5.30434389               -7.58967289              107.80645063               -9.39583666
              36.58697754               10.14485734               71.55169818                0.00010000                4.19579414                1.98953416               -7.80280473               -7.00980017              104.29838736              -11.05433290
              37.63050411                7.94842418               71.18761870                0.00010000                4.42566184                2.90545789              -10.69109760               -5.91280085               98.81787220              -13.92731600
              38.67549078                5.75262326               70.75067579                0.00010000                4.72305444                4.04545939              -14.06823225               -4.81645418               91.21297940              -17.74746229
              39.72496520                3.56130246               70.21802533                0.00010000                5.39439198                5.30441947              -17.99791805               -3.83099471               80.92530120              -22.61634086
              40.78337862                1.37737158               69.56050438                0.00010000                6.52536196                6.62450704              -22.50210452               -2.87499296               67.16088307              -28.88241909
              41.85547244               -0.79732215               68.74128933                0.00010000                8.07802151                7.96392218              -27.50755428               -1.89422169               49.06338557              -37.25243480
              42.94493905               -2.96194080               67.71677398                0.01987654                9.79349198                9.25132865              -32.73503413               -0.90106861               26.19417397              -49.21921970
              44.05134228               -5.11780973               66.44470936                0.53266707               10.64032325               10.35433743              -37.14298992               -0.32713792               13.19088409              -67.16982802
              35.57139406               17.56301024               73.29691705                0.54602540                0.45301839               -0.39100415                0.94371558               -0.12101440               -0.19789348                9.09571612
              36.57592424               15.50483764               71.83078851                0.00010000                3.49992028                1.28048694               -3.94075688               -4.90932578               64.80279173               -8.32660072
              37.64139246               13.34621494               71.66459573                0.00010000                6.79548096                0.02580902               -5.97091038               -6.11222705              127.90007278               -5.38965336
              38.71183386               11.16051056               71.44700495                0.00010000                6.47884993                1.15866885               -8.26441050               -4.78858229              122.91344951               -5.82438347
              39.77096946                8.97571002               71.16279814                0.00010000                5.57792074                2.51925795              -11.00310481               -3.49319182              116.54829443               -7.14297819
              40.82339228                6.79290393               70.79840394                0.00010000                5.21682293                3.97233404              -14.28498029               -2.70376943              108.35822144               -9.04380581
              41.87530592                4.61550669               70.33092049                0.00010000                5.49816396                5.45215154              -18.18801342               -2.07572995               97.36002071              -11.53660976
              42.93335556                2.44589483               69.72854145                0.00010000                6.43856700                6.94624129              -22.75713285               -1.50828064               82.42673503              -14.82839293
              44.00407726                0.28566227               68.94795595                0.00010000                7.97054770                8.43713974              -27.95401739               -0.94305520               61.94137294              -19.41079772
              45.09276651               -1.86512015               67.92825687                0.02297436                9.76837504                9.87016984              -33.52519952               -0.40291358               33.89504319              -26.45548684
              46.19944476               -4.00908172               66.59023114                0.53427704               10.66782524               11.11029085              -38.08659234               -0.17358743               17.30903290              -40.60676737
              37.61988632               18.56014375               73.06041144                0.77216923                0.69948611               -0.28664859                0.27851194                0.71831913                4.13182807                7.74781310
              38.62688118               16.51883468               71.54067762                0.49404331                7.43922271                1.39970398               -4.80279507               -6.27301649               79.09323364               -7.30801018
              39.76867077               14.33276955               71.52001722                0.45179476               11.74148156               -1.34453962               -6.38560131               -4.81236749              150.03181439               -2.99279230
              40.86171081               12.16803071               71.40088326                0.44211212                7.97880611                0.75201566               -8.39445648               -1.71031531              142.57941335               -3.13228498
              41.92824690                9.99880934               71.21119674                0.43879540                5.99539533                2.30993151              -10.88390050               -1.07029547              136.01685584               -3.74604830
              42.98161872                7.83206994               70.93907530                0.44105404                5.11064068                3.91660016              -13.95904157               -0.60054820              127.78536113               -4.71160620
              44.03045971                5.67034549               70.56228369                0.44917987                5.07193529                5.48387976              -17.71078230               -0.27329759              116.77218683               -6.01032786
              45.08305742                3.51629641               70.04826162                0.46329517                5.85833029                7.04015816              -22.20640205                0.02394441              101.66656110               -7.75673538
              46.14762632                1.37142064               69.35091674                0.48407418                7.42836685                8.57583693              -27.43594478                0.31321510               80.53954799              -10.25747572
              47.23162476               -0.76453740               68.40295995                0.51240702                9.40836675               10.05827550              -33.21397436                0.53459769               48.48939731              -14.14183856
              48.33579365               -2.89560391               67.06618827                0.76760510               10.41688892               11.34778062              -37.82456293                0.52823796               28.37315388              -25.02840222
              17.03580860                8.99523653               76.28717712                0.80203670               -1.62624111               -1.81680946                6.17399264               -0.47061221               -5.53324426                6.03160108
              18.01954619                6.70931918               75.62753191                0.54293710               -1.62294145               -1.05358150                4.16365998               -0.56579791               -7.75768846               -4.62595775
              19.00334977                4.41417400               74.92369824                0.48218503               -1.44978442               -0.57239898                2.06084740               -0.49165928               -8.03270210               -0.37559764
              19.99055050                2.10080389               74.25929807                0.45510795               -0.94632792                0.01129556                0.05238688               -0.43753019               -5.55861194               -0.45925178
              20.98442321               -0.23041060               73.60540391                0.44146980               -0.16788554                0.59128262               -2.01374762               -0.37471557               -4.61630352               -0.27001470
              21.98719279               -2.57451572               72.95993435                0.44093458                0.77507722                1.18268137               -4.12624945               -0.32583476               -4.06185090               -0.09370952
              22.99992476               -4.92368709               72.31703670                0.45283390                1.75123925                1.77414750               -6.26282046               -0.30633920               -4.15613363                0.08793311
              24.02221758               -7.27000111               71.66955468                0.47762583                2.63001608                2.35325524               -8.39173547               -0.30999519               -4.94678328                0.27199270
              25.05252508               -9.60804945               71.01064681                0.51617994                3.34101664                2.91901221              -10.48993868               -0.30951417               -6.57497491                0.34961330
              26.08903791              -11.93596264               70.33019508                0.56947219                3.90588157                3.47625220              -12.57257691               -0.30925633               -7.07800626                1.17805910
              27.13064271              -14.25522466               69.66063471                0.80631546                4.16048023                4.09013142              -14.62384488               -0.65896421               -6.49944267               -4.53673457
              19.31701982                9.97706843               76.02264155                0.57894334               -1.26003464               -1.87894050                5.39068456               -0.28535441                4.15006072                8.97782395
              20.30441947                7.69878337               75.35815109                0.04295212               -0.71644982               -0.75767072                3.40158976               -0.62755292                9.40075926               -8.58186811
              21.30269082                5.40845001               74.79888355                0.00010000                0.20240109               -1.18361389                1.79025163               -1.91380024               14.50028085              -10.20152938
              22.30846750                3.10091685               74.23610544                0.00010000                0.78225197               -1.09509228                0.07311852               -3.01564968               15.00007110              -14.43290358
              23.31833586                0.77550223               73.68669626                0.00010000                1.10525967               -0.71629045               -1.68763078               -3.84141377               16.07634329              -19.54166617
              24.33057269               -1.56268891               73.14550637                0.00010000                1.31340997               -0.18448332               -3.48924076               -4.21539937               16.61066394              -25.43757314
              25.34460406               -3.90594561               72.60688898                0.00010000                1.53630566                0.39704200               -5.32148188               -4.10054186               16.51839894              -32.08323649
              26.36129880               -6.24646856               72.06377767                0.00010000                1.89033194                0.96165821               -7.13556502               -3.58287635               15.69681262              -39.36421957
              27.38241070               -8.57885932               71.50830745                0.00010000                2.41170733                1.50986325               -8.90851103               -2.81992408               14.41516145              -46.87894707
              28.40953295              -10.90120012               70.93891605                0.06737762                3.04521897                2.82070837              -10.64726761               -1.23981865               11.04327863              -51.44130335
              29.44331508              -13.21432334               70.31513988                0.56545745                3.37821320                3.71065249              -12.47736711                1.62224233                8.38293001              -62.55961038
              21.58667164               10.95765772               75.81733262                0.55333770               -1.10580833               -1.82540938                4.88948679               -0.12614609                0.00112872               11.10890164
              22.57561355                8.69416577               75.00982652                0.00010000               -1.18656751               -0.34572327                2.37222186               -1.93825490               13.75555872              -11.17743394
              23.56294029                6.39050172               74.47762778                0.00010000               -0.62141345               -1.12530943                0.69364857               -4.82271008               27.02483004              -19.55643334
              24.56318529                4.07890205               73.93343435                0.00010000                0.41302024               -1.40298267               -1.31284499               -6.22125570               26.18116324              -28.22646212
              25.57120069                1.75526360               73.38238126                0.00010000                1.05736812               -1.22978495               -3.37023839               -7.46329144               25.55419840              -38.45781026
              26.58433265               -0.57820539               72.82387913                0.00010000                1.52464423               -0.77363265               -5.53883517               -8.03451373               24.65520074              -50.16085931
              27.60169358               -2.91574625               72.25286680                0.00010000                1.95705559               -0.18233336               -7.86599431               -7.71691183               23.29308164              -63.39443998
              28.62347376               -5.25076795               71.66466781                0.00010000                2.45822899                0.45601595              -10.50888874               -6.52359127               21.82139486              -78.17060291
              29.65085816               -7.57785218               71.06064012                0.00010000                3.81158962                1.25460117              -14.04737437               -3.78212911               23.22943471              -94.29139538
              30.69970555               -9.87954848               70.49436769                0.00010000                6.92379209                2.45227998              -23.17991426               -0.56107440               19.18060353             -113.57385568
              31.78933400              -12.18101161               69.80818624                0.51776708                8.96284464                3.34238146              -29.16098865                2.22218998               12.63924291             -135.57448043
              23.84148079               11.94056024               75.59593698                0.55107975               -0.86704204               -1.59481047                4.29514164               -0.10981425                0.12710804               10.49363119
              24.83281037                9.69186890               74.68843742                0.00010000               -0.99902238               -0.13194009                1.48247344               -2.74193034               19.38396275               -9.67121613
              25.82150035                7.38594382               74.16626385                0.00010000               -0.67649326               -0.00869172               -0.55020345               -5.64699103               38.20626551              -18.45082031
              26.81928051                5.07285720               73.63240075                0.00010000                0.23385616                0.02703864               -2.69640950               -6.42442531               37.01328576              -27.40733199
              27.82617747                2.75090653               73.08268728                0.00010000                1.08058762                0.24528949               -5.02019290               -7.16008640               35.37399930              -37.23197641
              28.84089226                0.42183844               72.51194631                0.00010000                1.83254613                0.68239494               -7.52412660               -7.37259738               33.13693473              -48.36836264
              29.86282839               -1.90959228               71.91348471                0.00010000                2.60203256                1.27596189              -10.28314555               -6.77648168               30.23200871              -61.10265031
              30.89293291               -4.23734824               71.28053880                0.00010000                3.63601272                1.96939968              -13.47429410               -5.15046588               26.83368436              -75.83305390
              31.93554865               -6.55376730               70.60981073                0.00010000                5.42689873                2.75958942              -17.65654447               -2.33771586               21.91869064              -93.55156221
              33.00147089               -8.85215452               69.87526624                0.00010000                7.75682482                2.85421117              -22.16295789               -0.07859305               12.99249780             -118.20754977
              34.09068514              -11.14747571               69.02878252                0.51844922                8.92142563                3.34960977              -25.74177027                0.10588387                6.90316267             -142.34100979
              26.08185803               12.92576151               75.37878293                0.54913388               -0.64666618               -1.37467626                3.72675782               -0.10727275                0.12241241               10.79503183
              27.07539137               10.69152697               74.37021497                0.00010000               -0.64229291                0.07584616                0.58583494               -3.23553624               25.28467365               -9.37935338
              28.06901218                8.39032789               73.86504477                0.00010000               -0.28286522                0.73886863               -1.66699796               -6.43947299               49.89818812              -17.30792680
              29.06973407                6.07944282               73.34474287                0.00010000                0.50027713                1.10393182               -4.03261211               -6.88359804               48.23663770              -25.65202313
              30.07901772                3.76016939               72.80104573                0.00010000                1.38227229                1.44486738               -6.58289990               -7.17451572               45.71371740              -34.79738859
              31.09737951                1.43544251               72.22444944                0.00010000                2.31664549                1.89966324               -9.36723216               -7.01755588               42.17931660              -45.15998980
              32.12535063               -0.89022701               71.60429063                0.00010000                3.36299747                2.47163164              -12.44181559               -6.19661844               37.49576234              -57.17160943
              33.16463946               -3.21137996               70.92882126                0.00010000                4.67797449                3.09127624              -15.89411198               -4.62687880               31.37026239              -71.38899282
              34.21891012               -5.52266039               70.18223085                0.00010000                6.36013195                3.55735384              -19.65643061               -2.60003144               23.21147213              -88.68270947
              35.29184210               -7.82246425               69.34248189                0.00010000                8.15919702                3.61916122              -23.41346441               -1.00739789               12.53795006             -108.71240516
              36.38209406              -10.11401941               68.38601948                0.52003340                9.02519563                4.06827692              -26.69694958               -0.41279373                6.33619529             -129.68028233
              28.30780442               13.91306672               75.16385824                0.54678935               -0.42711475               -1.17051422                3.16617747               -0.10584997                0.13951647               10.94899717
              29.30353327               11.69338583               74.05463624                0.00010000               -0.15046914                0.30178318               -0.30361286               -3.53637264               31.64359997               -9.18256022
              30.30479503                9.40072119               73.57561863                0.00010000                0.41168894                1.26509091               -2.73288821               -6.94929225               62.48092160              -15.97133030
              31.31176705                7.09493583               73.07787636                0.00010000                1.09462141                1.84872104               -5.26877328               -7.29744256               60.34617053              -23.21796163
              32.32668746                4.77980388               72.54921447                0.00010000                1.95852458                2.31355351               -8.00712570               -7.29708480               56.96311338              -31.27980922
              33.35093754                2.45983171               71.97616060                0.00010000                2.95155151                2.83070501              -11.00750822               -6.85216618               52.14707985              -40.53569163
              34.38571849                0.13984035               71.34373429                0.00010000                4.09455894                3.43720029              -14.30916045               -5.91796291               45.67569783              -51.41392894
              35.43282872               -2.17552272               70.63491969                0.00010000                5.44569104                4.06303072              -17.90316826               -4.55230573               37.27100546              -64.41629531
              36.49463231               -4.48262022               69.83029383                0.00010000                6.99266134                4.58345172              -21.68436464               -2.98690124               26.68545674              -79.92307190
              37.57268194               -6.77977130               68.90924241                0.00171215                8.54536357                5.00973743              -25.42348008               -1.48744221               14.00444096              -97.92695567
              38.66553958               -9.06611017               67.85482571                0.52132192                9.28576394                5.59631875              -28.84293873               -0.65018658                6.98816494             -117.99400289
              30.51910282               14.90235122               74.95014119                0.54476310               -0.20933729               -0.97512289                2.61205416               -0.10368363                0.15049457               10.99468317
              31.51700944               12.69756263               73.74035196                0.00010000                0.46867538                0.53804717               -1.19512780               -3.74256796               38.65831262               -9.11237427
              32.52847633               10.41562970               73.30080535                0.00010000                1.38465420                1.64247696               -3.73904973               -7.28511922               76.36976919              -14.36560482
              33.54470253                8.11641724               72.83865713                0.00010000                1.98519108                2.29323972               -6.38257243               -7.57738949               73.74898668              -20.13257264
              34.56818015                5.80644046               72.33800421                0.00010000                2.77985941                2.83333476               -9.24512722               -7.32154556               69.52161536              -26.74734613
              35.60029972                3.49205661               71.78171329                0.00010000                3.70828235                3.45648814              -12.39801144               -6.61757991               63.47687497              -34.53558729
              36.64234579                1.17851699               71.15085874                0.00010000                4.78771036                4.18965001              -15.87277014               -5.59463199               55.35040508              -43.85882096
              37.69605392               -1.13011934               70.42421629                0.00010000                6.05374387                4.96703680              -19.64653493               -4.35221632               44.86299572              -55.14922658
              38.76342067               -3.43099136               69.57861869                0.00010000                7.47646412                5.72092094              -23.61339007               -2.99823537               31.86880391              -68.87192115
              39.84558321               -5.72226950               68.59128687                0.00440105                8.91737044                6.44041157              -27.56638805               -1.57932817               16.61316099              -85.42103540
              40.94176808               -8.00209303               67.44467779                0.52309305                9.61848736                7.14266952              -31.20572570               -0.69154546                8.27296673             -105.00076106
              32.71530792               15.89356426               74.73639873                0.54244904                0.00955019               -0.78415331                2.05580655               -0.10638452                0.16596271               10.91693784
              33.71540343               13.70414677               73.42619993                0.00010000                1.24650569                0.78345546               -2.09304066               -3.94378186               46.54731243               -9.15191274
              34.74023804               11.43357073               73.04367404                0.00010000                2.70025393                1.82400197               -4.66989090               -7.50682499               91.97645856              -12.43914858
              35.76940851                9.14080063               72.63404741                0.00010000                3.21895692                2.36201855               -7.34029507               -7.63754920               88.82395291              -16.34983291
              36.80461718                6.83647057               72.17788398                0.00010000                3.85504477                2.95721909              -10.24974696               -6.98425689               83.75238627              -21.23412127
              37.84650940                4.52896147               71.65509634                0.00010000                4.56923147                3.76857695              -13.48533752               -6.01070388               76.56215279              -27.25626689
              38.89600181                2.22363335               71.04370418                0.00010000                5.43916719                4.71116055              -17.08582664               -4.92016940               66.91982825              -34.65279988
              39.95529274               -0.07618198               70.31837705                0.00010000                6.54079797                5.71603725              -21.03392622               -3.77697776               54.41805933              -43.83657658
              41.02681777               -2.36820181               69.45051325                0.00010000                7.84521558                6.72644059              -25.22931364               -2.59483696               38.79543896              -55.44941034
              42.11219706               -4.65096307               68.41115810                0.00689703                9.22689860                7.69227529              -29.45424858               -1.35602414               20.28087798              -70.38748197
              43.21135574               -6.92325678               67.17730478                0.52430572                9.91586815                8.50957650              -33.32761738               -0.59469996               10.13158238              -89.45545815
              34.89581011               16.88666816               74.52130800                0.54054828                0.23172282               -0.59193581                1.49143806               -0.11209936                0.21923271               10.84627804
              35.89812734               14.71323174               73.11114762                0.00010000                2.29379304                1.03487857               -3.00205242               -4.27303175               55.57555347               -9.43351368
              36.94168597               12.45210974               72.80811132                0.00010000                4.54621823                1.55978790               -5.50283890               -7.67888809              109.75279762               -9.87964410
              37.98905170               10.16365761               72.47191881                0.00010000                4.93240982                1.82707347               -8.09898367               -7.03875208              105.89732117              -11.71978670
              39.04033417                7.86558484               72.07906470                0.00010000                5.19355802                2.70857615              -10.96601075               -5.87636467               99.91278351              -14.80247646
              40.09292286                5.56742815               71.60908772                0.00010000                5.43758456                3.80379187              -14.20320873               -4.73391952               91.71684883              -18.86426298
              41.14908586                3.27274021               71.03859943                0.00010000                5.97133324                4.99844366              -17.85952848               -3.72772622               80.79988032              -24.00983381
              42.21234953                0.98420140               70.33842141                0.00010000                6.86095790                6.23162592              -21.92968003               -2.77890322               66.45186525              -30.58930503
              43.28630502               -1.29646255               69.47267501                0.00010000                8.05840873                7.46242758              -26.32195490               -1.84537949               47.99001521              -39.30565469
              44.37351770               -3.56842400               68.40045855                0.00949921                9.40782510                8.63156099              -30.80448810               -0.91542257               25.35917581              -51.61511189
              45.47446152               -5.83190150               67.08634923                0.52561915               10.09438157                9.60135917              -34.88389411               -0.40929137               12.78993175              -69.79965968
              37.05993877               17.88172554               74.30624927                0.53840698                0.45624355               -0.38643510                0.92104073               -0.12079112               -0.20790514                9.43899345
              38.06450120               15.72484434               72.79137541                0.00010000                3.81478184                1.27960330               -3.93444424               -5.04338734               66.14786292               -8.61998404
              39.13623441               13.46476649               72.60356914                0.00010000                7.53285829               -0.16662925               -6.19354908               -6.23420318              130.40240994               -5.67254094
              40.21515837               11.17734210               72.36238014                0.00010000                7.35424690                0.94417384               -8.60310393               -4.82041142              124.98545962               -6.18706347
              41.28331934                8.89064210               72.05081662                0.00010000                6.47586362                2.27912562              -11.33283269               -3.46680150              118.03607911               -7.61189143
              42.34467564                6.60503731               71.65430875                0.00010000                6.06773438                3.68733964              -14.47789411               -2.65213268              109.16489757               -9.63825328
              43.40467403                4.32360223               71.14929036                0.00010000                6.21208956                5.09747701              -18.09668820               -2.01370655               97.42679239              -12.27656070
              44.46891743                2.04845054               70.50376494                0.00010000                6.89307728                6.49536530              -22.19737880               -1.45288040               81.77547234              -15.73357287
              45.54253558               -0.21895325               69.67516662                0.00010000                8.02050645                7.86385481              -26.70211019               -0.91499908               60.77954459              -20.49736393
              46.62932756               -2.47833185               68.60523426                0.01199719                9.37946747                9.16078673              -31.38012767               -0.41285347               32.94774317              -27.74596996
              47.73012493               -4.73122960               67.22371812                0.52709541               10.07973633               10.29688905              -35.59890485               -0.23309808               16.85805664              -41.98587276
              39.20715669               18.87893945               74.06302644                0.76834001                0.70619526               -0.27860904                0.24439714                0.71022763                4.28305895                8.03715412
              40.21421864               16.73882381               72.49259570                0.49015275                7.86737299                1.39794652               -4.80356106               -6.53637069               80.91157157               -7.57260163
              41.36450415               14.44877716               72.45462271                0.45087365               12.62746101               -1.59893308               -6.65085148               -4.98716123              153.21113222               -3.12997163
              42.46676786               12.18254109               72.31463287                0.44182205                8.93993863                0.51989935               -8.79447196               -1.71954093              145.21284132               -3.31474501
              43.54330292                9.91116735               72.10000073                0.43869150                7.00761079                2.05252523              -11.28927820               -1.06994907              138.00118839               -3.98011314
              44.60692008                7.64117495               71.79776961                0.44094238                6.10477858                3.61376386              -14.23671639               -0.59943636              129.00519495               -5.00556902
              45.66539850                5.37468975               71.38492034                0.44847820                5.94636586                5.10875207              -17.70546670               -0.28086526              117.14130485               -6.37092023
              46.72584740                3.11410871               70.82851498                0.46143900                6.46944595                6.56581731              -21.71864978               -0.00076342              101.17239652               -8.18811222
              47.79478742                0.86081455               70.08299894                0.48071947                7.58447898                7.97678027              -26.21314810                0.25933526               79.35416793              -10.75751711
              48.87753698               -1.38520826               69.08341853                0.50691501                9.04038245                9.31235828              -30.97554782                0.48202788               47.45099203              -14.71910421
              49.97559506               -3.62596372               67.70263586                0.76399038                9.80580866               10.52658758              -35.24032965                0.47146770               27.85435571              -25.61024313
              17.64942914                9.32474302               77.34917407                0.79576924               -1.64011385               -1.82940717                6.22319910               -0.47503805               -5.68467508                6.18354971
              18.63302800                6.93556007               76.66933934                0.53500980               -1.64924564               -1.06206774                4.19587050               -0.58350222               -7.95026024               -4.76674446
              19.61644423                4.53678580               75.94443450                0.47880906               -1.48055103               -0.57737189                2.08546203               -0.49208428               -8.22275413               -0.33754873
              20.60341698                2.11937115               75.25988614                0.45414455               -0.95921713                0.01057085                0.06608624               -0.43144862               -5.72907085               -0.44454429
              21.59725988               -0.31601068               74.58524027                0.44129311               -0.16767020                0.59830618               -2.01217199               -0.37105033               -4.83737186               -0.26495553
              22.60006358               -2.76421165               73.91856834                0.44065919                0.77876639                1.19764746               -4.13934461               -0.32900108               -4.31965836               -0.09174848
              23.61283521               -5.21742949               73.25422770                0.45160300                1.75566097                1.79570403               -6.29231713               -0.31304895               -4.43086168                0.07661002
              24.63517680               -7.66787831               72.58530036                0.47475570                2.63946948                2.38099714               -8.43993874               -0.31348343               -5.21153590                0.25648446
              25.66562460              -10.11024830               71.90533248                0.51028726                3.36039525                2.95436383              -10.55465012               -0.31616569               -6.82514830                0.32844470
              26.70238470              -12.54261078               71.20400655                0.55947202                3.93257584                3.51681671              -12.65482407               -0.31751076               -7.31902817                1.16359222
              27.74427612              -14.96647550               70.51383106                0.79984022                4.18914174                4.13536270              -14.72522725               -0.64816433               -6.73952260               -4.66483837
              20.03386171               10.30644895               77.07677303                0.56852059               -1.26901245               -1.89550009                5.43160766               -0.29038354                4.33230609                9.27608719
              21.02117159                7.92493939               76.39229495                0.03054122               -0.71219357               -0.76031821                3.42579583               -0.64876915                9.77723521               -8.85123690
              22.01961784                5.53101208               75.81686145                0.00010000                0.21645709               -1.18633923                1.80519529               -1.90193848               15.01869439              -10.60696536
              23.02550073                3.11947686               75.23682927                0.00010000                0.78614684               -1.04528476                0.07030371               -2.97243180               15.43638838              -15.14050130
              24.03534078                0.68997238               74.66964592                0.00010000                1.09911205               -0.64577724               -1.71583333               -3.75325387               16.46541712              -20.55165967
              25.04748297               -1.75223518               74.11031617                0.00010000                1.30986351               -0.10169884               -3.54284590               -4.07136094               16.96650585              -26.78030536
              26.06153805               -4.19947245               73.55323977                0.00010000                1.54841943                0.48094084               -5.40334052               -3.89411548               16.86639478              -33.82361189
              27.07845136               -6.64406834               72.99180279                0.00010000                1.91455648                1.02779066               -7.24538915               -3.29243543               16.06790575              -41.65462624
              28.09982918               -9.08070466               72.41843238                0.00010000                2.44359176                1.52946816               -9.05371842               -2.38431696               14.81768922              -50.14319999
              29.12732320              -11.50744262               71.83151677                0.05291719                3.09150077                2.45062053              -10.82743703               -0.81099565               11.41137103              -57.98059195
              30.16165920              -13.92512188               71.18932210                0.55555676                3.43359986                3.01050083              -12.68065801                1.66884253                8.69889941              -71.34618477
              22.40664059               11.28683302               76.86645835                0.54494432               -1.11511032               -1.84585967                4.92637870               -0.12462175               -0.02775995               11.50411861
              23.39548949                8.92035370               76.03369505                0.00010000               -1.13863007               -0.34296651                2.39629623               -1.96837760               14.11672694              -11.50530975
              24.38386799                6.51305901               75.48398720                0.00010000               -0.52407245               -1.08308145                0.60114921               -4.79435052               27.64470615              -20.39612898
              25.38500804                4.09846545               74.91985273                0.00010000                0.50194245               -1.31858156               -1.39023803               -6.11617426               26.63356229              -29.64366032
              26.39390684                1.67107378               74.34821706                0.00010000                1.15365773               -1.11943322               -3.45103788               -7.30114343               25.91850498              -40.46035523
              27.40808119               -0.76624563               73.76806567                0.00010000                1.64396112               -0.65967165               -5.61210945               -7.78056185               24.89262302              -52.81278107
              28.42678606               -3.20781068               73.17389788                0.00010000                2.12395476               -0.09070353               -7.91263902               -7.38858952               23.31761096              -66.79874819
              29.45056029               -5.64732250               72.55962066                0.00010000                2.72632379                0.48233849              -10.47692290               -6.15077868               21.31357437              -82.53409579
              30.48131254               -8.07965893               71.92151647                0.00010000                4.00108583                1.10737610              -13.72304220               -3.71790182               20.03029511             -100.07167836
              31.53058201              -10.49359837               71.27542994                0.00010000                6.58494761                1.92918289              -20.56987996               -0.88734342               14.69889732             -120.91916633
              32.61301149              -12.90626549               70.53038393                0.51151886                8.24294838                2.61288372              -25.90668807                1.63907954                9.01298169             -144.08663681
              24.76432792               12.26953176               76.63907505                0.54263669               -0.87498719               -1.61629442                4.32347281               -0.10906757                0.12646027               10.85747327
              25.75557805                9.91808006               75.70341548                0.00010000               -0.93544167               -0.12902015                1.51030587               -2.74235659               19.74672428               -9.93308284
              26.74561908                7.50935045               75.16029615                0.00010000               -0.52077807                0.05152040               -0.62416712               -5.62473517               38.88087945              -19.30515444
              27.74516248                5.09310522               74.60474212                0.00010000                0.42049545                0.08104365               -2.81331096               -6.36094290               37.55548948              -28.78628578
              28.75402899                2.66758372               74.03184108                0.00010000                1.27968532                0.30637680               -5.13017004               -7.04131679               35.73738755              -39.17599352
              29.77075619                0.23457139               73.43625273                0.00010000                2.04070669                0.73044933               -7.59821271               -7.20915425               33.29056307              -50.92304761
              30.79484313               -2.20128653               72.81057954                0.00010000                2.82639261                1.28529490              -10.28226862               -6.62341140               30.07137057              -64.32622253
              31.82728404               -4.63442157               72.14645605                0.00010000                3.84519457                1.90598265              -13.32107074               -5.16222445               26.05107294              -79.75187013
              32.87174702               -7.05855714               71.43588390                0.00010000                5.44494201                2.57166604              -17.09404123               -2.81533153               20.52847400              -97.90453124
              33.93618288               -9.46885896               70.65786541                0.00010000                7.40139990                2.83768747              -21.21502228               -0.71828583               11.84870250             -120.70247034
              35.01977502              -11.87286420               69.77674305                0.51229543                8.35921333                3.53344356              -24.56957711               -0.21038850                6.13599699             -143.91310972
              27.10736264               13.25450713               76.41616071                0.54045391               -0.65389743               -1.39398586                3.74940451               -0.10050939                0.12417502               11.18371972
              28.10082367               10.91777330               75.37622558                0.00010000               -0.55072581                0.07692104                0.61500596               -3.22724782               25.69541813               -9.64370140
              29.09634812                8.51408942               74.84784740                0.00010000               -0.06338754                0.76127174               -1.75119338               -6.40570156               50.65849853              -18.09900910
              30.09955591                6.10008632               74.30361657                0.00010000                0.76331084                1.12631822               -4.16579812               -6.83367929               48.84917023              -26.96280024
              31.11161434                3.67720131               73.73447828                0.00010000                1.66062199                1.45828770               -6.70652464               -7.09460500               46.11150703              -36.63293059
              32.13276835                1.24836336               73.13036829                0.00010000                2.58482262                1.89419156               -9.43033886               -6.92334129               42.31335753              -47.54958828
              33.16331079               -1.18210478               72.48006462                0.00010000                3.59090289                2.43511149              -12.39117527               -6.15347785               37.30919835              -60.13035076
              34.20458641               -3.60920284               71.77104050                0.00010000                4.80662520                3.02167337              -15.65698107               -4.75309521               30.85958710              -74.84750295
              35.25944330               -6.02822561               70.98800613                0.00010000                6.29684727                3.51837912              -19.18753183               -2.95375545               22.55330742              -92.28407428
              36.33052336               -8.43684462               70.11180083                0.00010000                7.86854568                3.79775707              -22.73161233               -1.35582867               12.08319421             -112.25552129
              37.41681421              -10.83559662               69.12300880                0.51359692                8.62908525                4.34550090              -25.91649126               -0.57099796                6.05994465             -133.44846172
              29.43578540               14.24165204               76.19561222                0.53858020               -0.43345965               -1.18299345                3.18358799               -0.09901008                0.14061123               11.35100008
              30.43145080               11.91961848               75.05173171                0.00010000               -0.02966843                0.29880298               -0.27636360               -3.52939463               32.12771164               -9.44682491
              31.43519203                9.52457589               74.54770554                0.00010000                0.69631036                1.26307593               -2.82621954               -6.92526849               63.37724462              -16.71828656
              32.44537701                7.11563159               74.02429866                0.00010000                1.43339164                1.83556852               -5.41567812               -7.26774632               61.07324832              -24.42762968
              33.46385986                4.69674947               73.46834970                0.00010000                2.31092248                2.28239583               -8.13761286               -7.24456273               57.43729577              -32.95826069
              34.49159546                2.27245522               72.86573932                0.00010000                3.27399548                2.77680701              -11.05663667               -6.79152382               52.32038853              -42.70028017
              35.52933977               -0.15258430               72.20109271                0.00010000                4.33737568                3.35995964              -14.21213646               -5.89561484               45.53955646              -54.06964722
              36.57834297               -2.57398810               71.45746732                0.00010000                5.54869585                3.97835965              -17.60028103               -4.62417421               36.88835268              -67.51442609
              37.64031369               -4.98818955               70.61639263                0.00010000                6.90471715                4.54106940              -21.13927972               -3.15449475               26.22231259              -83.38497932
              38.71643731               -7.39290382               69.65926029                0.00010000                8.27726780                5.04232658              -24.65632225               -1.64218525               13.69138982             -101.71318080
              39.80585904               -9.78595419               68.57129827                0.51488753                8.94217300                5.64116970              -27.96585204               -0.73638409                6.82069055             -122.17154640
              31.74944956               15.23084726               75.97631089                0.53671015               -0.21376319               -0.98331595                2.61834643               -0.10236628                0.15165730               11.40085601
              32.74731193               12.92374936               74.72852268                0.00010000                0.61900428                0.53450328               -1.16860371               -3.74715533               39.24954155               -9.38343392
              33.76182965               10.53935094               74.26277323                0.00010000                1.73577362                1.61679604               -3.84163315               -7.28218428               77.46688185              -15.05191416
              34.78202740                8.13679769               73.77385702                0.00010000                2.40349045                2.24149762               -6.54280631               -7.57044616               74.65328230              -21.20847057
              35.80989945                5.72284923               73.24469863                0.00010000                3.21221227                2.75542375               -9.38387164               -7.28839338               70.13024741              -28.21633336
              36.84627165                3.30389950               72.65742701                0.00010000                4.09711815                3.35198765              -12.43732144               -6.56638911               63.73810202              -36.41556364
              37.89184182                0.88509441               71.99280286                0.00010000                5.07182700                4.06029562              -15.73522008               -5.55424638               55.26601518              -46.16456954
              38.94770819               -1.52963565               71.22982943                0.00010000                6.17136493                4.82280646              -19.25929622               -4.35293472               44.50767408              -57.88351964
              40.01526912               -3.93740422               70.34630938                0.00010000                7.38680491                5.57644249              -22.92638814               -3.04495415               31.40914642              -72.02649288
              41.09544428               -6.33599809               69.32121892                0.00010000                8.64590743                6.29178827              -26.59093744               -1.63399824               16.29026311              -88.97975990
              42.18818726               -8.72277322               68.13906587                0.51620755                9.27429806                6.95025581              -30.09411348               -0.74106709                8.12217091             -108.95943996
              34.04793388               16.22198572               75.75697183                0.53489207                0.00701362               -0.79042052                2.05421100               -0.10685355                0.16375316               11.31707318
              35.04800402               13.93030855               74.40535383                0.00010000                1.42830632                0.78149146               -2.07026712               -3.97028471               47.28801207               -9.43282849
              36.07650001               11.55691181               73.99627259                0.00010000                3.12328892                1.77072177               -4.78319457               -7.54018302               93.35884103              -13.04149345
              37.11046980                9.16046154               73.55956957                0.00010000                3.72450921                2.26655872               -7.51738603               -7.65553392               89.98356198              -17.24722518
              38.15099019                6.75185795               73.07443677                0.00010000                4.37763478                2.82963876              -10.40351172               -6.96375801               84.56500442              -22.43491022
              39.19802249                4.33949497               72.51991575                0.00010000                5.03998996                3.61130422              -13.52572443               -5.96074768               76.96410749              -28.78237811
              40.25178999                1.92862162               71.87366541                0.00010000                5.78802110                4.52125954              -16.91949846               -4.86198234               66.90839283              -36.52874238
              41.31378291               -0.47753197               71.11055697                0.00010000                6.69935267                5.49166247              -20.56816483               -3.73250829               54.06794623              -46.08455665
              42.38577705               -2.87666070               70.20292387                0.00010000                7.76717170                6.46578065              -24.39242581               -2.57847939               38.28741843              -58.08394246
              43.46912635               -5.26706805               69.12363068                0.00010000                8.94054598                7.38394491              -28.24645318               -1.36421514               19.90672010              -73.39914004
              44.56458797               -7.64694907               67.85211639                0.51767566                9.54616166                8.12784789              -31.95261857               -0.62948701                9.97012165              -92.82492546
              36.33066684               17.21503885               75.53615794                0.53300940                0.23133075               -0.59570278                1.47633768               -0.11347718                0.22195149               11.23784994
              37.33298015               14.93937919               74.08120758                0.00010000                2.51030741                1.03406659               -2.97880009               -4.33579357               56.52295070               -9.73252614
              38.38087299               12.57476538               73.75229603                0.00010000                5.04952156                1.46704637               -5.63159041               -7.76571964              111.52472471              -10.35935796
              39.43397058               10.18212887               73.38971851                0.00010000                5.53589362                1.67968433               -8.30020346               -7.07487972              107.40593480              -12.38111099
              40.49159086                7.77944200               72.96829848                0.00010000                5.81612211                2.53391096              -11.14660367               -5.86155252              101.00997545              -15.66859571
              41.55029302                5.37612558               72.46661161                0.00010000                6.00191269                3.59810052              -14.26214207               -4.68642009               92.32891155              -19.95878290
              42.61162912                2.97551960               71.86083476                0.00010000                6.40236589                4.75164773              -17.68783689               -3.66661942               80.91505455              -25.35641887
              43.67834034                0.58019760               71.12191078                0.00010000                7.08032451                5.93308886              -21.41326860               -2.72011924               66.14035937              -32.21093792
              44.75323561               -1.80808861               70.21485023                0.00010000                8.00540030                7.10258843              -25.36378758               -1.80475051               47.44537134              -41.22122746
              45.83844835               -4.18831919               69.10068422                0.00010000                9.10619766                8.20342605              -29.38854033               -0.90420657               24.93456705              -53.82521890
              46.93535956               -6.56021627               67.74703148                0.51892441                9.69112128                9.09316340              -33.27615716               -0.43719650               12.61414954              -72.28564713
              38.59698367               18.21007167               75.31533787                0.53074035                0.45779554               -0.38531834                0.89739704               -0.12107186               -0.21612823                9.77622788
              39.60156162               15.95098988               73.75209962                0.00010000                4.07261331                1.27814423               -3.91644787               -5.16413691               67.37803641               -8.90351409
              40.67843594               13.58625273               73.54072475                0.00010000                8.13669747               -0.33511972               -6.34492001               -6.34756935              132.70306178               -5.95298752
              41.76429557               11.19405523               73.27494287                0.00010000                8.06632476                0.75507458               -8.84041326               -4.85487651              126.94098506               -6.54472037
              42.83976243                8.80253617               72.93614149                0.00010000                7.19604585                2.06984293              -11.55684585               -3.45275943              119.50695961               -8.07462446
              43.90821649                6.41145698               72.50884606                0.00010000                6.73115781                3.44556306              -14.57867404               -2.61858049              110.07383035              -10.22138032
              44.97438559                4.02365457               71.96898673                0.00010000                6.73861268                4.80737627              -17.95182978               -1.97079283               97.75020448              -12.99429941
              46.04298874                1.64112980               71.28459388                0.00010000                7.19066198                6.14182400              -21.67319712               -1.40885467               81.57370518              -16.59894522
              47.11819883               -0.73460894               70.41391375                0.00010000                8.00905631                7.43471336              -25.67427942               -0.87794077               60.25034192              -21.51972249
              48.20316987               -3.10299953               69.30065432                0.00154484                9.07196758                8.65155901              -29.80489437               -0.39587646               32.49823229              -28.93273977
              49.29963818               -5.46508580               67.87825304                0.52019190                9.64683072                9.72860093              -33.82721110               -0.25429992               16.67436787              -43.32782053
              40.84640898               19.20733249               75.06529938                0.76469086                0.71073609               -0.27391794                0.21244169                0.70349001                4.43510621                8.32136627
              41.85351634               16.96494207               73.44460640                0.48613258                8.22236350                1.39521957               -4.79376499               -6.76800330               82.59370228               -7.82774223
              43.01085625               14.56806298               73.38700020                0.44983763               13.35366367               -1.81897521               -6.83990354               -5.14355382              156.14525114               -3.25625045
              44.12058962               12.19723036               73.22499382                0.44165389                9.71388326                0.31751331               -9.08575111               -1.73180158              147.69933273               -3.48370262
              45.20513392                9.82083886               72.98541118                0.43886242                7.81066957                1.83026960              -11.57872038               -1.07252711              139.94672714               -4.20073762
              46.27680301                7.44503684               72.65434097                0.44086527                6.87032602                3.35798590              -14.40718358               -0.59993492              130.31780006               -5.28397114
              47.34254044                5.07166713               72.20817435                0.44751782                6.58118726                4.80125575              -17.62395238               -0.28465298              117.77895661               -6.71102589
              48.40842675                2.70303408               71.61388862                0.45974887                6.86328433                6.19042738              -21.23417979               -0.00927270              101.17743530               -8.59207942
              49.47980613                0.34060566               70.82665378                0.47740844                7.62904649                7.52145910              -25.17513989                0.24462538               78.91714703              -11.22294118
              50.56100768               -2.01528801               69.78344900                0.50163747                8.73199884                8.77115172              -29.29628530                0.47128619               47.02861628              -15.24316974
              51.65444610               -4.36564425               68.36138168                0.76052445                9.34384185                9.94415546              -33.34956989                0.44516914               27.69428192              -26.21311699
              18.28178455                9.66370959               78.41164110                0.78986477               -1.65039991               -1.84036940                6.25738279               -0.47989558               -5.83675304                6.32975205
              19.26528055                7.16807308               77.71144932                0.52749263               -1.67183279               -1.06701520                4.21848014               -0.59750108               -8.13610464               -4.90758116
              20.24834789                4.66256913               76.96540748                0.47560175               -1.50586156               -0.58111256                2.10555807               -0.48406671               -8.39840361               -0.29690544
              21.23516332                2.13802674               76.26061980                0.45291136               -0.96771599                0.01134869                0.08249853               -0.42975979               -5.88477336               -0.42873141
              22.22899357               -0.40452101               75.56516047                0.44098628               -0.16755622                0.60132575               -2.00247876               -0.37728000               -5.04650354               -0.26039929
              23.23181219               -2.95984634               74.87714745                0.44060789                0.77909695                1.20539968               -4.13573915               -0.33322526               -4.56990851               -0.09088259
              24.24457551               -5.52017903               74.19119036                0.45058149                1.75349420                1.80910001               -6.29756523               -0.31451441               -4.69502119                0.06607677
              25.26688208               -8.07787628               73.50075591                0.47199482                2.63702037                2.39948905               -8.45208048               -0.31684143               -5.46497200                0.24134330
              26.29731592              -10.62768034               72.79955380                0.50480429                3.36383463                2.97730306              -10.57815463               -0.31828801               -7.07090425                0.30553118
              27.33415877              -13.16771122               72.07709860                0.55002251                3.94436647                3.54758727              -12.69593942               -0.31997119               -7.55738877                1.14748506
              28.37620325              -15.69950351               71.36613016                0.79342115                4.20444786                4.17036059              -14.78124771               -0.63131435               -6.97670396               -4.78472742
              20.77262210               10.64530589               78.13127370                0.55813738               -1.27463402               -1.91357571                5.46099967               -0.29737270                4.51496595                9.57099769
              21.75987576                8.15740292               77.42666701                0.01821409               -0.70458563               -0.75670125                3.44249457               -0.67045934               10.15702330               -9.11807189
              22.75853039                5.65675801               76.83498745                0.00010000                0.22675132               -1.17123484                1.81718675               -1.89669302               15.53229268              -11.04594820
              23.76441079                3.13814023               76.23751151                0.00010000                0.78134596               -0.99553739                0.06347756               -2.94012038               15.86455417              -15.86760972
              24.77415731                0.60149225               75.65237960                0.00010000                1.09490816               -0.58088312               -1.73451536               -3.67841427               16.84601950              -21.57080230
              25.78630895               -1.94779234               75.07464946                0.00010000                1.31440146               -0.02756146               -3.58625470               -3.94440977               17.30648969              -28.11082503
              26.80044534               -4.50208803               74.49882217                0.00010000                1.55776810                0.55590307               -5.46307920               -3.70868804               17.19723626              -35.51755703
              27.81746432               -7.05388139               73.91886989                0.00010000                1.93025839                1.08865761               -7.33210942               -3.02873449               16.41569657              -43.83703676
              28.83905051               -9.59790731               73.32723309                0.00010000                2.47031638                1.54715362               -9.16683083               -2.00075482               15.18725303              -53.11315712
              29.86687064              -12.13223535               72.72236731                0.03907806                3.13159429                2.17153884              -10.97861334               -0.46176639               11.75547140              -63.06275128
              30.90168239              -14.65779991               72.06152672                0.54641920                3.48117507                2.46691108              -12.85261887                1.61766506                8.99795570              -78.10163211
              23.25164303               11.62543807               77.91586019                0.53652444               -1.12237885               -1.86492756                4.94971148               -0.11455053               -0.05705975               11.89613389
              24.24041925                9.15293905               77.05775244                0.00010000               -1.09831541               -0.33631033                2.41732317               -1.98228224               14.43758133              -11.82304809
              25.22967673                6.63914444               76.48965076                0.00010000               -0.43962887               -1.03887403                0.54673516               -4.77810793               28.22002919              -21.27889422
              26.23162667                4.11811599               75.90562959                0.00010000                0.58405642               -1.23862930               -1.44400518               -6.04242667               27.08478047              -31.09139896
              27.24135785                1.58386133               75.31336050                0.00010000                1.24388065               -1.01834047               -3.50896632               -7.16281289               26.27542981              -42.47262428
              28.25650428               -0.96039757               74.71163695                0.00010000                1.75664742               -0.55663968               -5.66051579               -7.56330942               25.12682957              -55.43252709
              29.27649080               -3.50906097               74.09461402                0.00010000                2.28111907               -0.00977167               -7.93026405               -7.10492147               23.35467001              -70.10523919
              30.30212666               -6.05610313               73.45512935                0.00010000                2.95819880                0.50379564              -10.40153475               -5.82453017               20.92048171              -86.68818119
              31.33565478               -8.59673727               72.78617928                0.00010000                4.13446873                0.97798595              -13.33038417               -3.62595276               17.96083537             -105.38005508
              32.38481604              -11.12428045               72.08297009                0.00010000                6.20154413                1.48302667              -18.20149764               -1.13564437               11.73062695             -127.37284714
              33.45968566              -13.65016529               71.29005247                0.50552387                7.48696241                1.97185639              -22.42019029                1.10988559                6.57053959             -151.36317796
              25.71532914               12.60800734               77.68240643                0.53446816               -0.88053857               -1.62696713                4.34007655               -0.10462417                0.13044751               11.22034164
              26.70652375               10.15067672               76.71864353                0.00010000               -0.87689253               -0.13011722                1.53300643               -2.74165043               20.07043513              -10.17925532
              27.69779129                7.63598053               76.15378051                0.00010000               -0.38391948                0.08969361               -0.66725985               -5.60973232               39.48677923              -20.15398250
              28.69884536                5.11336764               75.57613453                0.00010000                0.58116614                0.12571435               -2.89089436               -6.31975830               38.06393529              -30.17489089
              29.70941461                2.58112544               74.98008388                0.00010000                1.45598516                0.35704137               -5.20435672               -6.95772474               36.09452649              -41.10969159
              30.72796507                0.04107487               74.35998206                0.00010000                2.23189318                0.76808590               -7.64020696               -7.09264343               33.45501840              -53.42751681
              31.75405248               -2.50228347               73.70783934                0.00010000                3.03424698                1.28568847              -10.25086597               -6.52543802               29.95402005              -67.43711352
              32.78865001               -5.04380548               73.01411739                0.00010000                4.03281457                1.83809274              -13.13301277               -5.21505477               25.44077416              -83.47362604
              33.83470877               -7.57834759               72.26792991                0.00010000                5.44678853                2.39433306              -16.50422649               -3.26040922               19.40815948             -102.03000530
              34.89758578              -10.10257482               71.45096579                0.00010000                7.04705138                2.76554470              -20.16051566               -1.31639539               10.88457543             -123.83282950
              35.97564980              -12.61836278               70.53739098                0.50613308                7.80640168                3.63107180              -23.29383325               -0.51922863                5.54913228             -146.45373096
              28.16421180               13.59289873               77.45377102                0.53272840               -0.65987517               -1.40353995                3.76322534               -0.10377678                0.12045332               11.57150199
              29.15761305               11.15033671               76.38251509                0.00010000               -0.47103244                0.07377569                0.64136041               -3.22450005               26.05392889               -9.89514793
              30.15479115                8.64093831               75.83002090                0.00010000                0.12367697                0.77245478               -1.80019101               -6.38623677               51.33398358              -18.88956155
              31.16008659                6.12063028               75.26142690                0.00010000                0.98524907                1.13875727               -4.25181154               -6.80968295               49.41938213              -28.26931523
              32.17449614                3.59100216               74.66691524                0.00010000                1.89868654                1.46464372               -6.78591610               -7.05440159               46.50535925              -38.44557408
              33.19806032                1.05496415               74.03584266                0.00010000                2.81831270                1.88462583               -9.45868960               -6.88560670               42.47772784              -49.87675363
              34.23086239               -1.48334720               73.35646713                0.00010000                3.79146849                2.39963207              -12.31862689               -6.17881384               37.19358993              -62.96924800
              35.27388969               -4.01934128               72.61568163                0.00010000                4.91767710                2.96026567              -15.41471135               -4.94287769               30.45551499              -78.12895078
              36.32921593               -6.54885061               71.79848022                0.00010000                6.23068132                3.48622683              -18.72490315               -3.35257251               21.99742340              -95.74518275
              37.39850332               -9.06896955               70.88784965                0.00010000                7.58305409                3.95609086              -22.06953240               -1.73374624               11.67788252             -115.70921363
              38.48087701              -11.57754386               69.86768965                0.50750740                8.23736958                4.63823030              -25.15928965               -0.74604820                5.83595810             -137.15227373
              30.59837765               14.57993654               77.22753000                0.53083833               -0.43834806               -1.19449982                3.19136491               -0.10340197                0.13550349               11.74408185
              31.59399417               12.15215223               76.04910897                0.00010000                0.06976625                0.29675630               -0.24747522               -3.52910190               32.55160998               -9.69818886
              32.59977298                9.65142962               75.51909424                0.00010000                0.92968422                1.25430342               -2.88023401               -6.91604893               64.17526581              -17.45972479
              33.61258786                7.13614279               74.96956280                0.00010000                1.71098646                1.81733150               -5.50870751               -7.26275600               61.75227846              -25.62722584
              34.63399271                4.61041831               74.38646222                0.00010000                2.60072182                2.25122798               -8.21810135               -7.23282187               57.91469593              -34.60703236
              35.66460229                2.07876738               73.75502787                0.00010000                3.53944596                2.73023823              -11.07092045               -6.79059654               52.54625304              -44.79889947
              36.70478163               -0.45429083               73.05949156                0.00010000                4.53467814                3.30000560              -14.10574092               -5.94831273               45.50272667              -56.60815713
              37.75529586               -2.98460017               72.28291407                0.00010000                5.62519824                3.92309451              -17.32541011               -4.77605188               36.63903729              -70.44217492
              38.81728559               -5.50862305               71.40750824                0.00010000                6.81541216                4.53990720              -20.67407484               -3.39273297               25.89328300              -86.62746602
              39.89160410               -8.02345300               70.41611596                0.00010000                8.02959218                5.13672311              -24.02966582               -1.84232315               13.46351781             -105.24948359
              40.97787744              -10.52559817               69.29550867                0.50859300                8.62733355                5.77219473              -27.25933217               -0.83248838                6.71098249             -126.10000055
              33.01771239               15.56900873               77.00250812                0.52901968               -0.21744574               -0.99389342                2.61796245               -0.10162419                0.15229900               11.79703141
              34.01553793               13.15627183               75.71697989                0.00010000                0.73836142                0.53265362               -1.13780142               -3.75578116               39.77470128               -9.64092452
              35.03247962               10.66602438               75.22397269                0.00010000                2.01524236                1.58942203               -3.90088376               -7.29343925               78.45231476              -15.72988341
              36.05584278                8.15697691               74.70780101                0.00010000                2.73677422                2.19259234               -6.64364631               -7.58349794               75.50371732              -22.27076649
              37.08721510                5.63602672               74.15032678                0.00010000                3.55573761                2.68771014               -9.46752181               -7.29148046               70.74873382              -29.65456260
              38.12695753                3.10956892               73.53296686                0.00010000                4.40242912                3.26809634              -12.44153019               -6.57065953               64.07453704              -38.23354106
              39.17526369                0.58265291               72.83615434                0.00010000                5.28716751                3.96587133              -15.59922606               -5.58507445               55.32221260              -48.36327010
              40.23270088               -1.94087939               72.03903036                0.00010000                6.24752100                4.73228494              -18.93240955               -4.43040125               44.34778988              -60.45438053
              41.30021411               -4.45805246               71.12009092                0.00010000                7.29655453                5.51007744              -22.38534031               -3.15744348               31.16151535              -74.95925646
              42.37863197               -6.96623509               70.05946812                0.00010000                8.41517435                6.25209186              -25.86501052               -1.72563292               16.11344046              -92.28269685
              43.46851759               -9.46209996               68.84279552                0.50999134                8.98856193                6.89386404              -29.28379958               -0.79102197                8.05316577             -112.67218138
              35.42181898               16.56005868               76.77748295                0.52734551                0.00439304               -0.79748109                2.04605221               -0.10346335                0.16179672               11.70922065
              36.42186291               14.16280530               75.38479459                0.00010000                1.56900698                0.77817961               -2.03849371               -3.99651419               47.95407017               -9.70013485
              37.45319912               11.68321806               74.94801015                0.00010000                3.45263273                1.72230212               -4.85007063               -7.58103786               94.61502723              -13.63497367
              38.49091556                9.17999463               74.48369969                0.00010000                4.11859887                2.18425947               -7.63006037               -7.68601898               91.08114173              -18.13023115
              39.53557109                6.66417252               73.96981374                0.00010000                4.78236757                2.72407446              -10.49677516               -6.97199268               85.39044925              -23.60769935
              40.58656291                4.14412931               73.38458185                0.00010000                5.39786745                3.48766322              -13.52857373               -5.95693169               77.46105073              -30.25614721
              41.64352844                1.62502660               72.70531421                0.00010000                6.04151460                4.38187993              -16.76087719               -4.86298420               67.07968028              -38.31604204
              42.70739320               -0.88995447               71.90701376                0.00010000                6.79819922                5.34125607              -20.18640218               -3.75038725               53.98077699              -48.19684015
              43.77949243               -3.39842151               70.96266474                0.00010000                7.68728673                6.30877466              -23.75490644               -2.61158979               38.07577250              -60.53373929
              44.86113894               -5.89841116               69.84622904                0.00010000                8.71471556                7.21415363              -27.38375450               -1.39517807               19.74212793              -76.20291937
              45.95378674               -8.38772089               68.53825240                0.51118447                9.26477985                7.91744307              -30.99591194               -0.65435285                9.91956433              -96.00989797
              37.81014987               17.55305911               76.55083476                0.52533044                0.22983911               -0.59750059                1.46100359               -0.10868322                0.22999638               11.62615474
              38.81244826               15.17183542               75.05157161                0.00010000                2.67598307                1.02849664               -2.94762838               -4.38882742               57.38646771              -10.02384596
              39.86366953               12.70047042               74.69547951                0.00010000                5.43598441                1.38922556               -5.71072362               -7.84600207              113.15204834              -10.83134737
              40.92116795               10.20066210               74.30591474                0.00010000                5.99855220                1.55888695               -8.43208740               -7.11582214              108.84029139              -13.02961912
              41.98364057                7.69050821               73.85613263                0.00010000                6.28984342                2.39321979              -11.26042393               -5.86778346              102.11699930              -16.51222640
              43.04696482                5.17932218               73.32384488                0.00010000                6.42236029                3.43755146              -14.27805023               -4.67368023               93.04904004              -21.01458153
              44.11208778                2.67029051               72.68484269                0.00010000                6.70882139                4.56750215              -17.52330841               -3.64872928               81.24858930              -26.63980944
              45.18114124                0.16594573               71.91015604                0.00010000                7.21756122                5.72241298              -20.99299640               -2.70480809               66.15423662              -33.73763061
              46.25643900               -2.33187697               70.96539926                0.00010000                7.94432771                6.86351266              -24.64306987               -1.79541020               47.28033623              -43.00868560
              47.34002780               -4.82195202               69.81268774                0.00010000                8.88054956                7.93298711              -28.39830981               -0.90300785               24.78362622              -55.89593014
              48.43404999               -7.30375110               68.42082608                0.51259676                9.40221971                8.77923378              -32.18517286               -0.44850348               12.58175790              -74.68054165
              40.18209269               18.54810866               76.32419721                0.52317210                0.45823606               -0.38076780                0.87733091               -0.11859745               -0.22432511               10.11687512
              41.18667505               16.18337524               74.71304645                0.00010000                4.26798549                1.27099942               -3.89310759               -5.25812360               68.51374938               -9.18941155
              42.26745240               13.71100258               74.47667074                0.00010000                8.59431418               -0.46845808               -6.44245333               -6.44253206              134.83935933               -6.22977389
              43.35856133               11.21117237               74.18557187                0.00010000                8.60514719                0.60515110               -9.00308213               -4.88950364              128.80296893               -6.89326743
              44.43955534                8.71203691               73.81967971                0.00010000                7.73728369                1.90525059              -11.70695941               -3.45211439              120.97774597               -8.52349918
              45.51330701                6.21288034               73.36273527                0.00010000                7.21874801                3.25917583              -14.62835372               -2.60560901              111.09624897              -10.78257850
              46.58393030                3.71637664               72.79025377                0.00010000                7.10787566                4.59017366              -17.80739508               -1.95221735               98.31985604              -13.67784644
              47.65546452                1.22449379               72.07030099                0.00010000                7.37758361                5.88659501              -21.24519494               -1.38762308               81.75464019              -17.41465494
              48.73148198               -1.26115125               71.16168103                0.00010000                7.97441954                7.13763144              -24.90291415               -0.85571185               60.18658310              -22.47809415
              49.81495291               -3.73975142               70.00913637                0.00010000                8.84664282                8.31454994              -28.71681465               -0.38156801               32.39157930              -30.05069182
              50.90841483               -6.21213622               68.54717390                0.51360291                9.34619202                9.36338795              -32.64210458               -0.26021260               16.67260382              -44.66620851
              42.53724477               19.54544376               76.06727528                0.76112757                0.71470995               -0.26649068                0.18216752                0.69637414                4.58747135                8.61185315
              43.54439187               17.19725541               74.39672040                0.48233170                8.48884877                1.38801769               -4.77644720               -6.94544240               84.17206701               -8.09105942
              44.70702175               14.69110126               74.31782464                0.44887746               13.89758314               -1.99013167               -6.96897263               -5.26757939              158.87945942               -3.37311125
              45.82234354               12.21276512               74.13291784                0.44147736               10.29342847                0.15927483               -9.29572549               -1.74618170              150.06488480               -3.64056857
              46.91289032                9.72861322               73.86842632                0.43875582                8.40846842                1.65763045              -11.78672727               -1.07947350              141.87575104               -4.40703315
              47.99051291                7.24450570               73.50962594                0.44057469                7.42698301                3.16253585              -14.51816273               -0.60537205              131.74324357               -5.54469878
              49.06142998                4.76209398               73.03244129                0.44685233                7.02018862                4.57173371              -17.53400206               -0.29143544              118.68660950               -7.02859439
              50.13091668                2.28367764               72.40383138                0.45804123                7.10699992                5.91838436              -20.83903876               -0.01570034              101.62523056               -8.96861579
              51.20356998               -0.18912434               71.57949614                0.47445653                7.62323617                7.20269114              -24.39609746                0.24186763               79.05451190              -11.66080597
              52.28338140               -2.65566102               70.49749282                0.49659222                8.50226787                8.40904017              -28.13892404                0.47489906               47.06137380              -15.74674124
              53.37361534               -5.11648334               69.03564446                0.75722872                9.02339344                9.56528766              -32.08103010                0.43781826               27.80984068              -26.86362180
              18.93307765               10.01207287               79.47432172                0.78408541               -1.65381152               -1.84230552                6.26984924               -0.48030555               -5.98096652                6.47407424
              19.91653953                7.40697306               78.75370895                0.51967081               -1.68859861               -1.06982320                4.22747090               -0.61337994               -8.31019625               -5.04549751
              20.89930568                4.79168774               77.98654566                0.47253407               -1.52855056               -0.58379098                2.12399819               -0.48664702               -8.55979046               -0.25116609
              21.88596852                2.15701308               77.26153611                0.45179263               -0.97517611                0.01017847                0.10054891               -0.42411812               -6.02712197               -0.41730759
              22.87980215               -0.49565692               76.54519070                0.44116075               -0.16665042                0.60132249               -1.98254959               -0.37021204               -5.24313199               -0.25022897
              23.88263551               -3.16103331               75.83585356                0.44034915                0.77620898                1.20921361               -4.11259091               -0.33226415               -4.80419848               -0.09598824
              24.89532633               -5.83137157               75.12827640                0.44980113                1.74391991                1.81243150               -6.27278852               -0.31870442               -4.94619545                0.05828246
              25.91751391               -8.49927941               74.41625875                0.46917562                2.62687464                2.40968931               -8.43041048               -0.32218712               -5.70713941                0.22175454
              26.94786383              -11.15949624               73.69376939                0.49935792                3.35733255                2.99029647              -10.56334041               -0.32465579               -7.30497323                0.28163258
              27.98466056              -13.81019851               72.95008777                0.54084315                3.94075389                3.56293715              -12.68590470               -0.32550264               -7.78547933                1.12519254
              29.02667890              -16.45296316               72.21820611                0.78735326                4.20183413                4.18863259              -14.77915539               -0.61440472               -7.20602543               -4.89670528
              21.53337441               10.99364982               79.18599303                0.54858846               -1.27761074               -1.92249546                5.47096576               -0.30563721                4.69028425                9.86285469
              22.52059830                8.39627483               78.46114484                0.00633068               -0.69776075               -0.75284201                3.44910860               -0.69444910               10.53682950               -9.37230129
              23.51941919                5.78584983               77.85320518                0.00010000                0.24006850               -1.14998326                1.82212754               -1.90371033               16.04888247              -11.49980362
              24.52539967                3.15711487               77.23809882                0.00010000                0.78520171               -0.94993155                0.05302535               -2.92340689               16.28929933              -16.60185182
              25.53512323                0.51035630               76.63495561                0.00010000                1.08852628               -0.52130349               -1.74787271               -3.62250563               17.21699137              -22.58481615
              26.54717020               -2.14894117               76.03859107                0.00010000                1.30695560                0.04022662               -3.61683416               -3.84374037               17.63073438              -29.41886895
              27.56126234               -4.81324726               75.44397819                0.00010000                1.55920881                0.62194685               -5.49893647               -3.55903100               17.50677980              -37.15993302
              28.57835437               -7.47518252               74.84516060                0.00010000                1.94072393                1.14728964               -7.39475232               -2.82276289               16.74199271              -45.89932477
              29.60007682              -10.12959327               74.23509576                0.00010000                2.48923106                1.57696909               -9.25129748               -1.72809745               15.53575723              -55.78696155
              30.62813899              -12.77456914               73.61194450                0.02507847                3.16113412                2.02723573              -11.08888565               -0.24113854               12.07425101              -66.98564251
              31.66329950              -15.41107683               72.93226973                0.53763018                3.51605066                2.17849217              -12.97918611                1.52816193                9.27678478              -83.10382924
              24.12171489               11.97362297               78.96545258                0.52825380               -1.12643486               -1.88110280                4.95813986               -0.11626184               -0.08658635               12.28531693
              25.11045054                9.39191622               78.08204151                0.00010000               -1.06617305               -0.32712579                2.43319342               -1.99602606               14.72568871              -12.12741922
              26.10039143                6.76868807               77.49492190                0.00010000               -0.37283152               -0.99745837                0.51641204               -4.77286464               28.75731045              -22.18317823
              27.10299391                4.13801445               76.89097263                0.00010000                0.65083252               -1.16523881               -1.47956595               -6.00164594               27.52549824              -32.54323666
              28.11340808                1.49391701               76.27803773                0.00010000                1.31851777               -0.92605758               -3.54579548               -7.06472274               26.62347903              -44.47273068
              29.12936427               -1.16022877               75.65485536                0.00010000                1.84894896               -0.46217451               -5.68466848               -7.39593710               25.36091324              -58.00042543
              30.15038706               -3.81893264               75.01529260                0.00010000                2.40202018                0.06826781               -7.92177396               -6.87894909               23.42063200              -73.30525620
              31.17740467               -6.47633362               74.35158997                0.00010000                3.11507208                0.53680701              -10.29797283               -5.56848180               20.67486576              -90.62334359
              32.21268850               -9.12795686               73.65490879                0.00010000                4.19583387                0.90675451              -12.94594568               -3.51675988               16.81387963             -110.24177550
              33.26132135              -11.76965380               72.91139999                0.00010000                5.87845114                1.20870190              -16.46562818               -1.25810654               10.11479602             -133.10309664
              34.33025752              -14.40939331               72.08198012                0.49971185                6.89361753                1.57504148              -19.73051887                0.75643769                5.32010013             -157.73805762
              26.69446267               12.95602776               78.72587658                0.52653172               -0.88499944               -1.64046780                4.34747011               -0.10111133                0.13080106               11.57994547
              27.68561267               10.38973231               77.73407560                0.00010000               -0.82994992               -0.12556563                1.55374942               -2.74626430               20.36187414              -10.41754518
              28.67786367                7.76590066               77.14695095                0.00010000               -0.27374265                0.11481936               -0.69128468               -5.60988363               40.03561400              -20.99154970
              29.68013782                5.13381009               76.54692423                0.00010000                0.71041658                0.16286538               -2.93805257               -6.30051006               38.53826236              -31.55476832
              30.69207200                2.49183515               75.92775395                0.00010000                1.59816400                0.39972441               -5.24760459               -6.90485306               36.44188066              -43.01552289
              31.71210110               -0.15818466               75.28344859                0.00010000                2.38581004                0.80056246               -7.65343842               -7.01551486               33.63265778              -55.86977403
              32.73978820               -2.81188190               74.60556222                0.00010000                3.19539298                1.28953387              -10.19444795               -6.46525793               29.89433004              -70.43283821
              33.77600896               -5.46444638               73.88379580                0.00010000                4.16368003                1.78775374              -12.93027902               -5.26486654               25.01960047              -87.01985040
              34.82306180               -8.11145818               73.10579937                0.00010000                5.42021804                2.26246290              -15.96235583               -3.57067368               18.61927418             -105.98706244
              35.88441332              -10.75039510               72.25465510                0.00010000                6.74227426                2.67373659              -19.18532853               -1.72837950               10.18322779             -127.47387502
              36.95790729              -13.37957600               71.31086639                0.50044577                7.34939672                3.63167638              -22.11062171               -0.73829788                5.15330849             -149.93503611
              29.25228357               13.94081361               78.49142522                0.52486975               -0.66312121               -1.41155946                3.76434276               -0.09712761                0.11960782               11.95102307
              30.24565236               11.38940491               77.38905279                0.00010000               -0.40837964                0.07287952                0.66609733               -3.22615311               26.37472076              -10.13144110
              31.24411598                8.77098446               76.81184358                0.00010000                0.26984319                0.77644710               -1.82586403               -6.38766479               51.93894991              -19.67031301
              32.25104922                6.14127176               76.21858034                0.00010000                1.15948970                1.14514401               -4.30257990               -6.80780916               49.94810037              -29.55778718
              33.26730577                3.50191150               75.59875996                0.00010000                2.08609003                1.46810686               -6.82979356               -7.04362879               46.89058036              -40.22112520
              34.29277102                0.85578247               74.94119450                0.00010000                3.00189223                1.87688459               -9.45925357               -6.88316887               42.66832770              -52.13340810
              35.32734362               -1.79314196               74.23369208                0.00010000                3.94563000                2.37236252              -12.23189097               -6.23205562               37.14823365              -65.69465042
              36.37168362               -4.44057854               73.46274627                0.00010000                4.99400684                2.91330236              -15.18043338               -5.12337813               30.16750476              -81.26551230
              37.42722375               -7.08270760               72.61350807                0.00010000                6.15939761                3.45543019              -18.29201890               -3.68424347               21.56738487              -99.12207618
              38.49487157               -9.71617906               71.67041019                0.00010000                7.33148055                4.04415713              -21.44956442               -2.03791340               11.34662637             -119.18817623
              39.57385336              -12.33675978               70.61982301                0.50163822                7.89817889                4.82579700              -24.44858175               -0.88877284                5.66905774             -140.92653635
              31.79533752               14.92779657               78.25943952                0.52341382               -0.44187640               -1.19893330                3.18941096               -0.09724538                0.13357241               12.13124410
              32.79091876               12.39118990               77.04678221                0.00010000                0.14529985                0.29201726               -0.21856848               -3.53389707               32.92907571               -9.93474715
              33.79824352                9.78142960               76.49010086                0.00010000                1.10679214                1.24264524               -2.90739999               -6.92690414               64.89094282              -18.18809602
              34.81305460                7.15671297               75.91412451                0.00010000                1.92225948                1.79868576               -5.56290220               -7.27669385               62.38551637              -26.80495025
              35.83668871                4.52119729               75.30398767                0.00010000                2.82182873                2.22474767               -8.26167343               -7.24787168               58.38863466              -36.21429038
              36.86949118                1.87935303               74.64432091                0.00010000                3.74096980                2.69461090              -11.06190227               -6.82340695               52.81281793              -46.82511617
              37.91150811               -0.76443465               73.91897789                0.00010000                4.68079304                3.25741579              -14.00015359               -6.03272047               45.54853693              -59.03610483
              38.96310704               -3.40618033               73.11095911                0.00010000                5.67346747                3.88777953              -17.08448077               -4.94355747               36.50047612              -73.22823086
              40.02497745               -6.04234958               72.20291113                0.00010000                6.73001001                4.54808730              -20.28089629               -3.62468566               25.67128737              -89.71265542
              41.09770724               -8.66951196               71.17866697                0.00010000                7.81579076                5.22069784              -23.50842181               -2.02867761               13.30046916             -108.62416377
              42.18129327              -11.28306006               70.02611162                0.50278265                8.35860327                5.88996015              -26.67435790               -0.91768909                6.64396524             -129.87378797
              34.32355201               15.91683494               78.02867014                0.52150325               -0.22106217               -0.99765361                2.61343766               -0.09851871                0.15302750               12.19027248
              35.32134139               13.39524525               76.70576665                0.00010000                0.82514079                0.52621111               -1.10508852               -3.76790571               40.24395317               -9.88743928
              36.34005482               10.79583737               76.18475556                0.00010000                2.22031368                1.56379531               -3.93056090               -7.31739206               79.34410545              -16.39354850
              37.36574766                8.17724547               75.64098410                0.00010000                2.98267268                2.15151077               -6.70307189               -7.60982422               76.30432209              -23.30985185
              38.39970828                5.54640645               75.05534819                0.00010000                3.80935811                2.63504102               -9.51391848               -7.31712384               71.36954778              -31.05152366
              39.44193482                2.90967469               74.40859641                0.00010000                4.62571440                3.20704867              -12.42775987               -6.60741145               64.46837578              -39.98260132
              40.49222257                0.27200636               73.68081833                0.00010000                5.43962895                3.90235373              -15.47952115               -5.65270288               55.48740243              -50.45777396
              41.55072740               -2.36282295               72.85118124                0.00010000                6.29195517                4.67929367              -18.67133703               -4.54056596               44.33265174              -62.88243363
              42.61806167               -4.99174585               71.89860257                0.00010000                7.21405504                5.48528769              -21.97173255               -3.29211995               31.05919467              -77.71392465
              43.69500850               -7.61176511               70.80391871                0.00010000                8.22670576                6.25829464              -25.32607241               -1.82703618               16.03030184              -95.38599975
              44.78259578              -10.21896058               69.55338988                0.50397730                8.75872819                6.89412313              -28.68728259               -0.83758468                8.03550688             -116.19230830
              36.83654653               16.90784350               77.79789287                0.51988604                0.00116883               -0.79936291                2.03602358               -0.10088564                0.16201257               12.10152683
              37.83655822               14.40171412               76.36458396                0.00010000                1.66744607                0.77025758               -2.00230648               -4.02073160               48.55815275               -9.96135816
              38.86989545               11.81270551               75.89927117                0.00010000                3.68654059                1.68202321               -4.88496637               -7.62274632               95.76550637              -14.21527706
              39.91028903                9.19974319               75.40696837                0.00010000                4.40107796                2.12094120               -7.69911178               -7.72158846               92.12312514              -18.99136210
              40.95791701                6.57389811               74.86450127                0.00010000                5.07270026                2.64625318              -10.55232244               -6.99783787               86.22220971              -24.74339583
              42.01174304                3.94349400               74.24934427                0.00010000                5.65173386                3.40029172              -13.51759829               -5.98283740               78.03231185              -31.66977390
              43.07095169                1.31361242               73.53844786                0.00010000                6.21524444                4.28887519              -16.63194561               -4.90106407               67.39203479              -40.01278016
              44.13604793               -1.31259446               72.70682892                0.00010000                6.85627602                5.24903496              -19.89957934               -3.80575717               54.08509344              -50.18337228
              45.20807721               -3.93264383               71.72782574                0.00010000                7.61666571                6.22336187              -23.29688973               -2.67513250               38.06238327              -62.82502166
              46.28838124               -6.54434607               70.57595559                0.00010000                8.54276559                7.13099880              -26.78591570               -1.44241127               19.70870164              -78.83290737
              47.37893252               -9.14517760               69.23219815                0.50520711                9.05512815                7.81059940              -30.34139291               -0.67704046                9.93537307              -99.03759881
              39.33379305               17.90084769               77.56537801                0.51792105                0.22716935               -0.59374271                1.45063077               -0.10712108                0.23759987               12.01753917
              40.33606475               15.41065040               76.02225501                0.00010000                2.78888907                1.01693682               -2.91467240               -4.42824998               58.18137989              -10.31412054
              41.38957083               12.82947783               75.63808156                0.00010000                5.70292730                1.33033097               -5.75464414               -7.90919284              114.65986559              -11.29178637
              42.45012329               10.21966430               75.22107676                0.00010000                6.32149340                1.47217930               -8.51794338               -7.15446806              110.20933618              -13.66029482
              43.51600070                7.59933151               74.74309000                0.00010000                6.62202333                2.29371905              -11.33514098               -5.88734170              103.23000348              -17.32646828
              44.58256376                4.97768053               74.18105061                0.00010000                6.71445206                3.32651763              -14.28200454               -4.68616388               93.85687413              -22.02406498
              45.65028974                2.35778386               73.51036859                0.00010000                6.91523741                4.44433107              -17.39749758               -3.66287416               81.75372549              -27.85462107
              46.72086851               -0.25784225               72.70205085                0.00010000                7.30104427                5.58779098              -20.68982939               -2.72280601               66.40739928              -35.17022853
              47.79631063               -2.86727862               71.72198883                0.00010000                7.89127702                6.71880631              -24.14457170               -1.81424921               47.36963389              -44.67949827
              48.87869405               -5.46914513               70.53271802                0.00010000                8.72037044                7.77638109              -27.74090645               -0.91713157               24.80361200              -57.84606438
              49.97071804               -8.06274859               69.10332802                0.50610493                9.20239900                8.59746248              -31.47301093               -0.45621199               12.63373821              -76.98858105
              41.81479868               18.89596865               77.33288449                0.51644608                0.45643998               -0.37171346                0.85981079               -0.11782333               -0.24184381               10.45137253
              42.81936308               16.42205286               75.67423747                0.00010000                4.39495125                1.25612949               -3.85843808               -5.31564717               69.56873499               -9.46943524
              43.90269770               13.83931213               75.41187568                0.00010000                8.89914564               -0.55924317               -6.50158542               -6.50944612              136.83640394               -6.49960399
              44.99734599               11.22918677               75.09488122                0.00010000                8.97281245                0.50313765               -9.11643978               -4.91886513              130.58258837               -7.23083784
              46.08215395                8.61977249               74.70200230                0.00010000                8.11107113                1.79367276              -11.81523639               -3.46111373              122.44762676               -8.95477664
              47.15956741                6.01002436               74.21627899                0.00010000                7.55315177                3.13405034              -14.66540824               -2.60921458              112.21352895              -11.31681804
              48.23321699                3.40249904               73.61283883                0.00010000                7.35434356                4.44681634              -17.70602381               -1.95427753               99.08689323              -14.32226435
              49.30665428                0.79916136               72.85968998                0.00010000                7.49390600                5.72216176              -20.94858279               -1.38793685               82.22148004              -18.17774194
              50.38309511               -1.79826770               71.91585546                0.00010000                7.94271523                6.95189638              -24.38565625               -0.85277560               60.43746467              -23.37347152
              51.46550859               -4.38881844               70.72631802                0.00010000                8.69600498                8.11047005              -28.01877437               -0.37839269               32.50149343              -31.10802257
              52.55701521               -6.97322835               69.22541095                0.50737352                9.15066182                9.14453935              -31.89528246               -0.25991041               16.77946305              -45.98794858
              44.27926816               19.89341342               77.06894273                0.75782387                0.71401589               -0.25552317                0.15508155                0.68290615                4.73025542                8.88563180
              45.28640832               17.43577299               75.34907746                0.47846779                8.64899184                1.37201326               -4.73626877               -7.05149802               85.64730145               -8.34256777
              46.45224800               14.81829297               75.24762074                0.44810304               14.24386542               -2.10191626               -7.05483994               -5.34726735              161.43728469               -3.48242333
              47.57128563               12.22972705               75.03907931                0.44132469               10.68464220                0.05402789               -9.45120010               -1.76043593              152.32188271               -3.78707579
              48.66594084                9.63520497               74.74967663                0.43868019                8.81836409                1.54324787              -11.94841323               -1.08958667              143.78775358               -4.59962444
              49.74765291                7.04036153               74.36397772                0.44053821                7.80631710                3.03371769              -14.61394938               -0.61568908              133.26213545               -5.78771625
              50.82206719                4.44672019               73.85749431                0.44615225                7.31118016                4.42211431              -17.48850644               -0.30300766              119.81121156               -7.32374265
              51.89387652                1.85660098               73.19710785                0.45629905                7.25838699                5.74396189              -20.58474091               -0.02582063              102.40610218               -9.31882994
              52.96723493               -0.72824069               72.33873183                0.47126055                7.61051633                7.00270124              -23.89581521                0.23714615               79.58280400              -12.07271338
              54.04608684               -3.30693573               71.22067052                0.49178446                8.35523559                8.18827134              -27.42502447                0.47696941               47.38619324              -16.23629953
              55.13433964               -5.87985781               69.71976108                0.75413146                8.82527954                9.33705416              -31.31106956                0.44023550               28.09534996              -27.54791616
              19.60339077               10.36984846               80.53703809                0.77851188               -1.65380903               -1.84163328                6.26260070               -0.48237533               -6.11957838                6.60925601
              20.58685268                7.65229133               79.79599874                0.51325780               -1.70329272               -1.06669992                4.21917073               -0.62633276               -8.46872727               -5.17865527
              21.56932492                4.92422678               79.00788744                0.46967814               -1.54384172               -0.58410742                2.13467399               -0.46389397               -8.70165199               -0.20552055
              22.55597585                2.17655516               78.26263077                0.45068185               -0.97557179                0.01115094                0.12018214               -0.41706022               -6.15558070               -0.40475006
              23.54981348               -0.58905542               77.52550948                0.44087979               -0.16666628                0.60043152               -1.95083218               -0.37067385               -5.42098831               -0.23936644
              24.55264252               -3.36724113               76.79489564                0.44003577                0.77164668                1.20696143               -4.07495006               -0.34222307               -5.02459407               -0.10356845
              25.56524641               -6.15041697               76.06573459                0.44895654                1.73018869                1.81140709               -6.22398875               -0.32368862               -5.18427351                0.04997690
              26.58724629               -8.93124489               75.33214770                0.46676695                2.60705112                2.40457839               -8.36967989               -0.32014239               -5.93888122                0.19845455
              27.61738744              -11.70470043               74.58828699                0.49415250                3.33830864                2.99144931              -10.50502057               -0.32436586               -7.52928411                0.25675746
              28.65401247              -14.46892084               73.82338050                0.53216076                3.92293111                3.56604137              -12.62598352               -0.32629873               -8.00276999                1.10154027
              29.69584606              -17.22556486               73.07054706                0.78146119                4.18335915                4.19143515              -14.71597179               -0.59224464               -7.42751213               -5.00147502
              22.31612415               11.35143213               80.24069301                0.53893902               -1.27239572               -1.92938024                5.46202574               -0.31364706                4.86724837               10.14837060
              23.30340020                8.64162433               79.49564918                0.00010000               -0.67850472               -0.74157120                3.44415463               -0.72177055               10.91469964               -9.61775383
              24.30255406                5.91838570               78.87143000                0.00010000                0.25230739               -1.12458373                1.81239866               -1.91953781               16.55183857              -11.95323489
              25.30844635                3.17666667               78.23857202                0.00010000                0.77254138               -0.90646558                0.04298687               -2.91959292               16.70290381              -17.32863783
              26.31800489                0.41694889               77.61742214                0.00010000                1.07273597               -0.46680964               -1.76108688               -3.58534781               17.57494557              -23.58567503
              27.32990106               -2.35517151               77.00231277                0.00010000                1.30032619                0.09887697               -3.62932716               -3.77133196               17.94877963              -30.69857118
              28.34401141               -5.13230290               76.38884344                0.00010000                1.56427676                0.68334252               -5.52983034               -3.45525910               17.80226661              -38.74230358
              29.36118660               -7.90719911               75.77097484                0.00010000                1.94851703                1.20198457               -7.42374136               -2.68607670               17.03422078              -47.83936994
              30.38298175              -10.67478594               75.14220714                0.00010000                2.49975485                1.62120222               -9.30476000               -1.56632024               15.85525059              -58.19283963
              31.41118170              -13.43326043               74.50058960                0.01245962                3.17929410                1.99339317              -11.15929011               -0.14182113               12.37306639              -70.11117352
              32.44656763              -16.18365051               73.80194299                0.52892708                3.53859374                2.10208784              -13.05630384                1.41505868                9.53676078              -86.90391152
              25.01673344               12.33126086               80.01502299                0.52058886               -1.12697368               -1.88992620                4.94876285               -0.10894787               -0.11788491               12.67131268
              26.00546370                9.63745990               79.10641631                0.00010000               -1.04208090               -0.31548956                2.43896360               -2.01195465               14.99220300              -12.41493722
              26.99589182                6.90173510               78.49997901                0.00010000               -0.32214495               -0.95789236                0.50028655               -4.79665864               29.26611456              -23.08782240
              27.99902080                4.15842585               77.87603827                0.00010000                0.70264460               -1.10010531               -1.50096076               -5.98827236               27.95166829              -33.98029518
              29.00994471                1.40160838               77.24244459                0.00010000                1.37234370               -0.84280668               -3.56390542               -6.99832278               26.96415719              -46.44346658
              30.02646767               -1.36526359               76.59794358                0.00010000                1.91120596               -0.37441237               -5.68987904               -7.27248068               25.59761759              -60.50482418
              31.04816883               -4.13675012               75.93617854                0.00010000                2.47700609                0.14815948               -7.89191668               -6.71805793               23.52355626              -76.38660721
              32.07600780               -6.90720520               75.24916989                0.00010000                3.19767603                0.59201593              -10.18980996               -5.39539988               20.57636859              -94.34504797
              33.11212235               -9.67227639               74.52726036                0.00010000                4.20164116                0.90489052              -12.62768785               -3.42972881               16.29719784             -114.71454246
              34.16004062              -12.42905298               73.75365753                0.00010000                5.64025250                1.10989577              -15.37908027               -1.31225525                9.40761062             -138.27945431
              35.22492740              -15.18352311               72.89544210                0.49438008                6.48867804                1.43720618              -18.06156231                0.53927461                4.84270157             -163.48521039
              27.70154711               13.31363361               79.76935583                0.51877428               -0.88602465               -1.64523025                4.33965173               -0.10113753                0.12969605               11.93690172
              28.69268686               10.63531454               78.74971852                0.00010000               -0.79460837               -0.12293108                1.56995843               -2.75901705               20.62351696              -10.64034886
              29.68565494                7.89922786               78.13995482                0.00010000               -0.19396221                0.13235186               -0.70276965               -5.62495952               40.53461038              -21.81411180
              30.68880762                5.15466457               77.51737348                0.00010000                0.80364650                0.19242071               -2.96244486               -6.30118401               38.98165249              -32.91288734
              31.70172787                2.40009276               76.87513179                0.00010000                1.70011691                0.43687734               -5.26640742               -6.87877277               36.77869723              -44.88123915
              32.72280996               -0.36265976               76.20691329                0.00010000                2.49319980                0.83436263               -7.64487111               -6.97026973               33.82609275              -58.24224485
              33.75159187               -3.12933971               75.50395038                0.00010000                3.29974549                1.30471158              -10.12498381               -6.42962837               29.89945634              -73.31729696
              34.78880487               -5.89535879               74.75551181                0.00010000                4.23215420                1.76951823              -12.73769454               -5.29662062               24.77762496              -90.41404055
              35.83623495               -8.65668813               73.94868279                0.00010000                5.36892232                2.19362462              -15.51854803               -3.74631775               18.14311396             -109.81533691
              36.89618331              -11.41106251               73.06725922                0.00010000                6.50292156                2.61540145              -18.41318975               -1.95689870                9.74870608             -131.42548567
              37.96629338              -14.15490639               72.09517855                0.49502209                7.01100704                3.61016455              -21.17248930               -0.85913149                4.93079309             -154.06323712
              30.37134883               14.29835626               79.52905787                0.51732811               -0.66597151               -1.41585506                3.75860478               -0.09466652                0.11785197               12.33252844
              31.36468911               11.63500128               78.39583703                0.00010000               -0.36531129                0.07144441                0.68945746               -3.23733186               26.66070563              -10.36081059
              32.36404260                8.90438214               77.79350362                0.00010000                0.37215539                0.77639330               -1.83557971               -6.40662110               52.48357775              -20.43520483
              33.37213222                6.16227427               77.17537531                0.00010000                1.28254906                1.14877310               -4.32780491               -6.82162248               50.43835867              -30.81994288
              34.38969358                3.41034593               76.53031937                0.00010000                2.21812653                1.47257567               -6.84776355               -7.05047391               47.26490647              -41.95197827
              35.41649475                0.65142366               75.84665759                0.00010000                3.12908557                1.87614562               -9.44184731               -6.89716723               42.88150388              -54.31849151
              36.45227529               -2.11065589               75.11182931                0.00010000                4.04645246                2.36002692              -12.14315560               -6.28581007               37.17014184              -68.31900405
              37.49742380               -4.87181484               74.31207297                0.00010000                5.03122116                2.88795219              -14.97226195               -5.25903612               29.99771308              -84.28919518
              38.55289972               -7.62840389               73.43263984                0.00010000                6.08485542                3.43587310              -17.92011042               -3.90807892               21.27932196             -102.45045884
              39.61912091              -10.37674495               72.45885836                0.00010000                7.12664026                4.08088559              -20.91644533               -2.23431211               11.11383822             -122.74270727
              40.69543252              -13.11131981               71.37871802                0.49594420                7.63116142                4.91327907              -23.83504691               -0.97878384                5.56428809             -144.83526601
              33.02636372               15.28531651               79.29131822                0.51614343               -0.44493826               -1.19977124                3.18073552               -0.09575329                0.12942154               12.51956462
              34.02191434               12.63674343               78.04473760                0.00010000                0.19429071                0.28600062               -0.18921029               -3.54591594               33.26643253              -10.16346379
              35.03024954                9.91475572               77.46094624                0.00010000                1.22485190                1.23004794               -2.91639783               -6.95008585               65.53666814              -18.89972741
              36.04641138                7.17764003               76.85830475                0.00010000                2.06597284                1.78308732               -5.59020195               -7.30035408               62.97541188              -27.95476166
              37.07156899                4.42954427               76.22122875                0.00010000                2.97285265                2.20683595               -8.28098196               -7.27383567               58.85325832              -37.77541168
              38.10586843                1.67486315               75.53378982                0.00010000                3.87725871                2.67349338              -11.04203367               -6.86616430               53.10792872              -48.78072870
              39.14911417               -1.08213917               74.77948849                0.00010000                4.77518572                3.23416748              -13.90726011               -6.11556416               45.66065638              -61.36814551
              40.20137215               -3.83759975               73.94122445                0.00010000                5.69446580                3.87084838              -16.88750749               -5.08428054               36.45573375              -75.90563075
              41.26300348               -6.58797066               73.00189031                0.00010000                6.65204230                4.55791607              -19.96426608               -3.80421225               25.54392079              -92.69843129
              42.33441299               -9.32944480               71.94594752                0.00010000                7.64319769                5.27506239              -23.08792314               -2.16701745               13.19685075             -111.92167773
              43.41586744              -12.05664081               70.76202152                0.49718791                8.14544459                5.96435783              -26.20029800               -0.97695731                6.61267564             -133.58587774
              35.66657992               16.27436083               79.05477688                0.51448987               -0.22483445               -0.99675834                2.60757435               -0.09828700                0.15188487               12.57979794
              36.66433158               13.64072130               77.69487812                0.00010000                0.87821800                0.51731776               -1.07276534               -3.78222073               40.66721314              -10.12355911
              37.68414428               10.92898310               77.14536147                0.00010000                2.35025055                1.54154009               -3.94041903               -7.34549937               80.15635392              -17.04138047
              38.71133659                8.19793601               76.57373957                0.00010000                3.14247311                2.12173493               -6.73551710               -7.63819283               77.05707661              -24.32169126
              39.74699374                5.45448265               75.96004841                0.00010000                3.97591597                2.60092601               -9.53903574               -7.34860450               71.98325742              -32.40427885
              40.79085491                2.70489353               75.28441166                0.00010000                4.77165824                3.17082421              -12.41168049               -6.65305340               64.89889642              -41.66487953
              41.84242691               -0.04597254               74.52656392                0.00010000                5.53573856                3.86799565              -15.38904870               -5.72605416               55.72936222              -52.46061974
              42.90156968               -2.79439787               73.66560362                0.00010000                6.31168075                4.65541087              -18.48105082               -4.64639908               44.41987080              -65.19670709
              43.96866052               -5.53724557               72.68065627                0.00010000                7.14405104                5.48312323              -21.67389050               -3.41179418               31.05709239              -80.33985878
              45.04445070               -8.27124370               71.55294667                0.00010000                8.08124312                6.27880895              -24.93913274               -1.91297574               16.01015396              -98.35502281
              46.13028539              -10.99203266               70.26904986                0.49791597                8.58346867                6.91149013              -28.25555369               -0.87181438                8.05176997             -119.58587177
              38.29167705               17.26538134               78.81820342                0.51266759               -0.00293958               -0.79712752                2.02698422               -0.10075823                0.16452501               12.49303410
              39.29164766               14.64708978               77.34474846                0.00010000                1.72238901                0.75891010               -1.96360711               -4.03770418               49.11081020              -10.21696177
              40.32612483               11.94558652               76.85031082                0.00010000                3.82501571                1.65235430               -4.89905623               -7.65571244               96.82458729              -14.78097576
              41.36814797                9.22007473               76.32971745                0.00010000                4.57572748                2.08036674               -7.74150109               -7.75070466               93.11136247              -19.82845715
              42.41763938                6.48156279               75.75876729                0.00010000                5.25572907                2.59975799              -10.58981799               -7.02610179               87.04811975              -25.84007545
              43.47326255                3.73827964               75.11422988                0.00010000                5.81225519                3.35063180              -13.51271326               -6.01866240               78.64989063              -33.02446705
              44.53388449                0.99522074               74.37267530                0.00010000                6.32273209                4.23898314              -16.54899086               -4.95180153               67.79893684              -41.62731411
              45.59971719               -1.74449153               73.50902217                0.00010000                6.88644721                5.20389896              -19.71237719               -3.87148149               54.31570780              -52.06401002
              46.67161343               -4.47830820               72.49672694                0.00010000                7.56116844                6.18744580              -22.99863756               -2.74365517               38.17416464              -64.99093701
              47.75094056               -7.20386862               71.31051073                0.00010000                8.41978167                7.10039781              -26.39768525               -1.48963250               19.75496060              -81.32902772
              48.84000906               -9.91841100               69.93142455                0.49908062                8.90685008                7.76485693              -29.91208053               -0.69326910                9.99077602             -101.94193126
              40.90114787               18.25841828               78.57984737                0.51128571                0.22244355               -0.59049716                1.44334406               -0.10823901                0.23763822               12.40018599
              41.90337231               15.65589950               76.99327817                0.00010000                2.84486067                1.00371507               -2.87441032               -4.44886003               58.91612011              -10.59310219
              42.95804509               12.96203018               76.58038663                0.00010000                5.84869588                1.29423950               -5.77636781               -7.94721288              116.06394305              -11.74090708
              44.02034623               10.23954335               76.13555587                0.00010000                6.51108554                1.42391688               -8.57728269               -7.18069311              111.51449223              -14.27249933
              45.08826680                7.50647781               75.62942981                0.00010000                6.82387417                2.23959806              -11.39431162               -5.90832221              104.33510946              -18.11032951
              46.15682371                4.77190617               75.03820479                0.00010000                6.89476228                3.26686158              -14.29905595               -4.70960908               94.71880190              -22.98750479
              47.22616204                2.03880712               74.33689274                0.00010000                7.04226385                4.37924478              -17.33228732               -3.69266855               82.37229797              -29.00491771
              48.29766899               -0.69031989               73.49635945                0.00010000                7.35012337                5.51867446              -20.51239109               -2.75717428               66.81536124              -36.51917433
              49.37316451               -3.41349666               72.48250783                0.00010000                7.85459326                6.64722593              -23.84662305               -1.84630308               47.61525390              -46.25134304
              50.45476085               -6.12923574               71.25786962                0.00010000                8.61701285                7.70021272              -27.34697637               -0.93760679               24.92416176              -59.69360132
              51.54550477               -8.83673552               69.79136587                0.50021640                9.07439154                8.50413765              -31.04120159               -0.45951876               12.73378903              -79.21223543
              43.49454984               19.25357140               78.34139343                0.50994284                0.45087136               -0.36891872                0.84527614               -0.11910361               -0.25716875               10.76679424
              44.49905855               16.66716408               76.63587769                0.00010000                4.44934441                1.24122972               -3.80638276               -5.34062512               70.55034314               -9.72675111
              45.58353673               13.97147131               76.34663904                0.00010000                9.05139666               -0.60337548               -6.53779680               -6.54452603              138.70357254               -6.76358671
              46.68008649               11.24855306               76.00324308                0.00010000                9.17866951                0.45420397               -9.20220567               -4.93687432              132.28198469               -7.55799689
              47.76711012                8.52635475               75.58337498                0.00010000                8.33272862                1.73971276              -11.90883592               -3.47280031              123.90107984               -9.36827550
              48.84674106                5.80361687               75.06942711                0.00010000                7.75735289                3.07238702              -14.72023048               -2.62174466              113.38710043              -11.82413149
              49.92225717                3.08280564               74.43613329                0.00010000                7.50682143                4.37505183              -17.67650666               -1.96864343               99.98278117              -14.92901284
              50.99687749                0.36588196               73.65132934                0.00010000                7.56730241                5.63925967              -20.79922886               -1.40185501               82.87156149              -18.89218304
              52.07360322               -2.34536368               72.67396791                0.00010000                7.92749027                6.85826558              -24.10462091               -0.86237252               60.87931789              -24.21218654
              53.15542729               -5.04986437               71.44876089                0.00010000                8.61075077                8.00718748              -27.63330420               -0.38247025               32.73669243              -32.10905529
              54.24581824               -7.74832825               69.90926825                0.50120610                9.03909467                9.02967999              -31.47595648               -0.25456627               16.94638025              -47.27530280
              46.07158043               20.25103991               78.07037691                0.75456296                0.70794601               -0.25314915                0.14196420                0.67147780                4.86761166                9.13919678
              47.07865989               17.68072409               76.30199503                0.47491048                8.70925776                1.35600088               -4.68095128               -7.09372768               87.01685423               -8.56652160
              48.24576559               14.94996268               76.17672784                0.44710783               14.40327058               -2.15086386               -7.11359163               -5.38194741              163.82688228               -3.58733177
              49.36672530               12.24862743               75.94389384                0.44107450               10.89907014                0.00743616               -9.57543594               -1.77064888              154.47209874               -3.92521496
              50.46374699                9.54127206               75.62945806                0.43867626                9.06063162                1.49173115              -12.09348705               -1.09998869              145.66407655               -4.78027891
              51.54793793                6.83335391               75.21734695                0.44036635                8.03885475                2.97370410              -14.72898685               -0.62850758              134.82947797               -6.01476117
              52.62452408                4.12630816               74.68267116                0.44557146                7.49316347                4.35025233              -17.52216182               -0.31773942              121.07215028               -7.59871120
              53.69780120                1.42246530               73.99213656                0.45469194                7.35696517                5.65833433              -20.49453037               -0.03960337              103.39564978               -9.64547255
              54.77166339               -1.27633134               73.10157984                0.46828418                7.61374067                6.90323373              -23.66322681                0.22815151               80.34284610              -12.46072388
              55.85007602               -3.96909199               71.94899233                0.48698246                8.28389117                8.07723716              -27.07450315                0.47434374               47.87486565              -16.70824346
              56.93734121               -6.65614192               70.40942307                0.75095157                8.72651931                9.21863307              -30.92400306                0.44730473               28.46889264              -28.23774165
              20.29276479               10.73694814               81.59957374                0.77331362               -1.64491503               -1.83158115                6.22943458               -0.48068313               -6.25520279                6.73508238
              21.27631564                7.90409906               80.83809236                0.50659689               -1.70620932               -1.05968858                4.19275496               -0.63883010               -8.61163145               -5.29995569
              22.25864060                5.06049220               80.02923914                0.46698526               -1.55403808               -0.57986355                2.13152798               -0.46392070               -8.81718652               -0.15970949
              23.24523487                2.19703559               79.26393975                0.44941573               -0.97615366                0.00990262                0.14055560               -0.41501584               -6.26440537               -0.38930750
              24.23911753               -0.68426958               78.50617405                0.44048577               -0.16581772                0.59772694               -1.91456078               -0.37234052               -5.58463774               -0.23464381
              25.24191852               -3.57793895               77.75435456                0.44047799                0.76356378                1.19784132               -4.01468104               -0.33540958               -5.22416293               -0.10075386
              26.25438880               -6.47658973               77.00379662                0.44762061                1.71326815                1.80524466               -6.14694497               -0.32560307               -5.39503956                0.03117524
              27.27618388               -9.37296461               76.24886515                0.46396266                2.58282691                2.39724997               -8.28595738               -0.33146137               -6.15326705                0.17651545
              28.30604534              -12.26220137               75.48366898                0.48908563                3.30806094                2.97779380              -10.40292383               -0.32889067               -7.74330774                0.22515768
              29.34234510              -15.14258590               74.69756810                0.52383914                3.88751079                3.55162588              -12.50728123               -0.32722139               -8.20663061                1.07384935
              30.38379556              -18.01578453               73.92388667                0.77586040                4.14504541                4.17344292              -14.58257292               -0.56662604               -7.63277905               -5.09897377
              23.12080704               11.71863233               81.29523354                0.53010218               -1.26517338               -1.92808732                5.43292770               -0.32272801                5.03678036               10.42578606
              24.10815530                8.89350217               80.53002794                0.00010000               -0.66369552               -0.72754625                3.42127193               -0.74579082               11.27938240               -9.84709853
              25.10753313                6.05469357               79.88945316                0.00010000                0.26551523               -1.10426945                1.79632574               -1.94581984               17.04045491              -12.39308638
              26.11346561                3.19713461               79.23895856                0.00010000                0.76741302               -0.87142513                0.03565391               -2.93295337               17.11227170              -18.04293700
              27.12288139                0.32170768               78.59973388                0.00010000                1.06294434               -0.41961925               -1.77249825               -3.57133784               17.93637356              -24.56564283
              28.13472450               -2.56596053               77.96600453                0.00010000                1.28821063                0.15065862               -3.63079849               -3.72904094               18.24313812              -31.93849426
              29.14864560               -5.45853728               77.33338158                0.00010000                1.54752969                0.74090028               -5.53989934               -3.38942542               18.07822791              -40.25699476
              30.16567509               -8.34899211               76.69668577                0.00010000                1.94607375                1.25965359               -7.44454044               -2.61099055               17.31928313              -49.66969929
              31.18756708              -11.23242343               76.04900056                0.00010000                2.50946878                1.67390058               -9.32841984               -1.49890239               16.14157220              -60.38816547
              32.21586447              -14.10706964               75.38875870                0.00010000                3.18804259                2.03366952              -11.18724949               -0.13399701               12.64717317              -72.75202171
              33.25132793              -16.97405010               74.67114365                0.52043550                3.54634624                2.17257284              -13.07838945                1.28929712                9.78079872              -90.00626767
              25.93657054               12.69838640               81.06442783                0.51279934               -1.12319587               -1.89507104                4.92166664               -0.10761752               -0.15080905               13.05271563
              26.92533858                9.88954814               80.13082079                0.00010000               -1.02393901               -0.29987808                2.43685088               -2.03254288               15.24079826              -12.68905076
              27.91609176                7.03840681               79.50492763                0.00010000               -0.28884472               -0.92998799                0.49015175               -4.82866313               29.74944156              -23.97391247
              28.91956169                4.17960709               78.86095342                0.00010000                0.73470777               -1.04596532               -1.51105469               -5.99702485               28.36002387              -35.39278244
              29.93078592                1.30733803               78.20675962                0.00010000                1.40104896               -0.76860459               -3.56691886               -6.96540556               27.29220599              -48.36702765
              30.94758267               -1.57492578               77.54105778                0.00010000                1.94229749               -0.28915175               -5.68091354               -7.20149447               25.83885003              -62.93604975
              31.96963187               -4.46177172               76.85745427                0.00010000                2.51337770                0.23293386               -7.85309535               -6.61562753               23.65997443              -79.33919832
              32.99785022               -7.34777154               76.14779377                0.00010000                3.22564759                0.66809239              -10.08974762               -5.28988394               20.58706558              -97.87550675
              34.03414482              -10.22872336               75.40235503                0.00010000                4.17208018                0.96395177              -12.39497890               -3.37656904               16.14489817             -118.87161517
              35.08129183              -13.10191251               74.60381839                0.00010000                5.46988019                1.14819973              -14.78749966               -1.32912453                9.18924885             -143.05454982
              36.14354242              -15.97233307               73.72074888                0.48908443                6.22505970                1.49667188              -17.19910535                0.42577194                4.74075091             -168.81961367
              28.73633121               13.68073091               80.81266961                0.51156135               -0.88471830               -1.64423003                4.31974913               -0.09704257                0.12818337               12.29308880
              29.72748403               10.88750461               79.76547477                0.00010000               -0.77151494               -0.11892594                1.57784712               -2.77774837               20.86236376              -10.85241621
              30.72090091                8.03609381               79.13289556                0.00010000               -0.14450674                0.14410633               -0.70598750               -5.65659046               40.99168533              -22.61802057
              31.72459390                5.17621531               78.48767534                0.00010000                0.86026117                0.21672739               -2.97044795               -6.31596274               39.39552384              -34.24081870
              32.73810614                2.30633559               77.82242580                0.00010000                1.76052326                0.47184708               -5.26754540               -6.87115882               37.10298722              -46.69968181
              33.75980436               -0.57174357               77.13055117                0.00010000                2.55363369                0.87309438               -7.62323962               -6.94528545               34.03137112              -60.54072093
              34.78917881               -3.45387861               76.40306254                0.00010000                3.35123432                1.33557898              -10.05580915               -6.40937434               29.96155766              -76.09748939
              35.82682905               -6.33563026               75.62904191                0.00010000                4.24989258                1.78482226              -12.57754614               -5.31443316               24.67846409              -93.67300246
              36.87417666               -9.21314440               74.79542841                0.00010000                5.30313192                2.18995316              -15.19330550               -3.82977004               17.90688123             -113.52766571
              37.93289169              -12.08410564               73.88639130                0.00010000                6.32539183                2.60954966              -17.87490051               -2.05969637                9.52619672             -135.49493613
              39.00068450              -14.94411666               72.88741660                0.48961929                6.77928139                3.60124995              -20.51762589               -0.90723265                4.83356070             -158.50167608
              31.52108229               14.66550180               80.56659732                0.51021435               -0.66615693               -1.41310237                3.73840165               -0.09541951                0.11153200               12.71033077
              32.51442072               11.88716962               79.40284194                0.00010000               -0.34165158                0.06874639                0.70957302               -3.25387508               26.91543869              -10.57763797
              33.51424926                9.04128894               78.77513198                0.00010000                0.42899647                0.77416994               -1.83436504               -6.43595836               52.97498802              -21.18188986
              34.52300065                6.18394163               78.13202424                0.00010000                1.35361805                1.15190847               -4.33491506               -6.84137669               50.89176606              -32.05110092
              35.54132162                3.31677497               77.46180469                0.00010000                2.29452546                1.48122111               -6.84872904               -7.06214272               47.62424849              -43.63451562
              36.56889116                0.44253611               76.75235756                0.00010000                3.20047267                1.88639764               -9.41713926               -6.91247337               43.10863181              -56.43389409
              37.60533107               -2.43506014               75.99082897                0.00010000                4.09680968                2.36732175              -12.06643420               -6.32517067               37.24575738              -70.85371793
              38.65082735               -5.31207509               75.16330103                0.00010000                5.03468636                2.89033315              -14.80876058               -5.34366578               29.92881669              -87.22176748
              39.70602480               -8.18492430               74.25510586                0.00010000                6.01214047                3.44048802              -17.63643265               -4.03451434               21.12028227             -105.73953663
              40.77107016              -11.04972151               73.25208128                0.00010000                6.96975049                4.10359097              -20.51000975               -2.33812059               10.97756065             -126.35863184
              41.84541981              -13.90030807               72.14312207                0.49056560                7.43496476                4.95036003              -23.36314156               -1.02294106                5.51476841             -148.85732693
              34.29108719               15.65246886               80.32305423                0.50889036               -0.44678002               -1.19780483                3.16597315               -0.09368584                0.12933355               12.90822218
              35.28661939               12.88887954               79.04299800                0.00010000                0.21612723                0.27967972               -0.16145991               -3.56056626               33.56977322              -10.38567140
              36.29540973               10.05157721               78.43177291                0.00010000                1.28304727                1.21781184               -2.91291929               -6.97774342               66.11949268              -19.59366606
              37.31228033                7.19925348               77.80232047                0.00010000                2.14295372                1.77286585               -5.59964954               -7.32077921               63.52269197              -29.07465204
              38.33826881                4.33596002               77.13836803                0.00010000                3.05548398                2.20036762               -8.28660283               -7.29446905               59.30057775              -39.29010872
              39.37339001                1.46598438               76.42348024                0.00010000                3.95088988                2.67004639              -11.02292991               -6.89930530               53.41581620              -50.67096140
              40.41728660               -1.40653217               75.64083269                0.00010000                4.82149372                3.23336472              -13.83947883               -6.17606026               45.81754340              -63.61897777
              41.46981989               -4.27782360               74.77320896                0.00010000                5.69230973                3.87601406              -16.74747798               -5.17986786               36.48201729              -78.49979972
              42.53113280               -7.14433464               73.80362581                0.00010000                6.58465826                4.57723195              -19.73742567               -3.91872773               25.49392126              -95.62115307
              43.60151305              -10.00203382               72.71690851                0.00010000                7.51330019                5.31463738              -22.78108666               -2.25134970               13.14491789             -115.18891017
              44.68139880              -12.84510946               71.50210566                0.49140366                7.98857508                6.01135133              -25.84727205               -1.00731459                6.60991471             -137.28389428
              37.04638722               16.64154570               80.08082163                0.50779509               -0.22861678               -0.99175878                2.59866137               -0.09526068                0.14638070               12.97105341
              38.04410105               13.89276321               78.68431134                0.00010000                0.89666160                0.50476496               -1.03867266               -3.79264420               41.05024955              -10.35404927
              39.06432045               11.06564518               78.10594718                0.00010000                2.40506019                1.52418149               -3.93774449               -7.36778912               80.89814730              -17.67335299
              40.09220226                8.21939895               77.50627375                0.00010000                3.21904396                2.10521323               -6.75164208               -7.65416888               77.76106485              -25.30655985
              41.12870133                5.36078232               76.86456748                0.00010000                4.05974912                2.58775907               -9.55529822               -7.36818700               72.57755309              -33.71457673
              42.17339724                2.49593704               76.16036280                0.00010000                4.84582584                3.16135744              -12.40605359               -6.68661694               65.34212779              -43.28689776
              43.22561785               -0.37039285               75.37303736                0.00010000                5.58176118                3.86347442              -15.33909263               -5.78201553               56.01403003              -54.38672366
              44.28503246               -3.23455481               74.48156022                0.00010000                6.31213104                4.65965554              -18.36835821               -4.72481269               44.56985656              -67.42390269
              45.35186047               -6.09337966               73.46512476                0.00010000                7.08927639                5.50102595              -21.49038365               -3.49674018               31.11862223              -82.87731563
              46.42681799               -8.94342876               72.30513606                0.00010000                7.97821623                6.30921285              -24.69269360               -1.97157932               16.03050527             -101.24080884
              47.51142479              -11.78008105               70.98827881                0.49246843                8.46068037                6.93886185              -27.97014159               -0.88914805                8.08922605             -122.90231810
              39.78674695               17.63263369               79.83843255                0.50594192               -0.00799282               -0.79421517                2.02244584               -0.10103457                0.16761350               12.87863689
              40.78666702               14.89897484               78.32531181                0.00010000                1.73356277                0.74479568               -1.92362959               -4.04130077               49.61691590              -10.46213851
              41.82141821               12.08206084               77.80129005                0.00010000                3.86963909                1.63431467               -4.90031943               -7.66827792               97.80100590              -15.33430357
              42.86405981                9.24135774               77.25213835                0.00010000                4.64743835                2.06448665               -7.76977298               -7.75889696               94.04340781              -20.64327831
              43.91436698                6.38771520               76.65270491                0.00010000                5.33865199                2.58674567              -10.62387685               -7.03967866               87.85158405              -26.90063910
              44.97083285                3.52921153               75.97909001                0.00010000                5.88855836                3.33980835              -13.52859532               -6.04491274               79.28137009              -34.32658282
              46.03213814                0.67073732               75.20746805                0.00010000                6.37387966                4.23101840              -16.52355816               -4.99394138               68.25268557              -43.17250607
              47.09831044               -2.18463049               74.31258138                0.00010000                6.89669026                5.20109518              -19.62795637               -3.92616256               54.61427093              -53.86085963
              48.17007195               -5.03431412               73.26785299                0.00010000                7.52362062                6.19166106              -22.84844446               -2.79870009               38.35403319              -67.06342377
              49.24878285               -7.87584957               72.04800188                0.00010000                8.34242281                7.10807225              -26.18972746               -1.52584258               19.84425336              -83.72885874
              50.33692040              -10.70633222               70.63395654                0.49353182                8.81375520                7.76220205              -29.66802244               -0.69943970               10.06722803             -104.75499257
              42.51168423               18.62566140               79.59424489                0.50447489                0.21636622               -0.59293466                1.43915239               -0.10323661                0.23692442               12.77862380
              43.51384789               15.90765912               77.96476680                0.00010000                2.84438825                0.99130693               -2.82603055               -4.44363111               59.59308186              -10.86220476
              44.56857199               13.09833147               77.52255420                0.00010000                5.87610339                1.28191738               -5.78567929               -7.94924408              117.36947369              -12.18242735
              45.63136996               10.26068868               77.04953111                0.00010000                6.57409880                1.41655604               -8.62446034               -7.18121497              112.75243929              -14.86902726
              46.70005397                7.41251724               76.51520377                0.00010000                6.90534534                2.23317667              -11.45502546               -5.91654664              105.41157455              -18.86693380
              47.76947686                4.56273321               75.89506949                0.00010000                6.97635362                3.25940177              -14.34659899               -4.72857274               95.59427013              -23.91016634
              48.83958104                1.71422752               75.16372285                0.00010000                7.10418921                4.37015252              -17.34120804               -3.72169380               83.04331805              -30.10010860
              49.91156065               -1.13053291               74.29180303                0.00010000                7.37622526                5.50855404              -20.46329687               -2.79167486               67.30149274              -37.79967962
              50.98710555               -3.96954644               73.24505637                0.00010000                7.83792977                6.63653387              -23.73191104               -1.87782227               47.94025488              -47.74488777
              52.06831924               -6.80126732               71.98577850                0.00010000                8.56478855                7.68636499              -27.17497696               -0.95656637               25.09513733              -61.45983420
              53.15840132               -9.62483701               70.48250399                0.49430410                9.00820734                8.47703085              -30.83457095               -0.45658443               12.85737538              -81.36148309
              45.22068677               19.62077500               79.34979001                0.50307150                0.44375615               -0.37155052                0.84406930               -0.11240506               -0.26137696               11.08666240
              46.22512433               16.91880098               77.59810982                0.00010000                4.43585000                1.22743857               -3.75393157               -5.32646142               71.46488675               -9.98415522
              47.30940377               14.10769918               77.28111975                0.00010000                9.05627057               -0.59813746               -6.56023334               -6.53986396              140.44873735               -7.02604483
              48.40624974               11.26968886               76.91083711                0.00010000                9.22938757                0.46162717               -9.27645654               -4.93465122              133.89693991               -7.87679037
              49.49399152                8.43237873               76.46382558                0.00010000                8.41506856                1.74579968              -12.00726252               -3.47869997              125.31305980               -9.76635435
              50.57455111                5.59439957               75.92187438                0.00010000                7.84894308                3.07467079              -14.81325771               -2.63429299              114.56822400              -12.30787580
              51.65097038                2.75814037               75.25930869                0.00010000                7.58498929                4.37213490              -17.73547093               -1.98597184              100.93325595              -15.50348119
              52.72625090               -0.07445941               74.44370540                0.00010000                7.61397672                5.63049928              -20.80155467               -1.42018111               83.60943616              -19.56613618
              53.80324992               -2.90158344               73.43376305                0.00010000                7.93455976                6.84337032              -24.04045357               -0.87661628               61.41361846              -25.00445325
              54.88494209               -5.72212227               72.17365194                0.00010000                8.58390862                7.98519157              -27.51082818               -0.38932427               33.03164833              -33.06246039
              55.97492809               -8.53679161               70.59589182                0.49535480                8.99859945                8.99573634              -31.31980153               -0.24419926               17.14078754              -48.52241044
              47.91338416               20.61823039               79.07178201                0.75095986                0.70103119               -0.25446088                0.14570103                0.66749022                5.01127365                9.40692322
              48.92039447               17.93220790               77.25545843                0.47158632                8.67513341                1.34069172               -4.63082353               -7.06606887               88.31356989               -8.80083294
              50.08688683               15.08636872               77.10534891                0.44639803               14.38014570               -2.13304624               -7.15518701               -5.36602727              166.06490949               -3.68906048
              51.20799739               12.26992123               76.84757060                0.44087744               10.94412174                0.02323642               -9.68562528               -1.77200987              156.50863588               -4.05730887
              52.30576926                9.44743323               76.50780689                0.43879177                9.15159900                1.50545012              -12.24329409               -1.10695568              147.47469307               -4.95140129
              53.39102937                6.62422662               76.06939798                0.44027978                8.14756572                2.98270552              -14.88611597               -0.64032526              136.38772715               -6.22865285
              54.46872058                3.80167022               75.50705108                0.44504312                7.59257346                4.35298483              -17.65429629               -0.33245742              122.38107370               -7.85693286
              55.54288084                0.98207708               74.78721724                0.45310774                7.42577508                5.65364854              -20.57473515               -0.05446847              104.47729728               -9.95252502
              56.61723608               -1.83267903               73.86546729                0.46563497                7.64300437                6.89044115              -23.67760091                0.21658816               81.20798272              -12.82812599
              57.69574092               -4.64156349               72.67918045                0.48237011                8.28099672                8.05587781              -27.02909753                0.46772068               48.43606233              -17.16147235
              58.78285601               -7.44492228               71.10128102                0.74797735                8.71150910                9.18693288              -30.84456154                0.45691366               28.87805187              -28.91603398
              21.00124947               11.11323050               82.66162678                0.76840000               -1.62948247               -1.81367483                6.16745287               -0.47879390               -6.37805227                6.85393016
              21.98495464                8.16242106               81.87985384                0.50001384               -1.70578380               -1.04671291                4.15005721               -0.64993830               -8.73806750               -5.41971741
              22.96713379                5.20060456               81.05051800                0.46418978               -1.56009061               -0.57690744                2.12335507               -0.45460925               -8.91554910               -0.10992208
              23.95375283                2.21873140               80.26544189                0.44868059               -0.97139367                0.00628732                0.16017396               -0.40780307               -6.35351269               -0.37512013
              24.94770592               -0.78086795               79.48721826                0.44044682               -0.16080697                0.59184131               -1.86551983               -0.36633020               -5.71943325               -0.22583425
              25.95053669               -3.79255615               78.71460202                0.43961697                0.75645567                1.19115334               -3.93710132               -0.34682932               -5.39525052               -0.10546443
              26.96283503               -6.80896339               77.94279569                0.44695618                1.68859523                1.78629465               -6.04430780               -0.33401437               -5.59757560                0.01814861
              27.98430860               -9.82335583               77.16642855                0.46134532                2.54916527                2.38341114               -8.16534416               -0.33038353               -6.35413800                0.15563150
              29.01381834              -12.83086044               76.38022852                0.48397902                3.26767841                2.96251434              -10.26201711               -0.33126836               -7.93392641                0.19587125
              30.04966217              -15.82982506               75.57323488                0.51566546                3.83674955                3.52739057              -12.33595295               -0.32790251               -8.39592118                1.04237508
              31.09055333              -18.82205830               74.77889560                0.77072676                4.08911642                4.14202270              -14.38481020               -0.53728678               -7.83010208               -5.19309291
              23.94727097               12.09509376               82.34935157                0.52138795               -1.25027407               -1.91757014                5.37809469               -0.32988800                5.19843468               10.69454829
              24.93476823                9.15195393               81.56407462                0.00010000               -0.64192191               -0.70945050                3.38295905               -0.77165198               11.64334145              -10.06271170
              25.93443253                6.19483549               80.90735652                0.00010000                0.28214139               -1.08950582                1.77932299               -1.97727184               17.53356338              -12.82612317
              26.94041106                3.21879427               80.23928510                0.00010000                0.76269280               -0.84389847                0.02883721               -2.95742874               17.50341920              -18.74332453
              27.94968639                0.22505046               79.58197218                0.00010000                1.03525307               -0.37780716               -1.77038493               -3.57301660               18.27547732              -25.51716861
              28.96111612               -2.78064461               78.92969680                0.00010000                1.26041701                0.20124645               -3.63565537               -3.70687860               18.53071650              -33.14133452
              29.97489473               -5.79110044               78.27804545                0.00010000                1.54185830                0.78741736               -5.52494895               -3.35399064               18.32726408              -41.71108000
              30.99195329               -8.79952172               77.62208404                0.00010000                1.94227708                1.31421770               -7.44648278               -2.57975495               17.57686459              -51.38813275
              32.01374027              -11.80123530               76.95563874                0.00010000                2.50143923                1.73619522               -9.33479071               -1.49260394               16.42096676              -62.41447743
              33.04198207              -14.79455115               76.27684461                0.00010000                3.18367158                2.10242395              -11.18559538               -0.18165975               12.90781032              -75.11642801
              34.07741370              -17.78063807               75.54037520                0.51276545                3.54316321                2.29349840              -13.06006493                1.15771334               10.01553918              -92.75454698
              26.88093135               13.07487910               82.11345632                0.50570037               -1.11514839               -1.88839268                4.87748693               -0.10323071               -0.18227255               13.43173364
              27.86977987               10.14823205               81.15515333                0.00010000               -1.00916671               -0.28544356                2.42080695               -2.05623469               15.47484349              -12.94396872
              28.86074802                7.17881445               80.50978204                0.00010000               -0.26952927               -0.90861997                0.48100192               -4.87615366               30.20626666              -24.84009003
              29.86438928                4.20185343               79.84581718                0.00010000                0.74682256               -1.00084525               -1.51290268               -6.02308722               28.74826901              -36.77037129
              30.87568447                1.21157591               79.17110622                0.00010000                1.40803720               -0.69982023               -3.56039351               -6.95796238               27.60425837              -50.23541188
              31.89255003               -1.78853122               78.48432531                0.00010000                1.94739260               -0.20646736               -5.66003274               -7.15532161               26.07164723              -65.28658149
              32.91463232               -4.79321504               77.77911664                0.00010000                2.51491606                0.32181217               -7.81379538               -6.55513526               23.81531104              -82.17582526
              33.94284835               -7.79707147               77.04737494                0.00010000                3.21816876                0.75978059              -10.00763950               -5.24332481               20.66414088             -101.21840394
              34.97899570              -10.79613653               76.27936078                0.00010000                4.12916990                1.06215103              -12.23763939               -3.37110989               16.15490904             -122.77140324
              36.02543175              -13.78777658               75.45790754                0.00010000                5.34428688                1.26635127              -14.49485451               -1.36574087                9.16752616             -147.53644774
              37.08588144              -16.77618833               74.55145999                0.48403981                6.04496878                1.66624849              -16.80455043                0.33383950                4.75737806             -173.87237308
              29.79850045               14.05732590               81.85575082                0.50486268               -0.87922654               -1.63504217                4.27980428               -0.10014041                0.11766670               12.64326214
              30.78970819               11.14624506               80.78127546                0.00010000               -0.76061850               -0.11533776                1.57962067               -2.79897310               21.07686162              -11.05124180
              31.78328808                8.17666309               80.12583507                0.00010000               -0.12601669                0.15262738               -0.70454300               -5.69278304               41.41118452              -23.39857305
              32.78718786                5.19877736               79.45796452                0.00010000                0.88118507                0.23768449               -2.96656489               -6.33517398               39.77942598              -35.53243496
              33.80091179                2.21105406               78.76978088                0.00010000                1.78063915                0.50687387               -5.25646842               -6.86952793               37.40878311              -48.46451623
              34.82280064               -0.78477396               78.05444850                0.00010000                2.57102465                0.91739629               -7.59693214               -6.93125941               34.23650641              -62.76264437
              35.85233228               -3.78466420               77.30283420                0.00010000                3.36038210                1.38573213               -9.99866998               -6.39687513               30.05624362              -78.77499585
              36.89000828               -6.78432610               76.50396088                0.00010000                4.23454506                1.83271149              -12.46402660               -5.32265913               24.66781351              -96.81123659
              37.93702318               -9.77999227               75.64481668                0.00010000                5.23553849                2.23722542              -14.98526188               -3.86843033               17.82055835             -117.12489019
              38.99471905              -12.76922413               74.70976121                0.00010000                6.19454081                2.66708953              -17.54687238               -2.10483321                9.43967739             -139.54167732
              40.06091400              -15.74731310               73.68482603                0.48441586                6.61949463                3.65164601              -20.11494304               -0.92065403                4.81058709             -162.99554641
              32.70109022               15.04217826               81.60382591                0.50331931               -0.66270065               -1.40346306                3.70407235               -0.09717650                0.11154082               13.08141674
              33.69446322               12.14592530               80.41002849                0.00010000               -0.33650847                0.06577655                0.72328742               -3.27141637               27.14443840              -10.78305412
              34.69436006                9.18186700               79.75681632                0.00010000                0.44158092                0.77020572               -1.82547861               -6.46446703               53.41759114              -21.90833373
              35.70329484                6.20660712               79.08867701                0.00010000                1.37425908                1.15600555               -4.32893411               -6.85356873               51.30757061              -33.24810256
              36.72184524                3.22171338               78.39334479                0.00010000                2.31741314                1.49626227               -6.83916641               -7.06407102               47.96026866              -45.26624117
              37.74964310                0.22981671               77.65831480                0.00010000                3.22008629                1.91063199               -9.39383711               -6.91471643               43.33317050              -58.48070137
              38.78624696               -2.76550040               76.87050062                0.00010000                4.10400704                2.39685420              -12.01362899               -6.34149584               37.34875598              -73.30540660
              39.83172324               -5.76041724               76.01589776                0.00010000                5.01390762                2.92355881              -14.70426675               -5.38402646               29.92390911              -90.07074675
              40.88652511               -8.75139203               75.07991119                0.00010000                5.94663352                3.47898250              -17.45744936               -4.09291805               21.05010800             -108.97770859
              41.95065591              -11.73443479               74.04865816                0.00010000                6.85605947                4.14731738              -20.25011350               -2.38254698               10.91126014             -129.98741787
              43.02364630              -14.70315541               72.91145519                0.48532062                7.29903937                4.99188369              -23.05195527               -1.03419094                5.50254770             -152.92681963
              35.58906285               16.02925664               81.35463768                0.50232677               -0.44717224               -1.18873435                3.14540602               -0.09771081                0.12395347               13.29670797
              36.58459112               13.14756059               80.04150840                0.00010000                0.21270392                0.27005990               -0.13738245               -3.57208188               33.83914207              -10.59981084
              37.59331692               10.19206721               79.40268785                0.00010000                1.28394845                1.20659504               -2.90091739               -6.99391780               66.64655354              -20.27125494
              38.61027009                7.22189748               78.74631176                0.00010000                2.15519251                1.76899092               -5.59674283               -7.32225765               64.02532599              -30.16453442
              39.63642077                4.24097930               78.05549669                0.00010000                3.07250017                2.20704275               -8.28545168               -7.29241375               59.71931544              -40.75916112
              40.67172010                1.25343868               77.31333122                0.00010000                3.96577694                2.68645511              -11.01312387               -6.90609695               53.71504849              -52.50003551
              41.71573631               -1.73672712               76.50269891                0.00010000                4.82496402                3.25790162              -13.80712076               -6.20152396               45.98919683              -65.79784738
              42.76821938               -4.72585493               75.60627489                0.00010000                5.67230261                3.90844510              -16.67655614               -5.22646708               36.54521312              -81.02339667
              43.82918237               -7.71041262               74.60714180                0.00010000                6.53060597                4.61864787              -19.61466490               -3.97454183               25.49106764              -98.49207721
              44.89883150              -10.68627778               73.49032579                0.00010000                7.42445286                5.36407690              -22.60416065               -2.29059785               13.12722129             -118.43232593
              45.97767142              -13.64747543               72.24507607                0.48614287                7.88399270                6.06127554              -25.63006951               -1.01286006                6.62520685             -140.96887857
              38.46252810               17.01840357               81.10675010                0.50104042               -0.23170878               -0.98629143                2.58724590               -0.09730978                0.14293640               13.36312859
              39.46021102               14.15132649               79.67410466                0.00010000                0.88083562                0.49154798               -1.00437501               -3.79336587               41.39668043              -10.57957911
              40.48014482               11.20599890               79.06660658                0.00010000                2.38632844                1.51131112               -3.92692573               -7.36690315               81.57444019              -18.29276477
              41.50793758                8.24198694               78.43870673                0.00010000                3.21554710                2.10271652               -6.75762566               -7.64067397               78.41352912              -26.26665894
              42.54445576                5.26585424               77.76894244                0.00010000                4.06449983                2.59672063               -9.57015139               -7.35712486               73.13732653              -34.98579329
              43.58922758                2.28354581               77.03629059                0.00010000                4.85271660                3.18013066              -12.41914823               -6.68949448               65.77043765              -44.85521087
              44.64151009               -0.70034237               76.21978207                0.00010000                5.58259126                3.89061252              -15.33806291               -5.80418196               56.30364843              -56.24770382
              45.70087941               -3.68224834               75.29823646                0.00010000                6.29735205                4.69516970              -18.34067525               -4.76392040               44.74057115              -69.58152342
              46.76745713               -6.65901907               74.25084860                0.00010000                7.05136755                5.54521704              -21.42644463               -3.54068404               31.20662701              -85.34908522
              47.84190676               -9.62715325               73.05909280                0.00010000                7.91636347                6.35947728              -24.58917862               -2.00101232               16.06928229             -104.06864770
              48.92578440              -12.58192990               71.70964703                0.48723427                8.38776430                6.98696988              -27.83069622               -0.88902106                8.13610813             -126.16280164
              41.32127080               18.00953081               80.85865233                0.49962320               -0.01423217               -0.78851346                2.02437377               -0.09820385                0.16667971               13.26566798
              42.32112848               15.15739155               79.30627587                0.00010000                1.70238097                0.72654519               -1.88401706               -4.02618819               50.08015894              -10.70322114
              43.35531842               12.22229343               78.75230443                0.00010000                3.82363952                1.62765216               -4.89388281               -7.64571540               98.70175803              -15.87859944
              44.39760127                9.26395181               78.17432199                0.00010000                4.62004908                2.07385500               -7.79102301               -7.72859253               94.91457069              -21.43971823
              45.44771940                6.29291372               77.54628976                0.00010000                5.32627723                2.60821097              -10.66277413               -7.02031812               88.61325672              -27.92994918
              46.50412681                3.31704129               76.84365798                0.00010000                5.88637114                3.36863310              -13.57371712               -6.04330629               79.89176734              -35.58366249
              47.56544682                0.34108513               76.04220414                0.00010000                6.37454267                4.26533358              -16.56267148               -5.01040270               68.70509263              -44.66036499
              48.63161767               -2.63195153               75.11646304                0.00010000                6.89133847                5.24054179              -19.64937874               -3.95537543               54.92617018              -55.59168064
              49.70327359               -5.59950828               74.03975805                0.00010000                7.50522065                6.23573028              -22.84290551               -2.82998442               38.55252727              -69.06560036
              50.78172208               -8.55908823               72.78671618                0.00010000                8.30853530                7.15353811              -26.15172507               -1.54592599               19.94651450              -86.05720727
              51.86944430              -11.50773603               71.33806410                0.48813380                8.77222196                7.80147198              -29.59508322               -0.69393502               10.14976370             -107.49529217
              44.16484255               19.00263330               80.60863042                0.49814319                0.20820909               -0.58816435                1.44454115               -0.10699630                0.23936449               13.15796158
              45.16692464               16.16585740               78.93675755                0.00010000                2.79138545                0.96988986               -2.77584527               -4.40916465               60.21943306              -11.12976668
              46.22067025               13.23855194               78.46467304                0.00010000                5.79104044                1.29311415               -5.78836976               -7.89638018              118.58251317              -12.61940984
              47.28274545               10.28346404               77.96306666                0.00010000                6.51448273                1.45129814               -8.66749504               -7.14076505              113.91635450              -15.45408622
              48.35095991                7.31801846               77.40032930                0.00010000                6.87222969                2.27554144              -11.52672761               -5.89654586              106.43536233              -19.60141386
              49.42019004                4.35091847               76.75127281                0.00010000                6.96674764                3.30447830              -14.43391453               -4.72792737               96.44016518              -24.79907684
              50.49029486                1.38496430               75.99006858                0.00010000                7.10876383                4.41613237              -17.43095549               -3.73557672               83.70683065              -31.15048430
              51.56236532               -1.57743750               75.08709352                0.00010000                7.38496409                5.55482807              -20.54293410               -2.81372872               67.79670529              -39.02623077
              52.63799414               -4.53430446               74.00786961                0.00010000                7.84253348                6.68223079              -23.79087134               -1.89947625               48.28100595              -49.17811808
              53.71921599               -7.48408249               72.71437008                0.00010000                8.56035749                7.72863505              -27.20517307               -0.96932988               25.27745059              -63.16212835
              54.80920129              -10.42590046               71.17467445                0.48884279                8.99853087                8.50912700              -30.82898120               -0.44630097               12.98552019              -83.44415704
              46.99268268               19.99776752               80.35827481                0.49687832                0.43438679               -0.37194705                0.85938974               -0.11729133               -0.27497821               11.41198889
              47.99702655               17.17678935               78.56079906                0.00010000                4.35507501                1.20764047               -3.70253670               -5.25860296               72.31894565              -10.24721226
              49.07978418               14.24815571               78.21543437                0.00010000                8.91464509               -0.54143997               -6.57460315               -6.47651128              142.08452946               -7.28870945
              50.17531945               11.29297777               77.81771395                0.00010000                9.12749338                0.52751217               -9.34826444               -4.90182859              135.41708590               -8.19025741
              51.26233405                8.33842455               77.34322973                0.00010000                8.36514868                1.81314793              -12.12123747               -3.46966774              126.65436547              -10.15271465
              52.34262242                5.38313086               76.77316195                0.00010000                7.83786101                3.14075848              -14.95500281               -2.63792559              115.70495713              -12.77271052
              53.41909127                2.42940778               76.08142387                0.00010000                7.59947178                4.43602183              -17.89021704               -1.99771965              101.86557397              -16.05214782
              54.49461186               -0.52085497               75.23529824                0.00010000                7.64188926                5.69143170              -20.95488162               -1.43529168               84.34991703              -20.20835513
              55.57192905               -3.46586367               74.19315883                0.00010000                7.96598109                6.90010507              -24.17962708               -0.88974405               61.96027986              -25.76067200
              56.65393148               -6.40451553               72.89854432                0.00010000                8.61125861                8.03520095              -27.62478548               -0.39611344               33.33641437              -33.97733240
              57.74415423               -9.33755349               71.28287222                0.48961122                9.02227444                9.03297346              -31.39610573               -0.22880451               17.33832770              -49.72819282
              49.80445307               20.99519436               80.07329093                0.74781533                0.69113222               -0.25731646                0.16219912                0.65862372                5.15003177                9.67779543
              50.81136439               18.19001021               78.20937855                0.46844911                8.52492702                1.32208585               -4.57188077               -6.93977663               89.54377506               -9.04337235
              51.97495161               15.22772314               78.03362410                0.44561750               14.15378235               -2.04325701               -7.18609279               -5.28305353              168.16271055               -3.78977868
              53.09444004               12.29401428               77.75018134                0.44065683               10.82309276                0.10365098               -9.79187002               -1.76002728              158.41874483               -4.18586886
              54.19141346                9.35428142               77.38459218                0.43890314                9.10041268                1.58568722              -12.40962601               -1.10609015              149.18444156               -5.11578662
              55.27644829                6.41373364               76.91962463                0.44003980                8.14564175                3.06027833              -15.09716409               -0.64724707              137.87559992               -6.43245799
              56.35432630                3.47368474               76.32958524                0.44446628                7.62413194                4.42769584              -17.89328425               -0.34362247              123.65182722               -8.10197116
              57.42893093                0.53639113               75.58064186                0.45205804                7.47667625                5.72461010              -20.82451975               -0.06744787              105.54826714              -10.24392896
              58.50385982               -2.39630236               74.62802782                0.46289908                7.70263042                6.95613064              -23.92248074                0.20459721               82.07778688              -13.17836863
              59.58298354               -5.32337847               73.40841038                0.47784384                8.34206472                8.11370638              -27.25535040                0.45827434               49.00289461              -17.59691304
              60.67070112               -8.24524099               71.79253184                0.74506723                8.77175798                9.23124996              -31.03414272                0.46843718               29.28658454              -29.57375778
              21.72874963               11.49857717               83.72292279                0.76338585               -1.60865649               -1.78834133                6.08247840               -0.47340367               -6.49599520                6.97102646
              22.71266306                8.42726314               82.92109350                0.49375577               -1.70040313               -1.03146936                4.09039145               -0.66261044               -8.84894581               -5.53552505
              23.69474157                5.34461673               82.07170625                0.46146889               -1.55993520               -0.57096609                2.11037978               -0.44558379               -8.98766316               -0.06373098
              24.68146436                2.24184676               81.26714323                0.44766622               -0.95864176                0.00460732                0.18275749               -0.40014412               -6.41505043               -0.36110733
              25.67556873               -0.87829410               80.46886366                0.44058334               -0.15141403                0.57704611               -1.80137719               -0.36317853               -5.83162888               -0.21509615
              26.67843608               -4.01023781               79.67561253                0.43967362                0.75210112                1.17272954               -3.83950117               -0.33866129               -5.54837020               -0.11455427
              27.69061075               -7.14672628               78.88291047                0.44617017                1.66161074                1.76464485               -5.90662887               -0.32696724               -5.77077082                0.01170732
              28.71166829              -10.28116295               78.08555827                0.45950592                2.49748646                2.34617938               -7.97495663               -0.32382580               -6.53552202                0.13339175
              29.74056048              -13.40910439               77.27842864                0.47942367                3.20456513                2.92591405              -10.05020620               -0.32320988               -8.11450437                0.16810377
              30.77575960              -16.52895785               76.45084904                0.50804616                3.76557959                3.48869980              -12.09446553               -0.32259952               -8.57001351                1.01342399
              31.81587207              -19.64260560               75.63619047                0.76571660                4.01124779                4.09001689              -14.10634255               -0.49422999               -8.01504368               -5.27603283
              24.79532962               12.48069376               83.40279543                0.51301308               -1.23124418               -1.89776755                5.30171692               -0.33545909                5.36059341               10.96524869
              25.78301718                9.41694845               82.59768712                0.00010000               -0.61678530               -0.68976110                3.33419675               -0.79700122               12.00603467              -10.26947193
              26.78299392                6.33890707               81.92503962                0.00010000                0.29505757               -1.07451297                1.75245301               -2.01219655               18.01731632              -13.24777327
              27.78891833                3.24189283               81.23953531                0.00010000                0.74926564               -0.81632628                0.01519784               -2.98460873               17.87520793              -19.42346484
              28.79797923                0.12747636               80.56432618                0.00010000                1.01736098               -0.34424029               -1.76041421               -3.58045617               18.57054061              -26.43998252
              29.80926555               -2.99851052               79.89329142                0.00010000                1.24122094                0.24143552               -3.62156800               -3.69935366               18.78936472              -34.29382245
              30.82280365               -6.12907983               79.22288261                0.00010000                1.51767695                0.83246502               -5.50358544               -3.34564698               18.55912901              -43.10099206
              31.83961909               -9.25770115               78.54775612                0.00010000                1.92110938                1.35732424               -7.39945796               -2.57724115               17.77666212              -53.02258452
              32.86122584              -12.37984525               77.86230475                0.00010000                2.48325569                1.78875114               -9.29275381               -1.51098914               16.64823962              -64.30879845
              33.88928421              -15.49407086               77.16504679                0.00010000                3.16758414                2.16998956              -11.15001704               -0.25383169               13.14412196              -77.30455528
              34.92457752              -18.60170543               76.40994235                0.50545571                3.52933139                2.41871210              -12.99393611                1.02219282               10.22825401              -95.28978110
              27.84953107               13.46062182               83.16197757                0.49906534               -1.10213389               -1.87335951                4.81226203               -0.10010883               -0.22251618               13.80236470
              28.83850973               10.41346792               82.17923692                0.00010000               -0.99889119               -0.26719166                2.39077194               -2.07877610               15.69483962              -13.18012467
              29.82955325                7.32312647               81.51454767                0.00010000               -0.26534198               -0.89095001                0.47133162               -4.92530281               30.64158455              -25.67798207
              30.83320289                4.22552023               80.83069536                0.00010000                0.74048538               -0.95930266               -1.50792287               -6.04935548               29.11239698              -38.10310771
              31.84436296                1.11482109               80.13555175                0.00010000                1.39011497               -0.63348300               -3.54611190               -6.95553689               27.89551867              -52.04281476
              32.86100519               -2.00540910               79.42785712                0.00010000                1.92627485               -0.12377196               -5.63492150               -7.13412249               26.28360307              -67.54018375
              33.88288845               -5.13007698               78.70117836                0.00010000                2.49418493                0.41586588               -7.77526705               -6.53098568               23.95804315              -84.89138363
              34.91088889               -8.25401646               77.94764098                0.00010000                3.19109748                0.86616727               -9.95111031               -5.23343239               20.75998448             -104.40424936
              35.94671040              -11.37332937               77.15760224                0.00010000                4.08271263                1.18263223              -12.14422565               -3.39899684               16.21697143             -126.45858018
              36.99254314              -14.48555806               76.31392130                0.00010000                5.24373390                1.41905207              -14.35115951               -1.42551548                9.19895035             -151.76894715
              38.05158508              -17.59423136               75.38465787                0.47885116                5.90419364                1.88413224              -16.61764713                0.24212496                4.79308071             -178.66600097
              30.88763525               14.44322657               82.89826570                0.49778243               -0.86982391               -1.61892752                4.22216929               -0.09335253                0.11744932               12.99016334
              31.87893701               11.41160461               81.79706719                0.00010000               -0.75998542               -0.10961606                1.57295240               -2.81645822               21.27431449              -11.23787189
              32.87243555                8.32108807               81.11880470                0.00010000               -0.13502070                0.15715058               -0.69979788               -5.72492566               41.79588438              -24.15281303
              33.87623660                5.22270678               80.42834404                0.00010000                0.86811410                0.25560556               -2.95232094               -6.34303324               40.13131403              -36.78099859
              34.88979783                2.11480670               79.71729643                0.00010000                1.76222854                0.54566242               -5.23578462               -6.85832477               37.68499197              -50.16685205
              35.91148117               -1.00098595               78.97861252                0.00010000                2.54967358                0.97242291               -7.57014783               -6.90878356               34.42073604              -64.90388627
              36.94079130               -4.12076251               78.20308914                0.00010000                3.33608316                1.45219944               -9.96077123               -6.37785343               30.14917786              -81.34961918
              37.97820283               -7.24037781               77.37976138                0.00010000                4.19981008                1.91062131              -12.40212567               -5.32120064               24.68597771              -99.82917863
              39.02478750              -10.35619261               76.49572317                0.00010000                5.17365260                2.32628896              -14.88157631               -3.88779289               17.79483042             -120.59997691
              40.08167589              -13.46568982               75.53545386                0.00010000                6.09895540                2.77618069              -17.38696678               -2.13109793                9.41043303             -143.48704461
              41.14676661              -16.56402279               74.48511774                0.47960211                6.50907220                3.75684229              -19.90762897               -0.91871512                4.81626986             -167.40904726
              33.91090793               15.42824327               82.64067876                0.49635064               -0.65888598               -1.38738705                3.66855315               -0.08728957                0.11118248               13.46518725
              34.90431907               12.41127560               81.41730769                0.00010000               -0.34776818                0.06012696                0.73033840               -3.27793774               27.34950250              -10.98690759
              35.90395257                9.32626948               80.73862241                0.00010000                0.41522622                0.76368916               -1.81098344               -6.47706772               53.81895173              -22.61361949
              36.91262360                6.23063235               80.04544556                0.00010000                1.34683132                1.16131443               -4.31102512               -6.83968633               51.68361005              -34.40719230
              37.93088919                3.12573434               79.32502136                0.00010000                2.28875671                1.51862201               -6.82111057               -7.03775821               48.26086149              -46.84289812
              38.95839873                0.01403936               78.56448081                0.00010000                3.19170219                1.94969202               -9.37603494               -6.88798694               43.53114627              -60.45564450
              39.99472324               -3.10103299               77.75055639                0.00010000                4.07481207                2.44959760              -11.99126891               -6.32539117               37.44203049              -75.67282225
              41.03989497               -6.21580404               76.86921570                0.00010000                4.97716563                2.98737872              -14.66631232               -5.38460884               29.93289402              -92.83276757
              42.09426655               -9.32680359               75.90595688                0.00010000                5.89281969                3.55395048              -17.38863707               -4.10573314               21.01376111             -112.14295421
              43.15775137              -12.43003445               74.84707901                0.00010000                6.78050845                4.22874200              -20.13898164               -2.39218042               10.87639797             -133.57249200
              44.22987672              -15.51909451               73.68208297                0.48043040                7.21253541                5.06719535              -22.90067839               -1.02421812                5.50682652             -156.96716289
              36.91982481               16.41547883               82.38596235                0.49528326               -0.44727580               -1.17248268                3.12286809               -0.08572287                0.12327930               13.69704242
              37.91535205               13.41280715               81.04025035                0.00010000                0.18563159                0.25642834               -0.11704370               -3.56289346               34.08405513              -10.81332366
              38.92353744               10.33636185               80.37375456                0.00010000                1.23129807                1.19519137               -2.88201548               -6.98097284               67.12407981              -20.93414823
              39.93997801                7.24593307               79.69038561                0.00010000                2.10491043                1.77115978               -5.58225745               -7.28346647               64.48143568              -31.22371654
              40.96563565                4.14517914               78.97265900                0.00010000                3.02553733                2.22695262               -8.27896239               -7.24751892               60.09524189              -42.18181444
              42.00048876                1.03800789               78.20321776                0.00010000                3.92456099                2.72333552              -11.01572656               -6.86910296               53.97874958              -54.26841925
              43.04412687               -2.07177056               77.36469028                0.00010000                4.78962485                3.30904180              -13.81565566               -6.18082050               46.13752171              -67.90661355
              44.09628126               -5.18063023               76.43967784                0.00010000                5.63881900                3.97153040              -16.68268051               -5.22303282               36.60072459              -83.47672117
              45.15690325               -8.28511360               75.41133251                0.00010000                6.49209722                4.69129855              -19.60632800               -3.98073107               25.49359389             -101.30418192
              46.22612320              -11.38111498               74.26482529                0.00010000                7.37495606                5.44211726              -22.56952016               -2.29557224               13.11768757             -121.63376922
              47.30440237              -14.46267888               72.98950427                0.48118764                7.82791700                6.13847049              -25.56087051               -0.99830204                6.64497812             -144.61625054
              39.91453683               17.40479362               82.13256655                0.49459921               -0.23586426               -0.97060474                2.58005385               -0.08851170                0.14236350               13.76965142
              40.91217818               14.41640416               80.66422384                0.00010000                0.83351853                0.47251872               -0.97524847               -3.76771279               41.71495881              -10.80783578
              41.93120720               11.35017331               80.02740866                0.00010000                2.29793980                1.50302685               -3.90833609               -7.32394099               82.19357786              -18.90247337
              42.95813698                8.26605554               79.37112124                0.00010000                3.13284017                2.11351861               -6.75410705               -7.57560181               79.01157000              -27.20445621
              43.99386400                5.17027339               78.67316445                0.00010000                3.99146953                2.62751090               -9.58451313               -7.29445002               73.64591413              -36.22030328
              45.03796637                2.06850607               77.91197984                0.00010000                4.79404750                3.22740866              -12.45302371               -6.64302450               66.15304233              -46.37341274
              46.08974495               -1.03485215               77.06627610                0.00010000                5.54054914                3.95070307              -15.38967188               -5.77857186               56.55619175              -58.04900888
              47.14877735               -4.13637343               76.11474671                0.00010000                6.26958609                4.76545374              -18.40354924               -4.75633984               44.88531964              -71.67626807
              48.21513667               -7.23297762               75.03659587                0.00010000                7.03139265                5.62332315              -21.48943769               -3.54262839               31.27969633              -87.76121610
              49.28940520              -10.32119210               73.81335248                0.00010000                7.89509086                6.44219923              -24.63755254               -2.00317933               16.10168655             -106.84179196
              50.37303849              -13.39632510               72.43166489                0.48196391                8.36332831                7.07066980              -27.84682813               -0.87242652                8.18007939             -129.36617920
              42.89483348               18.39606673               81.87892003                0.49335241               -0.02153755               -0.77977325                2.02942908               -0.09689960                0.16275858               13.66231333
              43.89461811               15.42225753               80.28763147                0.00010000                1.62868805                0.70682158               -1.84372064               -3.98143022               50.50856939              -10.94499673
              44.92740724               12.36642239               79.70341239                0.00010000                3.68738922                1.63200145               -4.88124906               -7.56740666               99.53559759              -16.41876158
              45.96836589                9.28820344               79.09631789                0.00010000                4.49444392                2.10797303               -7.80585283               -7.63946085               95.72085819              -22.22208510
              47.01729612                6.19772936               78.43944942                0.00010000                5.21939610                2.66377991              -10.70724349               -6.94781577               89.31326695              -28.93269246
              48.07275381                3.10255606               77.70761566                0.00010000                5.80694039                3.43708124              -13.64933746               -5.99556682               80.44495308              -36.80147377
              49.13343493                0.00724350               76.87621462                0.00010000                6.32630554                4.34251254              -16.66823542               -4.98626088               69.10725662              -46.09872555
              50.19927993               -3.08532116               75.91959381                0.00010000                6.87172137                5.32403517              -19.77886028               -3.94871277               55.19748920              -57.26666826
              51.27086936               -6.17264713               74.81099488                0.00010000                7.50635873                6.32340195              -22.98418888               -2.83186979               38.72215847              -71.00909157
              52.34940710               -9.25227099               73.52496738                0.00010000                8.31752396                7.24270350              -26.28601396               -1.54800702               20.03342585              -88.32445673
              53.43721984              -12.32126548               72.04205488                0.48281933                8.78127377                7.88984168              -29.69667635               -0.67622467               10.22466315             -110.16761911
              45.86021724               19.38919815               81.62313572                0.49201198                0.19766804               -0.58562344                1.46790356               -0.10049471                0.24681626               13.54272314
              46.86219393               16.43054060               79.90924990                0.00010000                2.68479518                0.94891033               -2.73054262               -4.33296207               60.80605029              -11.39726770
              47.91391315               13.38281333               79.40678681                0.00010000                5.59234330                1.32757766               -5.78483935               -7.77766837              119.71122627              -13.05573884
              48.97404079               10.30821500               78.87618121                0.00010000                6.33209583                1.52828001               -8.70773400               -7.04170697              115.00074427              -16.03274688
              50.04055507                7.22354899               78.28466922                0.00010000                6.72500476                2.36661025              -11.61024690               -5.83163046              107.38246854              -20.31922077
              51.10854089                4.13724769               77.60639120                0.00010000                6.86709424                3.40187390              -14.56190303               -4.69242965               97.21361439              -25.66045419
              52.17789695                1.05199810               76.81510374                0.00010000                7.05764221                4.51686270              -17.60213139               -3.72148901               84.30475366              -32.16401642
              53.24969373               -2.02989273               75.88094435                0.00010000                7.37760781                5.65731525              -20.75069639               -2.81366634               68.23668739              -40.20898024
              54.32544911               -5.10650958               74.76923895                0.00010000                7.86848420                6.78460180              -24.02097834               -1.90526173               48.58058764              -50.56255908
              55.40706341               -8.17633803               73.44167503                0.00010000                8.60269368                7.82808854              -27.43386534               -0.97343973               25.43706574              -64.81026738
              56.49750298              -11.23852827               71.86592436                0.48348856                9.04395649                8.60263135              -31.02223143               -0.42807276               13.10192266              -85.46230516
              48.81013870               20.38435426               81.36697780                0.49134089                0.42049808               -0.37220454                0.88803668               -0.11223808               -0.28873765               11.72902691
              49.81434368               17.44123573               79.52405908                0.00010000                4.20203837                1.18204335               -3.64065692               -5.13187243               73.12002575              -10.50072419
              50.89417947               14.39297394               79.14962768                0.00010000                8.62262073               -0.43098247               -6.58478162               -6.35207908              143.61276659               -7.55267278
              51.98679610               11.31876904               78.72387182                0.00010000                8.87256758                0.65270358               -9.41930320               -4.82744811              136.83488024               -8.50283309
              53.07163082                8.24506156               78.22140083                0.00010000                8.18300072                1.94218070              -12.25195420               -3.43578850              127.89598852              -10.53122895
              54.15045611                5.17059354               77.62277432                0.00010000                7.72573736                3.27022062              -15.14646089               -2.62366932              116.74625903              -13.22303084
              55.22614557                2.09758076               76.90150435                0.00010000                7.55290809                4.56549804              -18.14081146               -1.99627238              102.71058547              -16.58042632
              56.30151427               -0.97217485               76.02460777                0.00010000                7.65319316                5.82019951              -21.25685144               -1.44129932               85.01580410              -20.82559621
              57.37920943               -4.03695510               74.95017050                0.00010000                8.02213603                7.02626015              -24.51620247               -0.89800866               62.45008527              -26.48838598
              58.46195700               -7.09570922               73.62115623                0.00010000                8.69147093                8.15520854              -27.96678990               -0.40131884               33.60919563              -34.85973902
              59.55303885              -10.14921286               71.96796971                0.48426876                9.10818558                9.14057973              -31.69850322               -0.20827311               17.51890702              -50.89097739
              51.74420954               21.38175406               81.07502600                0.74516445                0.67272577               -0.26002024                0.20229012                0.64982417                5.27966836                9.92362859
              52.75093680               18.45418146               79.16402081                0.46531854                8.25643576                1.29457288               -4.49584525               -6.71870703               90.69087503               -9.26232075
              53.90933826               15.37419369               78.96162705                0.44498306               13.72337027               -1.87802533               -7.21083486               -5.12974056              170.11824063               -3.89257907
              55.02540421               12.32126907               78.65173320                0.44036701               10.53382697                0.25000327               -9.89590074               -1.72924325              160.19192601               -4.31385685
              56.12001480                9.26239260               78.25961437                0.43857707                8.90720489                1.73310427              -12.59418147               -1.09245073              150.75827263               -5.27615868
              57.20354831                6.20265211               77.76745470                0.43993210                8.03625474                3.20585688              -15.36376302               -0.64500802              139.23258305               -6.62896442
              58.28073989                3.14330806               77.14918539                0.44357052                7.59276457                4.57273032              -18.23972094               -0.34760964              124.80288726               -8.33670451
              59.35540360                0.08651126               76.37072684                0.45038687                7.51417023                5.86861192              -21.24133526               -0.07568955              106.51661853              -10.52256288
              60.43102330               -2.96598438               75.38701768                0.46024147                7.79456004                7.09707213              -24.39031965                0.19413012               82.86743453              -13.51375553
              61.51129480               -6.01323386               74.13407345                0.47366493                8.46607461                8.24753561              -27.74157620                0.44716526               49.52122035              -18.01494213
              62.60034479               -9.05571667               72.48059816                0.74233095                8.90499930                9.34961821              -31.48277939                0.48231286               29.66596939              -30.20404820
              22.47498814               11.89290575               84.78327635                0.75891095               -1.57958688               -1.75618014                5.96949584               -0.46710863               -6.60896903                7.07621707
              23.45919228                8.69852333               83.96166166                0.48816469               -1.68286720               -1.01022610                4.01028619               -0.66688055               -8.94124001               -5.64320071
              24.44133080                5.49266321               83.09272560                0.45895346               -1.54489310               -0.56246030                2.08546289               -0.42992452               -9.02906939               -0.01619803
              25.42829441                2.26672510               82.26909704                0.44599312               -0.93633801                0.00477396                0.20811240               -0.40448216               -6.44874340               -0.35187793
              26.42260404               -0.97609492               81.45119072                0.44011440               -0.13859681                0.56576337               -1.72898226               -0.37280154               -5.91093138               -0.20705503
              27.42552248               -4.23020501               80.63781199                0.43982288                0.74349212                1.14393633               -3.70764249               -0.34647921               -5.66646489               -0.12050572
              28.43747388               -7.48867352               79.82466311                0.44542943                1.62787540                1.72853404               -5.71878944               -0.33006044               -5.90898025               -0.00521177
              29.45807999              -10.74508369               79.00692942                0.45691837                2.43818000                2.30275705               -7.74002373               -0.33041291               -6.68920415                0.10651975
              30.48623748              -13.99525058               78.17922439                0.47551400                3.12100404                2.86657137               -9.76213980               -0.32572915               -8.27541682                0.14041169
              31.52050007              -17.23795209               77.33134557                0.50059585                3.66660570                3.42375675              -11.76111975               -0.31892353               -8.72177084                0.96941936
              32.55956960              -20.47508273               76.49676875                0.76053414                3.90695302                4.01816302              -13.74959566               -0.45125803               -8.17152511               -5.34605372
              25.66469947               12.87534395               84.45538591                0.50491453               -1.20547315               -1.87248099                5.20226041               -0.34357844                5.51588959               11.22416553
              26.65264474                9.68842107               83.63075856                0.00010000               -0.58844018               -0.66369229                3.26897464               -0.81955279               12.35720597              -10.46392317
              27.65293067                6.48703860               82.94240558                0.00010000                0.29919557               -1.05867418                1.71604517               -2.04288791               18.47817402              -13.65141061
              28.65862865                3.26677284               82.23958906                0.00010000                0.72052061               -0.78712820               -0.00195216               -3.00685812               18.24602969              -20.07624324
              29.66734108                0.02956272               81.54676389                0.00010000                0.98591666               -0.30778614               -1.75846958               -3.58547237               18.87633563              -27.32676715
              30.67834699               -3.21876565               80.85726544                0.00010000                1.21357670                0.27745100               -3.58894699               -3.69389474               19.00324573              -35.40100954
              31.69161262               -6.47138818               80.16797374                0.00010000                1.48586996                0.87121354               -5.46181247               -3.33775139               18.74212228              -44.42681522
              32.70806439               -9.72205612               79.47409488                0.00010000                1.89008865                1.39609851               -7.34043401               -2.58262562               17.95923806              -54.58562359
              33.72941439              -12.96658487               78.76978366                0.00010000                2.45812588                1.82620109               -9.20497849               -1.54205363               16.82410955              -66.11373487
              34.75722690              -16.20371452               78.05384427                0.00010000                3.13866344                2.21947491              -11.06213608               -0.32305851               13.33714041              -79.37324638
              35.79218766              -19.43490110               77.28049648                0.49798191                3.49607544                2.51994935              -12.88555777                0.91635738               10.43279957              -97.67636671
              28.84196233               13.85545613               84.20970156                0.49240279               -1.08557603               -1.84579861                4.72645397               -0.09331475               -0.26324066               14.17290196
              29.83110657               10.68524949               83.20296877                0.00010000               -0.99205274               -0.25021057                2.35301254               -2.09778378               15.90378185              -13.40473883
              30.82212127                7.47148972               82.51920867                0.00010000               -0.27367141               -0.87532577                0.46041827               -4.96343495               31.05787915              -26.48135246
              31.82563314                4.25098254               81.81565872                0.00010000                0.71559063               -0.91828247               -1.49676650               -6.05233062               29.44674827              -39.37773160
              32.83643309                1.01774936               81.10018398                0.00010000                1.34811706               -0.56576511               -3.52109325               -6.93182370               28.14624674              -53.77088423
              33.85259548               -2.22465599               80.37162688                0.00010000                1.87881199               -0.03548656               -5.60523233               -7.09614735               26.45889535              -69.69700562
              34.87400932               -5.47124925               79.62361130                0.00010000                2.45143401                0.51767840               -7.74179970               -6.49756800               24.06547847              -87.47921945
              35.90162416               -8.71716172               78.84835273                0.00010000                3.15227428                0.97858621               -9.91317691               -5.22239453               20.82406928             -107.44866799
              36.93705481              -11.95872656               78.03647627                0.00010000                4.03654828                1.31192104              -12.09946725               -3.42939755               16.26735868             -129.97753016
              37.98235513              -15.19356259               77.17088435                0.00010000                5.16075464                1.57958927              -14.28667602               -1.48254740                9.22622627             -155.79177997
              39.04026990              -18.42468374               76.21910705                0.47447920                5.79147774                2.09909766              -16.52087420                0.17408270                4.81936013             -183.24072925
              32.00324646               14.83842798               83.94019420                0.49141094               -0.85909873               -1.58353884                4.15539192               -0.09642632                0.11533607               13.34893228
              32.99465548               11.68341686               82.81273451                0.00010000               -0.76587717               -0.11227540                1.55483476               -2.82464179               21.45639303              -11.41896997
              33.98792892                8.46953209               82.11183911                0.00010000               -0.16665357                0.15775127               -0.69013010               -5.72648627               42.15245315              -24.87692679
              34.99132241                5.24840719               81.39891811                0.00010000                0.82071101                0.27195798               -2.92525902               -6.31748610               40.44833869              -37.97761137
              36.00434314                2.01824741               80.66506519                0.00010000                1.70501226                0.58717480               -5.20321586               -6.81442232               37.91874803              -51.79560726
              37.02542265               -1.21947538               79.90304554                0.00010000                2.49119215                1.03772850               -7.54163136               -6.85732579               34.55815863              -66.95064141
              38.05416698               -4.46103461               79.10361877                0.00010000                3.28355774                1.53456341               -9.94148641               -6.33328258               30.19958210              -83.81459529
              39.09109381               -7.70248439               78.25591837                0.00010000                4.15301624                2.00863299              -12.39043438               -5.29776789               24.67577677             -102.72163438
              40.13722731              -10.94034645               77.34718516                0.00010000                5.12196659                2.44330549              -14.86743713               -3.88780617               17.75828964             -123.94037212
              41.19353314              -14.17212273               76.36202188                0.00010000                6.03421554                2.91532605              -17.35548533               -2.14350217                9.38218786             -147.29687738
              42.25791162              -17.39291915               75.28667345                0.47488526                6.43784823                3.88992718              -19.84151683               -0.90439028                4.82258994             -171.68546694
              35.15005603               15.82378535               83.67719697                0.48991460               -0.65464094               -1.35591347                3.62726292               -0.09283940                0.10229464               13.86335611
              36.14350962               12.68300398               82.42463526                0.00010000               -0.37274078                0.04805503                0.72818950               -3.26580355               27.53574343              -11.19247943
              37.14260122                9.47464475               81.72059665                0.00010000                0.35292349                0.75329501               -1.78828915               -6.44239701               54.18721949              -23.29530852
              38.15056809                6.25642170               81.00245650                0.00010000                1.27129988                1.16701353               -4.27700953               -6.77399658               52.01908923              -35.52222284
              39.16802721                3.02949285               80.25692258                0.00010000                2.20814499                1.54762546               -6.79040358               -6.95864016               48.51145672              -48.35622939
              40.19473099               -0.20390142               79.47079410                0.00010000                3.11627376                2.00233261               -9.36109555               -6.81048393               43.67383768              -62.35078668
              41.23035269               -3.44055798               78.63067525                0.00010000                4.01248227                2.52277579              -11.99900327               -6.26139755               37.48244620              -77.94792242
              42.27498064               -6.67698906               77.72257151                0.00010000                4.92921692                3.07820138              -14.69525959               -5.34023189               29.90052241              -95.49717855
              43.32893703               -9.90986045               76.73213845                0.00010000                5.85385716                3.66055953              -17.42821438               -4.07937638               20.95325128             -115.21357122
              44.39205778              -13.13525607               75.64587853                0.00010000                6.74189475                4.34480474              -20.17089045               -2.37721996               10.83242754             -137.07162406
              45.46377492              -16.34688520               74.45344162                0.47565714                7.17171415                5.17683936              -22.90184302               -0.99784254                5.50726805             -160.92548993
              38.28295242               16.81130971               83.41709504                0.48918867               -0.44724099               -1.14732191                3.09718741               -0.09293710                0.11630979               14.11103848
              39.27848001               13.68437796               82.03916753                0.00010000                0.13554195                0.23923379               -0.10240995               -3.52766343               34.30883493              -11.03269622
              40.28566326               10.48459799               81.34504754                0.00010000                1.12571768                1.18234242               -2.85297987               -6.90563690               67.56348472              -21.58046885
              41.30099437                7.27174746               80.63466661                0.00010000                1.99150986                1.77719179               -5.55076044               -7.17764791               64.89048811              -32.24973597
              42.32549346                4.04919992               79.88991744                0.00010000                2.91347216                2.25824471               -8.26130528               -7.13439800               60.41321919              -43.55378310
              43.35926381                0.82057127               79.09301669                0.00010000                3.82666056                2.77905378              -11.02647134               -6.76666169               54.17649393              -55.97120145
              44.40202667               -2.41057910               78.22638580                0.00010000                4.71639129                3.38555479              -13.86376650               -6.09886401               46.21888753              -69.93990293
              45.45359164               -5.64092037               77.27262128                0.00010000                5.59400597                4.06496960              -16.76809615               -5.16353822               36.59731429              -85.85165110
              46.51390679               -8.86713526               76.21501524                0.00010000                6.47109249                4.79773435              -19.71810820               -3.93990048               25.45308086             -104.04223508
              47.58301348              -12.08522664               75.03893539                0.00010000                7.36531203                5.55624462              -22.68602174               -2.27167033               13.08561854             -124.76847338
              48.66121303              -15.28938236               73.73385866                0.47631569                7.81995449                6.25405534              -25.65083354               -0.96625867                6.65433014             -148.19713489
              41.40206078               17.80083892               83.15835118                0.48854817               -0.23927055               -0.95509003                2.57079272               -0.09749284                0.13388235               14.18121496
              42.39966807               14.68778866               81.65459970                0.00010000                0.75290983                0.45438006               -0.94799755               -3.71099149               42.01058085              -11.03658029
              43.41711898               11.49829160               80.98843986                0.00010000                2.13725625                1.49710323               -3.87901111               -7.20712111               82.76861288              -19.50535617
              44.44241320                8.29196554               80.30362458                0.00010000                2.96982349                2.13513364               -6.73465405               -7.43234055               79.55460417              -28.12078254
              45.47651545                5.07465775               79.57725218                0.00010000                3.83817895                2.67775887               -9.59120624               -7.15461893               74.08717718              -37.41780557
              46.51917678                1.85167965               78.78723012                0.00010000                4.66758008                3.30145920              -12.50185445               -6.52538812               66.45748883              -47.84056404
              47.56986705               -1.37284689               77.91198863                0.00010000                5.45446270                4.04310435              -15.49125415               -5.68910871               56.72628809              -59.78942332
              48.62826603               -4.59568967               76.93016547                0.00010000                6.22891209                4.87189173              -18.55875532               -4.69316624               44.95304850              -73.70587556
              49.69444529               -7.81390576               75.82105985                0.00010000                7.03027213                5.74010335              -21.68636998               -3.50025535               31.29197907              -90.10872542
              50.76887147              -11.02413118               74.56634175                0.00010000                7.91579489                6.56633599              -24.85020277               -1.97906049               16.09984429             -109.55143387
              51.85276119              -14.22180409               73.15271047                0.47708556                8.38897127                7.20172337              -28.03527353               -0.83981484                8.20777969             -132.50105907
              44.50710308               18.79220791               82.89924092                0.48746194               -0.02955811               -0.77044630                2.04133102               -0.09974772                0.16470850               14.06790070
              45.50680750               15.69346556               81.26940145                0.00010000                1.51204382                0.68478887               -1.80560002               -3.89706892               50.91210956              -11.19159020
              46.53734396               12.51454005               80.65467945                0.00010000                3.45869496                1.64651382               -4.85819742               -7.40854665              100.31327896              -16.95921548
              47.57598140                9.31445014               80.01820493                0.00010000                4.26715006                2.16448125               -7.80735248               -7.46601154               96.46221326              -22.99481498
              48.62268696                6.10275510               79.33214489                0.00010000                5.01396403                2.75124440              -10.74912022               -6.79829181               89.93367601              -29.91171096
              49.67626068                2.88660046               78.57067123                0.00010000                5.64634275                3.54355397              -13.74832023               -5.88105386               80.90509467              -37.98236105
              50.73561382               -0.32971701               77.70883943                0.00010000                6.22632520                4.46205625              -16.83599227               -4.90566256               69.40956567              -47.49003417
              51.80078719               -3.54348253               76.72088584                0.00010000                6.83646867                5.45292966              -20.01642564               -3.89591785               55.37326323              -58.88840472
              52.87234319               -6.75233319               75.58007428                0.00010000                7.52717077                6.45872490              -23.27760014               -2.79937319               38.81441613              -72.89580338
              53.95133060               -9.95389992               74.26099590                0.00010000                8.37096875                7.38272433              -26.60374980               -1.53071455               20.07594765              -90.53030612
              55.03976257              -13.14534789               72.74413057                0.47794718                8.84319628                8.03713486              -29.98954223               -0.64580200               10.27810611             -112.76770318
              47.59755051               19.78542999               82.63798849                0.48699023                0.18440395               -0.58750620                1.50151407               -0.11244152                0.23698813               13.92686285
              48.59939455               16.70148443               80.88214670                0.00010000                2.52064791                0.92691915               -2.68010088               -4.21192198               61.35669407              -11.66097380
              49.64796347               13.53122187               80.34897626                0.00010000                5.27416850                1.38609785               -5.77323234               -7.56732303              120.77422699              -13.49987990
              50.70487792               10.33525516               79.78891198                0.00010000                6.02179105                1.64594907               -8.73771159               -6.86383650              116.00422813              -16.61101528
              51.76839929                7.12968264               79.16812436                0.00010000                6.45749452                2.50498576              -11.69684320               -5.70200341              108.23245045              -21.02473080
              52.83402781                3.92255073               78.46003475                0.00010000                6.67187471                3.55031420              -14.72247047               -4.60525002               97.87355299              -26.49825017
              53.90183678                0.71639424               77.63802595                0.00010000                6.94680215                4.67173049              -17.84910535               -3.66630479               84.78060611              -33.14487351
              54.97296385               -2.48663107               76.67207959                0.00010000                7.35192137                5.81665706              -21.08469776               -2.78254493               68.55907337              -41.35260923
              56.04887521               -5.68473127               75.52745004                0.00010000                7.91540147                6.94615341              -24.42513369               -1.89032540               48.78414994              -51.90279703
              57.13127188               -8.87647669               74.16569277                0.00010000                8.69329391                7.98955961              -27.86974393               -0.96722704               25.54126679              -66.40665548
              58.22274109              -12.06106139               72.55422982                0.47857392                9.14692071                8.76505247              -31.42944636               -0.40132818               13.19100285              -87.41220446
              50.67274537               20.78045778               82.37603555                0.48529329                0.40318163               -0.39297215                0.93997341               -0.12006922               -0.29245139               12.04544936
              51.67677718               17.71200395               80.48798592                0.00010000                3.97407041                1.16779487               -3.57767883               -4.95047454               73.87869956              -10.74670094
              52.75222677               14.54226201               80.08373874                0.00010000                8.17333629               -0.26745261               -6.58741185               -6.14971279              145.04948718               -7.82820339
              53.84024391               11.34736912               79.62932788                0.00010000                8.45622735                0.83796175               -9.48213596               -4.69969362              138.14935211               -8.81834118
              54.92135132                8.15285481               79.09819065                0.00010000                7.86000870                2.13242645              -12.39027726               -3.36521273              129.01303119              -10.90553567
              55.99744408                4.95760674               78.47023274                0.00010000                7.50591036                3.46214311              -15.37903233               -2.58180470              117.64378118              -13.66198044
              57.07146953                1.76371760               77.71860764                0.00010000                7.44088551                4.75971686              -18.48084606               -1.97405074              103.40228989              -17.09162939
              58.14626179               -1.42714939               76.81016122                0.00010000                7.64563844                6.01663986              -21.70432723               -1.43302807               85.53414734              -21.42155198
              59.22438230               -4.61341012               75.70283478                0.00010000                8.10271989                7.22297206              -25.05127433               -0.89863177               62.81844564              -27.19129785
              60.30831619               -7.79410873               74.33920853                0.00010000                8.82615578                8.34824726              -28.54347375               -0.40405700               33.81125146              -35.71180118
              61.40090541              -10.97004684               72.64890215                0.47930684                9.25892228                9.32412624              -32.24058497               -0.18231239               17.66391957              -52.00643249
              53.73205680               21.77757055               82.07733673                0.74225448                0.65240351               -0.28872364                0.27502824                0.65812175                5.42194483               10.18889610
              54.73858083               18.72484033               80.11946165                0.46220209                7.87736215                1.28363843               -4.43009180               -6.40452118               91.78990371               -9.48619114
              55.88960404               15.52587282               79.88940740                0.44408837               13.08552043               -1.63891894               -7.22338785               -4.90357002              171.94889914               -4.00048218
              57.00029124               12.35201440               79.55226332                0.44026258               10.06266863                0.46452766               -9.99000325               -1.67234925              161.82491385               -4.44379453
              58.09085741                9.17233117               79.13270855                0.43896319                8.56188453                1.94763509              -12.78755280               -1.06043069              152.16431425               -5.43525387
              59.17152893                5.99179360               78.61234937                0.43969683                7.81272433                3.41868551              -15.67746931               -0.62864442              140.40067482               -6.82039987
              60.24711190                2.81158857               77.96479082                0.44333566                7.49510400                4.78709763              -18.68757968               -0.34035635              125.75618382               -8.56303469
              61.32143101               -0.36629828               77.15581516                0.44899201                7.53750058                6.08511143              -21.82240992               -0.07609786              107.29591263              -10.78986950
              62.39786191               -3.54027182               76.14022143                0.45748407                7.91982244                7.31382978              -25.08228016                0.18728821               83.49872252              -13.83488948
              63.47982746               -6.70951174               74.85357886                0.46972621                8.65545795                8.45969836              -28.49412899                0.43577500               49.94174013              -18.41438242
              64.57097107               -9.87457887               73.16287625                0.73978614                9.11436094                9.54679722              -32.20382691                0.49985330               29.99019804              -30.79941630
              23.23979962               12.29588240               85.84231271                0.75444112               -1.54106001               -1.71305404                5.82455645               -0.45745558               -6.71150155                7.17317657
              24.22438902                8.97620534               85.00129923                0.48228662               -1.65374042               -0.98424628                3.91060490               -0.67221843               -9.01352270               -5.74262696
              25.20672481                5.64493280               84.11341550                0.45698870               -1.51823218               -0.55370242                2.05071375               -0.41879974               -9.04003715                0.03082526
              26.19402437                2.29382516               83.27130548                0.44580331               -0.90448299               -0.00188767                0.23420671               -0.38009385               -6.45238995               -0.34353463
              27.18863515               -1.07358156               82.43428401                0.44026578               -0.11949930                0.55293111               -1.63628935               -0.34955846               -5.95156127               -0.19722262
              28.19163439               -4.45155483               81.60145968                0.43946061                0.73392875                1.12092364               -3.54853007               -0.34488717               -5.73783340               -0.12448733
              29.20331372               -7.83345177               80.76853468                0.44440731                1.58442720                1.68874542               -5.49594214               -0.34013817               -6.01309348               -0.02267231
              30.22332293              -11.21336347               79.93075779                0.45475829                2.36611370                2.25265261               -7.46375864               -0.33104604               -6.80917756                0.07820599
              31.25063600              -14.58741470               79.08318584                0.47110974                3.02284482                2.80428702               -9.41482778               -0.32790595               -8.39156373                0.11348874
              32.28377983              -17.95456687               78.21562664                0.49314448                3.54796089                3.34923034              -11.36567483               -0.32493555               -8.85531791                0.91719062
              33.32159521              -21.31698214               77.36119855                0.75611929                3.78153879                3.94110790              -13.32435547               -0.40814084               -8.34156563               -5.40626130
              26.55490212               13.27875186               85.50684064                0.49713479               -1.17604862               -1.83054171                5.07891032               -0.34228643                5.66255214               11.47774010
              27.54314163                9.96636288               84.66306661                0.00010000               -0.55876079               -0.64040780                3.18562440               -0.83334186               12.69853559              -10.64220465
              28.54372690                6.63939578               83.95936052                0.00010000                0.31694919               -1.04334564                1.66828141               -2.06302600               18.91446206              -14.03440840
              29.54948061                3.29380629               83.23949626                0.00010000                0.70513285               -0.75943046               -0.01761699               -3.01549212               18.56250904              -20.69433462
              30.55782956               -0.06805225               82.52915679                0.00010000                0.93200037               -0.26581654               -1.75628135               -3.57336437               19.13201011              -28.16017261
              31.56812062               -3.44034559               81.82151248                0.00010000                1.14935526                0.32127578               -3.55751978               -3.66953363               19.20261492              -36.44702412
              32.58081666               -6.81656432               81.11364636                0.00010000                1.44366556                0.90726859               -5.41029114               -3.31664559               18.89867142              -45.68776511
              33.59699393              -10.19083694               80.40094744                0.00010000                1.85709871                1.42750763               -7.27164270               -2.58125689               18.11364131              -56.06679938
              34.61795864              -13.55937183               79.67820518                0.00010000                2.41601318                1.85666163               -9.11467356               -1.56738276               16.98704320              -67.83525429
              35.64531420              -16.92107456               78.94380407                0.00010000                3.09852235                2.24977981              -10.94583748               -0.37710863               13.50703683              -81.35382198
              36.67992908              -20.27757107               78.15223120                0.49103469                3.46148879                2.58796173              -12.76502829                0.84693331               10.61330997              -99.95269423
              29.85773184               14.25927156               85.25650665                0.48616075               -1.06535851               -1.80210258                4.62108628               -0.08947567               -0.30697954               14.54737185
              30.84707826               10.96339719               84.22629718                0.00010000               -0.98554812               -0.24020789                2.30790642               -2.09636667               16.09973568              -13.62025759
              31.83802088                7.62406589               83.52375603                0.00010000               -0.29578523               -0.86171143                0.45061879               -4.95932584               31.45157885              -27.23730299
              32.84116255                4.27863655               82.80076003                0.00010000                0.66494268               -0.87247583               -1.47700387               -6.02335478               29.75113933              -40.57721981
              33.85131973                0.92110211               82.06512989                0.00010000                1.27966146               -0.48958994               -3.48369491               -6.87750332               28.35193508              -55.39632500
              34.86675578               -2.44512931               81.31575247                0.00010000                1.80762145                0.05897894               -5.56435208               -7.02191860               26.57103767              -71.73550140
              35.88747216               -5.81530640               80.54634237                0.00010000                2.38747590                0.62229737               -7.70833923               -6.42952773               24.10751254              -89.93648795
              36.91450530               -9.18481332               79.74937744                0.00010000                3.10268996                1.09038354               -9.89180194               -5.19085032               20.82494317             -110.33943031
              37.94952596              -12.55028146               78.91561290                0.00010000                3.99657965                1.43548016              -12.08835273               -3.44334026               16.26032929             -133.33989503
              38.99443689              -15.90957127               78.02818778                0.00010000                5.10004607                1.72265087              -14.27417732               -1.52121462                9.22129065             -159.64610265
              40.05152688              -19.26522291               77.05424039                0.47022465                5.70899902                2.27521849              -16.47303643                0.13414502                4.83306798             -187.62385085
              33.14486136               15.24270981               84.98137354                0.48529003               -0.84413866               -1.53310039                4.07204217               -0.09783854                0.11200713               13.71167616
              34.13641997               11.96155872               83.82816388                0.00010000               -0.77801707               -0.12020962                1.52631780               -2.79961292               21.63143402              -11.59857829
              35.12930102                8.62216155               83.10500210                0.00010000               -0.22213380                0.15444918               -0.67058204               -5.66735584               42.48849362              -25.56181398
              36.13197729                5.27635677               82.36983886                0.00010000                0.73721686                0.29014150               -2.87820316               -6.22443444               40.72907529              -39.10653371
              37.14404535                1.92215595               81.61323211                0.00010000                1.60567320                0.63276927               -5.15049883               -6.70308926               38.09623342              -53.33435395
              38.16409076               -1.43916601               80.82777990                0.00010000                2.39323798                1.10908915               -7.50442766               -6.74536463               34.62254676              -68.88845836
              39.19191011               -4.80411837               80.00425941                0.00010000                3.20306151                1.62739691               -9.93534711               -6.23703335               30.16675974              -86.15549735
              40.22815199               -8.16902927               79.13195269                0.00010000                4.09698367                2.11813975              -12.42220035               -5.23034660               24.58385896             -105.48290882
              41.27384979              -11.53066222               78.19837443                0.00010000                5.08396805                2.56881823              -14.93166207               -3.85468412               17.65580113             -127.14154196
              42.32983135              -14.88662155               77.18834415                0.00010000                6.00327378                3.05954141              -17.43124999               -2.13723111                9.31551339             -150.96281469
              43.39391526              -18.23206670               76.08828741                0.47049244                6.40839118                4.02166920              -19.89099710               -0.87606372                4.81083866             -175.81763273
              36.41807724               16.22860956               84.71322402                0.48475996               -0.64429844               -1.30822094                3.56123244               -0.10442242                0.08536619               14.25487740
              37.41163426               12.96099299               83.43187148                0.00010000               -0.41007622                0.03150364                0.71758763               -3.21492031               27.71338752              -11.38903723
              38.40987572                9.62715487               82.70285663                0.00010000                0.25226012                0.73738581               -1.75031409               -6.32732868               54.53673607              -23.94934447
              39.41667946                6.28443938               81.95990537                0.00010000                1.14525059                1.17067493               -4.21641959               -6.62283963               52.31440659              -36.58255874
              40.43278073                2.93375750               81.18921329                0.00010000                2.07216772                1.58089583               -6.73534519               -6.79411547               48.69814022              -49.79219208
              41.45812281               -0.42294753               80.37725890                0.00010000                2.99070142                2.06569280               -9.33850334               -6.65282158               43.73096359              -64.15102345
              42.49259476               -3.78275846               79.51057633                0.00010000                3.91597039                2.61181844              -12.02904735               -6.12565372               37.42479820              -80.11684348
              43.53644222               -7.14245052               78.57531051                0.00010000                4.87148991                3.18860257              -14.78623794               -5.23502629               29.77145966              -98.04951981
              44.59002456              -10.49890510               77.55739259                0.00010000                5.83272618                3.78912620              -17.57252110               -4.00644732               20.81337139             -118.17226903
              45.65309675              -13.84838044               76.44366120                0.00010000                6.74356766                4.48369442              -20.34227017               -2.33618144               10.74244662             -140.46242140
              46.72489591              -17.18478953               75.22404611                0.47103691                7.17991633                5.30881335              -23.05383065               -0.95455029                5.48629669             -164.77830993
              39.67800603               17.21654539               84.44790609                0.48340580               -0.44297855               -1.11687570                3.06160484               -0.10364926                0.10882865               14.51633093
              40.67357625               13.96218879               83.03820215                0.00010000                0.06510097                0.22228193               -0.09846862               -3.44846298               34.52278298              -11.24468286
              41.67930805               10.63690926               82.31669496                0.00010000                0.96708149                1.16397029               -2.80546430               -6.73698399               67.98107381              -22.21041766
              42.69291788                7.29977027               81.57937040                0.00010000                1.81209505                1.78310926               -5.48940552               -6.96990555               65.25600072              -33.23646608
              43.71554995                3.95377387               80.80743289                0.00010000                2.73162034                2.29661689               -8.21789110               -6.92005691               60.65968907              -44.86567908
              44.74755028                0.60214785               79.98268834                0.00010000                3.66750390                2.84938897              -11.03226369               -6.56994938               54.27712341              -57.59729994
              45.78890003               -2.75188200               79.08741495                0.00010000                4.60239079                3.48321053              -13.94241558               -5.93322346               46.18720488              -71.88573985
              46.83959810               -6.10525722               78.10431592                0.00010000                5.53753650                4.18475132              -16.92941178               -5.03364074               36.48065841              -88.13496910
              47.89965076               -9.45487970               77.01697035                0.00010000                6.46970242                4.93469677              -19.95300715               -3.84575070               25.31837105             -106.68996810
              48.96899215              -12.79694766               75.81110486                0.00010000                7.39958303                5.70495758              -22.96329408               -2.21780039               12.99849075             -127.81654322
              50.04764242              -16.12589043               74.47648760                0.47184028                7.86502736                6.40856682              -25.91609761               -0.91624069                6.63789109             -151.69262707
              42.92471744               18.20627204               84.18398240                0.48247588               -0.24163220               -0.93789750                2.56068345               -0.09331370                0.13358895               14.60762503
              43.92230112               14.96543863               82.64526389                0.00010000                0.64185614                0.43449607               -0.92448354               -3.59961225               42.29485246              -11.27497513
              44.93755456               11.65043428               81.94982844                0.00010000                1.90578114                1.48962070               -3.83093204               -6.98878866               83.31628633              -20.10223134
              45.96041674                8.32010157               81.23642816                0.00010000                2.72237241                2.16247381               -6.68461555               -7.17588014               80.04870069              -29.01440469
              46.99200201                4.97968983               80.48134033                0.00010000                3.59814777                2.74245414               -9.57344174               -6.90539601               74.44805675              -38.57384010
              48.03237970                1.63404025               79.66194275                0.00010000                4.46666705                3.39781780              -12.55046235               -6.30866006               66.65187568              -49.25034152
              49.08133535               -1.71309425               78.75645102                0.00010000                5.31937034                4.16437463              -15.63249743               -5.51420708               56.76696246              -61.46153666
              50.13876710               -5.05875549               77.74357161                0.00010000                6.17323130                5.01269251              -18.80342286               -4.56023358               44.88969233              -75.66183008
              51.20479998               -8.40021116               76.60286847                0.00010000                7.04921818                5.89631524              -22.02356982               -3.40644692               31.19412091              -92.38144216
              52.27975147              -11.73428129               75.31634843                0.00010000                7.98283284                6.73597609              -25.24339485               -1.92647076               16.03330042             -112.18580423
              53.36445664              -15.05661819               73.87095941                0.47246416                8.47051682                7.38757664              -28.42137234               -0.79018024                8.20482218             -135.55618504
              46.15780658               19.19778744               83.91974665                0.48160708               -0.03848121               -0.76656306                2.06573190               -0.09471506                0.16174211               14.49208948
              47.15742177               15.97087872               82.25151947                0.00010000                1.35313824                0.66490089               -1.77364703               -3.75234188               51.29997743              -11.44615946
              48.18486934               12.66670168               81.60624844                0.00010000                3.13614759                1.66610855               -4.81551674               -7.13905636              101.05863040              -17.50682053
              49.22014472                9.34301974               80.94017084                0.00010000                3.93170029                2.23850894               -7.77965908               -7.17591092               97.14533307              -23.76008404
              50.26350335                6.00862295               80.22446702                0.00010000                4.70082248                2.86593910              -10.76998015               -6.54181248               90.46119847              -30.86701418
              51.31416117                2.67010420               79.43264926                0.00010000                5.39541435                3.68404650              -13.85386048               -5.67434020               81.23834512              -39.12446609
              52.37141164               -0.66859451               78.53949477                0.00010000                6.06745866                4.62133324              -17.05438266               -4.74893443               69.56233533              -48.83144901
              53.43551034               -4.00500337               77.51926529                0.00010000                6.78179917                5.62676024              -20.35878245               -3.78374379               55.39695153              -60.45341746
              54.50704762               -7.33695339               76.34544288                0.00010000                7.56797095                6.64425681              -23.73035323               -2.72529104               38.77844923              -74.72144410
              55.58686976              -10.66222814               74.99289238                0.00010000                8.47324974                7.57987591              -27.12373295               -1.49139994               20.04313086              -92.66911052
              56.67651261              -13.97813890               73.44226403                0.47320943                8.96428544                8.25371234              -30.50329862               -0.60146084               10.29542389             -115.28817354
              49.37664058               20.19094078               83.65316600                0.48060098                0.16994571               -0.59362132                1.54906168               -0.09129601                0.24698607               14.33713319
              50.37834004               16.97873665               81.85564788                0.00010000                2.29959132                0.90540261               -2.63259913               -4.01958074               61.89068621              -11.94024487
              51.42263241               13.68375645               81.29132216                0.00010000                4.83186046                1.46385229               -5.74317193               -7.24534964              121.78709138              -13.95915573
              52.47497725               10.36487175               80.70142698                0.00010000                5.57244480                1.80155678               -8.74051942               -6.57806590              116.93641312              -17.19368701
              53.53408130                7.03700862               80.05073235                0.00010000                6.05665531                2.68718542              -11.76689486               -5.48336600              108.96988630              -21.72061631
              54.59611035                3.70772118               79.31194179                0.00010000                6.36914654                3.74675536              -14.89760968               -4.44613148               98.38222389              -27.31351258
              55.66146424                0.37933241               78.45812163                0.00010000                6.76703793                4.87889055              -18.15925915               -3.55451101               85.07926602              -34.09328077
              56.73145111               -2.94622029               77.45925039                0.00010000                7.30273447                6.03309541              -21.54092167               -2.70993517               68.70154365              -42.45695111
              57.80751892               -6.26732603               76.28073627                0.00010000                7.98289290                7.17004755              -25.01038522               -1.84900337               48.83598214              -53.19810301
              58.89110897               -9.58268377               74.88428016                0.00010000                8.83650071                8.21984023              -28.53227513               -0.94865105               25.55634397              -67.94873152
              59.98424894              -12.89154394               73.23733543                0.47388109                9.31399673                9.00754785              -32.08202353               -0.36514843               13.23665281              -89.28662727
              52.58038892               21.18591501               83.38577727                0.48007343                0.38255637               -0.40055842                1.02326849               -0.10492319               -0.29508693               12.39114910
              53.58421448               17.98898677               81.45250551                0.00010000                3.67191670                1.13847683               -3.52703408               -4.68060608               74.61490045              -11.02361651
              54.65382725               14.69597872               81.01787945                0.00010000                7.55583747               -0.04548701               -6.57012690               -5.85268631              146.42452484               -8.11770196
              55.73533123               11.37905088               80.53422910                0.00010000                7.85796701                1.08252811               -9.51896081               -4.49939854              139.36814545               -9.14170998
              56.81098659                8.06236666               79.97359529                0.00010000                7.37917538                2.38215522              -12.51564684               -3.24389209              129.98633097              -11.27822439
              57.88291474                4.74503931               79.31519367                0.00010000                7.16381469                3.71448274              -15.63389051               -2.50070916              118.35298403              -14.09121948
              58.95426289                1.42898330               78.53188743                0.00010000                7.25276691                5.01742981              -18.89708176               -1.92236097              103.87685050              -17.58682311
              60.02797008               -1.88434146               77.59052122                0.00010000                7.61340738                6.28131416              -22.29291607               -1.40478090               85.83311128              -21.99703891
              61.10653104               -5.19355244               76.44914502                0.00010000                8.20722881                7.49352882              -25.79183450               -0.88873733               63.00098369              -27.86985106
              62.19211465               -8.49783133               75.05028676                0.00010000                9.01994751                8.62107992              -29.37471027               -0.40348459               33.90351771              -36.53251087
              63.28692999              -11.79798794               73.32315801                0.47452554                9.48153308                9.59453748              -33.05470579               -0.15040950               17.75443330              -53.06774807
              55.76839860               22.18292961               83.08052656                0.73995515                0.62655999               -0.29853983                0.37437470                0.65862582                5.55963493               10.47103577
              56.77466420               19.00150619               81.07541898                0.45945087                7.35579838                1.25194186               -4.36174502               -5.95917317               92.87267398               -9.74222441
              57.91551457               15.68284671               80.81715930                0.44332836               12.19685685               -1.31320160               -7.21349293               -4.58046213              173.69745937               -4.11422526
              59.01860134               12.38652231               80.45193313                0.43995629                9.38502309                0.74714300              -10.05471846               -1.58273864              163.31944827               -4.58002886
              60.10321503                9.08465172               80.00386331                0.43860264                8.04390952                2.22850586              -12.96830908               -1.00272969              153.37639037               -5.59544115
              61.17947953                5.78201084               79.45390531                0.43972663                7.45913763                3.69715284              -16.01904909               -0.59205649              141.32475478               -7.00864513
              62.25239779                2.47968101               78.77543380                0.44255788                7.32058551                5.06977074              -19.22383579               -0.31675239              126.43530786               -8.78201148
              63.32589124               -0.82059401               77.93427864                0.44771327                7.54181311                6.37474549              -22.56412478               -0.06470684              107.80066105              -11.04607685
              64.40323405               -4.11745545               76.88537208                0.45558899                8.07917678                7.60969919              -26.00660329                0.18689286               83.89380169              -14.14090623
              65.48747478               -7.41026217               75.56419087                0.46610596                8.91599579                8.75691571              -29.53457992                0.42612500               50.21495958              -18.79259238
              66.58155396              -10.69965319               73.83652163                0.73759044                9.40791873                9.83347458              -33.23159527                0.52329591               30.23274258              -31.35089914
              24.02278508               12.70731342               86.89976748                0.75009358               -1.49660504               -1.66086084                5.65425753               -0.44638822               -6.80310938                7.26891827
              25.00781903                9.26013603               86.03987376                0.47705019               -1.61306373               -0.95569980                3.79389344               -0.66853187               -9.06579639               -5.83892688
              25.99052380                5.80138968               85.13373987                0.45441024               -1.47204600               -0.53797754                2.01220334               -0.40651368               -9.01824227                0.07189674
              26.97837811                2.32347285               84.27378117                0.44485037               -0.85525965               -0.00412479                0.26576333               -0.38828432               -6.41315796               -0.33366410
              27.97341861               -1.16978492               83.41846493                0.44021104               -0.09314830                0.52983092               -1.52477620               -0.35901513               -5.94690127               -0.19662331
              28.97651514               -4.67280036               82.56684139                0.43988511                0.72476463                1.08014378               -3.35577787               -0.33881261               -5.77064731               -0.12497019
              29.98791390               -8.17935033               81.71474427                0.44365168                1.53650642                1.63991499               -5.22997029               -0.33120596               -6.07365818               -0.04044766
              31.00724527              -11.68389886               80.85765425                0.45286205                2.28117282                2.18870999               -7.12041547               -0.33014560               -6.87914015                0.06185075
              32.03353736              -15.18301948               79.99092784                0.46660689                2.90678630                2.73024692               -9.00832107               -0.32708749               -8.47985947                0.07493534
              33.06538100              -18.67596313               79.10403207                0.48684753                3.40285504                3.26110351              -10.89417313               -0.31662575               -8.97234674                0.88377823
              34.10159446              -22.16527324               78.23028164                0.75157701                3.62134644                3.82764265              -12.76613500               -0.33049739               -8.49020799               -5.44987168
              27.46549858               13.69070481               86.55696411                0.49036652               -1.14030046               -1.77213717                4.93034743               -0.33974697                5.79714286               11.72364140
              28.45409558               10.25057903               85.69447104                0.00010000               -0.53541620               -0.61944832                3.08669176               -0.83310166               13.02537094              -10.80452935
              29.45479026                6.79600990               84.97577121                0.00010000                0.29934944               -1.01437989                1.60605167               -2.04906223               19.33096169              -14.39078796
              30.46008257                3.32343160               84.23923672                0.00010000                0.65874021               -0.71886499               -0.04129057               -2.97962788               18.83787211              -21.26373683
              31.46796506               -0.16448661               83.51163827                0.00010000                0.89135747               -0.22337723               -1.74994031               -3.51848937               19.32591286              -28.93216668
              32.47790972               -3.66199892               82.78611505                0.00010000                1.10930149                0.35834633               -3.51477278               -3.60879749               19.33363941              -37.41849427
              33.49015109               -7.16295118               82.05976792                0.00010000                1.39343375                0.93791293               -5.34383241               -3.26960660               19.00728517              -46.86578770
              34.50577839              -10.66201176               81.32866202                0.00010000                1.80737645                1.44716395               -7.18081949               -2.55793047               18.21719225              -57.46755559
              35.52629862              -14.15571701               80.58749019                0.00010000                2.37816146                1.86628840               -9.01398894               -1.57133178               17.10179213              -69.47663730
              36.55334162              -17.64335209               79.83492752                0.00010000                3.06504897                2.24692034              -10.81354726               -0.42536768               13.63477421              -83.23918294
              37.58759960              -21.12699682               79.02519592                0.48452073                3.42579804                2.60281373              -12.58141177                0.79710684               10.72559307             -102.10084322
              30.89624169               14.67187067               86.30212329                0.48008828               -1.03897916               -1.73803394                4.48760110               -0.09199429               -0.35105281               14.91841078
              31.88585190               11.24774706               85.24912690                0.00010000               -0.97758493               -0.23540186                2.24667510               -2.06042876               16.28340904              -13.82070294
              32.87668999                7.78110208               84.52822105                0.00010000               -0.32849146               -0.84073460                0.44683064               -4.87089795               31.82417184              -27.92956447
              33.87928207                4.30909555               83.78611864                0.00010000                0.58946759               -0.81502091               -1.43996612               -5.88816116               30.02008145              -41.67503724
              34.88847934                0.82574753               83.03051008                0.00010000                1.17608411               -0.40182247               -3.42756869               -6.71836359               28.50216850              -56.88998617
              35.90280375               -2.66563343               82.26033983                0.00010000                1.70276312                0.16239720               -5.50987219               -6.87015133               26.60899227              -73.62707523
              36.92253461               -6.16059207               81.46944451                0.00010000                2.30243716                0.72863282               -7.67074656               -6.30719255               24.05535203              -92.23332661
              37.94885250               -9.65495558               80.65051670                0.00010000                3.04582279                1.19680601               -9.88472103               -5.11120333               20.72661208             -113.07767512
              38.98345106              -13.14569371               79.79470922                0.00010000                3.96504768                1.53800152              -12.10889668               -3.42079487               16.16371821             -136.54313144
              40.02815345              -16.63102472               78.88540080                0.00010000                5.06874903                1.82498206              -14.30772054               -1.54672263                9.15645698             -163.33843995
              41.08482604              -20.11321697               77.88964632                0.46608641                5.66725940                2.39596479              -16.47882656                0.11288921                4.82605535             -191.82777637
              34.31190592               15.65594413               86.02163505                0.47941895               -0.82503207               -1.47601649                3.97049634               -0.09597562                0.10021609               14.08192181
              35.30365560               12.24587100               84.84326087                0.00010000               -0.79410496               -0.12810492                1.48877611               -2.72280257               21.79823151              -11.78149430
              36.29602382                8.77919521               84.09842747                0.00010000               -0.29908498                0.14314558               -0.63365795               -5.50638822               42.81685915              -26.19560545
              37.29767390                5.30713118               83.34135404                0.00010000                0.61514773                0.30717171               -2.79808075               -6.02503914               40.97558859              -40.14506261
              38.30832677                1.82747694               82.56205521                0.00010000                1.45861962                0.68503511               -5.06303162               -6.48625096               38.20629709              -54.75417691
              39.32684629               -1.65875098               81.75295699                0.00010000                2.25013078                1.19015504               -7.44458180               -6.53359925               34.58691793              -70.68956042
              40.35332939               -5.14837852               80.90491183                0.00010000                3.09048409                1.72708393               -9.93152799               -6.05311088               30.01148093              -88.35245064
              41.38865597               -8.63807564               80.00747436                0.00010000                4.03112417                2.23064459              -12.48965095               -5.09186945               24.36190477             -108.09654916
              42.43395187              -12.12495698               79.04855191                0.00010000                5.06372278                2.68959803              -15.06861537               -3.76870599               17.43737706             -130.19868379
              43.48993043              -15.60685245               78.01339688                0.00010000                6.01450040                3.18797581              -17.61119344               -2.10103982                9.17701120             -154.48848545
              44.55424188              -19.07907752               76.88885351                0.46632242                6.43114529                4.12826884              -20.05541677               -0.82725680                4.76536018             -179.81860213
              37.71446845               16.64235034               85.74842162                0.47819799               -0.63236818               -1.25330904                3.48719439               -0.08498955                0.08427244               14.67239424
              38.70814477               13.24518497               84.43898701                0.00010000               -0.45832028                0.01104470                0.70139508               -3.09470704               27.89878115              -11.60209257
              39.70530204                9.78396499               83.68559037                0.00010000                0.11773993                0.71113037               -1.68716526               -6.09266560               54.88584004              -24.56737274
              40.71049956                6.31523898               82.91812811                0.00010000                0.96672207                1.16820858               -4.11154329               -6.34071035               52.57696162              -37.57121647
              41.72463648                2.83944823               82.12221567                0.00010000                1.87438288                1.61411824               -6.63552087               -6.50133899               48.81037951              -51.12849135
              42.74798722               -0.64183033               81.28402404                0.00010000                2.80802822                2.13462032               -9.28911098               -6.37603423               43.67380248              -65.83253311
              43.78079705               -4.12605039               80.39009430                0.00010000                3.78031726                2.71049657              -12.06642596               -5.88492769               37.22432701              -82.15693908
              44.82359357               -7.61034268               79.42684675                0.00010000                4.80283560                3.30973926              -14.93032160               -5.04289639               29.49123219             -100.47169109
              45.87685376              -11.09190175               78.38068802                0.00010000                5.83298133                3.92732389              -17.81948473               -3.86945615               20.54159834             -121.00489531
              46.94025319              -14.56726521               77.23903313                0.00010000                6.79386419                4.63038606              -20.65810645               -2.26071106               10.57226064             -143.73528091
              48.01273104              -18.03065159               75.99236500                0.46718260                7.24778498                5.44646564              -23.37003261               -0.89046403                5.42831665             -168.52365969
              41.10453688               17.63087795               85.47832714                0.47839340               -0.43900761               -1.05997414                3.02209565               -0.09354971                0.09960331               14.95138340
              42.10014680               14.24609189               84.03719815                0.00010000               -0.02101960                0.18934332               -0.10199308               -3.29429080               34.74793298              -11.47057190
              43.10411649               10.79341782               83.28893826                0.00010000                0.76148223                1.13642459               -2.72763462               -6.43090725               68.40805724              -22.82097152
              44.11537645                7.33049535               82.52487850                0.00010000                1.56264079                1.78190123               -5.37682599               -6.61413783               65.58951257              -34.17281796
              45.13536930                3.85975930               81.72555962                0.00010000                2.47238876                2.33492934               -8.12407810               -6.56142075               60.82646566              -46.10117329
              46.16482422                0.38394143               80.87237142                0.00010000                3.43869409                2.92711154              -11.01001727               -6.24057561               54.25183430              -59.12803185
              47.20414319               -3.09416859               79.94753749                0.00010000                4.44125902                3.59464709              -14.03419312               -5.65209466               45.99666693              -73.72543782
              48.25364940               -6.57188085               78.93403305                0.00010000                5.46710409                4.32335204              -17.15809358               -4.80965278               36.19559878              -90.30920830
              49.31348527              -10.04641050               77.81595510                0.00010000                6.49083201                5.09473047              -20.31355664               -3.68333772               25.03713366             -109.23212494
              50.38346604              -13.51424473               76.57966951                0.00010000                7.48600502                5.88152112              -23.41615964               -2.12721810               12.82289939             -130.76632057
              51.46320537              -16.97014821               75.21553671                0.46740608                7.97393239                6.59736832              -26.38375707               -0.84511696                6.57995156             -155.09808308
              44.48216957               18.62115086               85.20956485                0.47703288               -0.24504936               -0.90059253                2.56102292               -0.10513293                0.13442413               15.05295807
              45.47971908               15.24897183               83.63611002                0.00010000                0.50554303                0.40332491               -0.91452823               -3.41494619               42.58905804              -11.52315493
              46.49228043               11.80669349               82.91182122                0.00010000                1.60781242                1.47460509               -3.74921327               -6.61730544               83.87345954              -20.69530485
              47.51187533                8.35087701               82.16993227                0.00010000                2.38407794                2.18771438               -6.57996384               -6.76268133               80.50988400              -29.87983411
              48.53996199                4.88614682               81.38578335                0.00010000                3.26141350                2.81317433               -9.50346147               -6.50509524               74.72226284              -39.67860445
              49.57710360                1.41671190               80.53622087                0.00010000                4.18077211                3.50853321              -12.57302177               -5.95643286               66.70774552              -50.59032502
              50.62357743               -2.05415745               79.59933868                0.00010000                5.12694139                4.30759933              -15.79444860               -5.22431196               56.63196737              -63.05200723
              51.67964243               -5.52387564               78.55409702                0.00010000                6.09867259                5.18255920              -19.12964218               -4.33604950               44.63979709              -77.53115112
              52.74555089               -8.99000714               77.38058845                0.00010000                7.09020562                6.08903142              -22.50734479               -3.24796618               30.93419424              -94.56764615
              53.82144654              -12.44963478               76.06147385                0.00010000                8.10423858                6.95154376              -25.83937369               -1.83955313               15.86935218             -114.73564304
              54.90763566              -15.89870422               74.58428302                0.46816399                8.61891201                7.63304130              -29.04276963               -0.72082550                8.15573755             -138.52699683
              47.84679228               19.61286610               84.94055555                0.47633218               -0.04870230               -0.75044148                2.09654150               -0.10292626                0.15436049               14.93994530
              48.84630526               16.25415839               83.23392851                0.00010000                1.15364633                0.63608348               -1.74461202               -3.53115731               51.69698262              -11.72157194
              49.86986521               12.82290992               82.55836911                0.00010000                2.71821160                1.68571344               -4.73876462               -6.71314905              101.81105744              -18.06298522
              50.90066949                9.37424964               81.86261175                0.00010000                3.47836505                2.32230730               -7.69653192               -6.72832371               97.78907076              -24.51796428
              51.93943251                5.91602279               81.11674529                0.00010000                4.26651724                2.99976122              -10.73985578               -6.14086680               90.89025443              -31.79466331
              52.98599983                2.45411209               80.29359402                0.00010000                5.04059920                3.85120843              -13.93822375               -5.34299856               81.41532570              -40.22139085
              54.04024449               -1.00801660               79.36775178                0.00010000                5.83891385                4.81467037              -17.30340663               -4.49028479               69.51737651              -50.11530918
              55.10277811               -4.46822967               78.31371019                0.00010000                6.70202966                5.84248078              -20.79844282               -3.59378073               55.21102129              -61.95387100
              56.17428508               -7.92462987               77.10546721                0.00010000                7.62969779                6.88058389              -24.35120837               -2.59849918               38.56081481              -76.47870624
              57.25537207              -11.37521386               75.71852124                0.00010000                8.63213288                7.83945457              -27.87300989               -1.42522241               19.90161591              -94.73443594
              58.34692774              -14.81748738               74.13406460                0.46849764                9.15556760                8.55081553              -31.28259264               -0.54095620               10.26069354             -117.72371486
              51.19752647               20.60614203               84.66896972                0.47582834                0.15256405               -0.59729482                1.61955521               -0.11510917                0.24685487               14.77080882
              52.19905211               17.26169350               82.82949472                0.00010000                2.01998649                0.88010644               -2.59399114               -3.75332596               62.43265949              -12.24109621
              53.23792620               13.84040775               82.23411282                0.00010000                4.25719393                1.55804561               -5.67695785               -6.76209406              122.80116748              -14.43789992
              54.28419599               10.39732315               81.61410159                0.00010000                4.96780019                1.98895616               -8.68855253               -6.15221106              117.81538755              -17.78410465
              55.33728220                6.94614204               80.93278647                0.00010000                5.50435129                2.90682900              -11.78880107               -5.14531107              109.58835780              -22.40720338
              56.39428301                3.49373607               80.16208256                0.00010000                5.94156477                3.98533658              -15.05827077               -4.18971503               98.70688338              -28.10433339
              57.45611350                0.04213596               79.27484077                0.00010000                6.50485343                5.13427841              -18.51191547               -3.36638005               85.14777923              -35.00600169
              58.52438008               -3.40702603               78.24126116                0.00010000                7.22257968                6.30556228              -22.11219164               -2.58215508               68.60131823              -43.51829240
              59.60056509               -6.85239546               77.02724233                0.00010000                8.07097575                7.45934624              -25.78710055               -1.77341543               48.67813597              -54.44466578
              60.68579960              -10.29284569               75.59504727                0.00010000                9.03992469                8.52721001              -29.45157553               -0.91454820               25.44633682              -69.43193620
              61.78136359              -13.72768791               73.91258935                0.46941942                9.55639879                9.34496940              -33.02908953               -0.31803064               13.22150701              -91.07789921
              54.53338716               21.60092020               84.39650091                0.47486569                0.35858597               -0.43246739                1.12640313               -0.11905903               -0.31536555               12.74789819
              55.53697301               18.27176052               82.41744524                0.00010000                3.28032598                1.12376990               -3.47270925               -4.32499511               75.35536385              -11.30233343
              56.59899367               14.85407083               81.95233620                0.00010000                6.74589815                0.23104301               -6.51659286               -5.43094376              147.78810449               -8.43029476
              57.67189098               11.41402876               81.43894867                0.00010000                7.05598477                1.38413055               -9.50035812               -4.20656332              140.50926946               -9.47605891
              58.74011337                7.97415937               80.84787771                0.00010000                6.71603189                2.68721206              -12.59510355               -3.05395515              130.80552534              -11.65116646
              59.80621162                4.53381883               80.15755493                0.00010000                6.67828082                4.02306727              -15.88098267               -2.36599345              118.83438123              -14.51092570
              60.87367899                1.09466897               79.34066601                0.00010000                6.97274090                5.33598274              -19.36847453               -1.83030098              104.07259422              -18.06522606
              61.94566643               -2.34211842               78.36430289                0.00010000                7.54787264                6.61456872              -23.01590279               -1.34930221               85.84040515              -22.55078809
              63.02463644               -5.77544295               77.18699809                0.00010000                8.33535595                7.84256978              -26.74968262               -0.86453017               62.93104695              -28.52247271
              64.11237355               -9.20466966               75.75171432                0.00010000                9.28075671                8.98369399              -30.49302814               -0.39837701               33.84462186              -37.31925413
              65.21025157              -12.63058799               73.98780804                0.46980379                9.78780210                9.96819135              -34.19306571               -0.11179295               17.77013337              -54.06691344
              57.85346466               22.59749268               84.08482422                0.73692324                0.59369159               -0.34275182                0.50725218                0.67537219                5.71910842               10.74818592
              58.85940158               19.28416890               82.03222675                0.45676910                6.67872084                1.24083837               -4.28592400               -5.38034729               93.95905480               -9.97907502
              59.98703908               15.84502861               81.74513755                0.44287376               11.02873067               -0.90422193               -7.16098180               -4.15361659              175.39575450               -4.24666351
              61.07997619               12.42500576               81.35116895                0.43984235                8.46869809                1.09769995              -10.05895546               -1.44859524              164.69379197               -4.72504725
              62.15641304                8.99988629               80.87334237                0.43870486                7.32386779                2.57269185              -13.10174170               -0.91045059              154.37522089               -5.75987079
              63.22645355                5.57419741               80.29196839                0.43948445                6.95158433                4.03785881              -16.35744012               -0.52734043              141.95379155               -7.19538628
              64.29544473                2.14885562               79.58031410                0.44209000                7.05262046                5.41866492              -19.82734906               -0.27002946              126.76469807               -8.99430131
              65.36750596               -1.27473465               78.70453266                0.44641721                7.51904992                6.73837667              -23.46067181               -0.03603206              107.94375590              -11.29074395
              66.44582572               -4.69554407               77.62008936                0.45328939                8.27355744                7.98988806              -27.17700005                0.19707059               83.97149648              -14.43012264
              67.53297710               -8.11317181               76.26288726                0.46247759                9.25693397                9.14978436              -30.89832742                0.42135416               50.28823068              -19.14606965
              68.63096440              -11.52832409               74.49824435                0.73512365                9.79873000               10.22639066              -34.62158077                0.55605552               30.36488845              -31.84820771
              24.82352486               13.12686749               87.95539786                0.74602711               -1.44241642               -1.59986159                5.45545571               -0.43290005               -6.88557635                7.34958640
              25.80910069                9.55023224               87.07717710                0.47224960               -1.55361517               -0.92130826                3.65531850               -0.65384534               -9.09072484               -5.92584388
              26.79245255                5.96230806               86.15365957                0.45243112               -1.40322693               -0.52092240                1.96373171               -0.38678174               -8.94786074                0.10699643
              27.78103615                2.35624079               85.27662075                0.44385896               -0.79078263               -0.00467116                0.30380944               -0.37495401               -6.32649056               -0.32456560
              28.77663690               -1.26386070               84.40378849                0.43969288               -0.05470277                0.51199674               -1.40023396               -0.35885840               -5.88261075               -0.19828885
              29.77994210               -4.89260154               83.53434413                0.43944780                0.71954012                1.03876241               -3.13539923               -0.35020043               -5.73851674               -0.13172624
              30.79102770               -8.52430802               82.66393527                0.44338262                1.48072295                1.57277100               -4.90828415               -0.33825459               -6.07702994               -0.05344911
              31.80955656              -12.15414201               81.78834948                0.45078528                2.18166384                2.10915022               -6.70820410               -0.33073924               -6.91063633                0.03679341
              32.83466098              -15.77904070               80.90301942                0.46308293                2.77112667                2.63547461               -8.52004544               -0.32020932               -8.52838099                0.04413213
              33.86497909              -19.39868220               79.99774318                0.48051385                3.23154706                3.14552442              -10.30322077               -0.30588566               -9.02689318                0.84515287
              34.89929192              -23.01580814               79.10587585                0.74732391                3.43128300                3.68555248              -12.08661670               -0.25137122               -8.56338543               -5.47533591
              28.39583111               14.11086888               87.60544759                0.48367451               -1.09891556               -1.69493236                4.75254972               -0.32603646                5.92028721               11.95458663
              29.38484195               10.54101916               86.72480045                0.00010000               -0.51253234               -0.60194685                2.97086601               -0.81110260               13.32952881              -10.94956022
              30.38558046                6.95709884               85.99148155                0.00010000                0.27645212               -0.97448630                1.53063731               -1.98825307               19.70748825              -14.70457002
              31.39037100                3.35619408               85.23867045                0.00010000                0.59445102               -0.66111536               -0.07552495               -2.88002875               19.08941288              -21.76459881
              32.39746948               -0.25874073               84.49415798                0.00010000                0.81463804               -0.16269296               -1.75049735               -3.39514919               19.50417699              -29.61615678
              33.40666376               -3.88221392               83.75121703                0.00010000                1.04729537                0.40443935               -3.47742789               -3.48902413               19.43168670              -38.29982215
              34.41841539               -7.50858031               83.00676971                0.00010000                1.34758733                0.95955885               -5.25766118               -3.17309739               19.04573001              -47.95394794
              35.43361550              -11.13305050               82.25733105                0.00010000                1.76567960                1.44814243               -7.07496060               -2.49446805               18.24932812              -58.78120187
              36.45372898              -14.75268595               81.49792540                0.00010000                2.33442257                1.84174414               -8.87727905               -1.54606037               17.15404767              -71.03120990
              37.48030395              -18.36722695               80.72753312                0.00010000                3.00875832                2.19363843              -10.64337082               -0.43084103               13.72131461              -85.04419258
              38.51390415              -21.97895261               79.90060296                0.47829087                3.36001938                2.51860537              -12.34057580                0.84068588               10.83036366             -104.15546079
              31.95670357               15.09296884               87.34625867                0.47471906               -1.00548892               -1.64094832                4.33031741               -0.08840784               -0.39684218               15.28796941
              32.94664868               11.53819330               86.27123068                0.00010000               -0.95954964               -0.24752196                2.16464323               -1.97001395               16.46372314              -14.00647927
              33.93751257                7.94281834               85.53269265                0.00010000               -0.36867627               -0.81093622                0.45514246               -4.66051292               32.19359913              -28.53477779
              34.93927515                4.34301848               84.77196071                0.00010000                0.48146697               -0.73740150               -1.37527705               -5.62212848               30.25531045              -42.63386033
              35.94714191                0.73288544               83.99657851                0.00010000                1.03630230               -0.29462226               -3.33912170               -6.42161849               28.58372959              -58.20473725
              36.96000120               -2.88451276               83.20555503                0.00010000                1.56302149                0.27862478               -5.42862876               -6.58467733               26.54883856              -75.32671028
              37.97840234               -6.50511684               82.39292744                0.00010000                2.18858193                0.83815701               -7.62333561               -6.07297180               23.88439960              -94.34486182
              39.00377284              -10.12517916               81.55168302                0.00010000                2.97569394                1.28800974               -9.88443952               -4.94772349               20.49454982             -115.63772445
              40.03791622              -13.74220581               80.67343496                0.00010000                3.94280478                1.60356227              -12.16182076               -3.33422197               15.93815252             -139.58411472
              41.08262893              -17.35480943               79.74203337                0.00010000                5.08203676                1.86016852              -14.39351966               -1.52320943                8.99819552             -166.88034817
              42.13955696              -20.96543603               78.72466385                0.46209043                5.69280246                2.38975931              -16.54611598                0.15759278                4.77213125             -195.91251721
              35.50361404               16.07804991               87.06078346                0.47396411               -0.80218556               -1.38017477                3.84846871               -0.10170252                0.08428493               14.47244285
              36.49559218               12.53606872               85.85793940                0.00010000               -0.80345054               -0.15897238                1.43849548               -2.56886719               21.97167468              -11.96665592
              37.48754503                8.94088012               85.09232894                0.00010000               -0.38654289                0.12391438               -0.56819248               -5.18419118               43.16019050              -26.76219166
              38.48786132                5.34144605               84.31387724                0.00010000                0.45116622                0.32360564               -2.66548051               -5.65975261               41.19792384              -41.06190764
              39.49656835                1.73536682               83.51197148                0.00010000                1.25555874                0.73989088               -4.91850024               -6.10684945               38.24137903              -56.01510137
              40.51297250               -1.87664142               82.67888826                0.00010000                2.05270035                1.27500673               -7.34098178               -6.17324785               34.42734540              -72.31103634
              41.53762236               -5.49181717               81.80562885                0.00010000                2.93887525                1.82969739               -9.91251794               -5.73963229               29.69433310              -90.36622733
              42.57175000               -9.10729031               80.88215967                0.00010000                3.95262281                2.33680654              -12.58318840               -4.84486141               23.96168932             -110.53770057
              43.61667481              -12.72061470               79.89700212                0.00010000                5.06599892                2.78998127              -15.27701449               -3.59896741               17.05555848             -133.09942710
              44.67306998              -16.33002358               78.83612028                0.00010000                6.08171957                3.27253684              -17.90320428               -2.01533370                8.93555593             -157.87679653
              45.73830920              -19.93115742               77.68717907                0.46252824                6.52392237                4.17450515              -20.35386938               -0.75130769                4.67425179             -183.70183791
              39.03863190               17.06536535               86.78296791                0.47319385               -0.61907724               -1.18100429                3.41023976               -0.10304796                0.06978502               15.11582564
              40.03244113               13.53501386               85.44589938                0.00010000               -0.50902391               -0.02071863                0.67187538               -2.88685581               28.09991368              -11.83119245
              41.02845142                9.94529663               84.66911332                0.00010000               -0.04238674                0.66894352               -1.58253084               -5.66397172               55.27108698              -25.13877916
              42.03159339                6.34949059               83.87767450                0.00010000                0.73204862                1.15318492               -3.93645263               -5.86939609               52.82525388              -38.46264220
              43.04309239                2.74768326               83.05650287                0.00010000                1.60634220                1.64079538               -6.46081758               -6.02426076               48.84519603              -52.33172599
              44.06372024               -0.85901262               82.19147668                0.00010000                2.55830954                2.20158996               -9.18401964               -5.92847744               43.47797306              -67.35988367
              45.09425858               -4.46852290               81.26924781                0.00010000                3.59764528                2.80910171              -12.08825516               -5.49405102               36.83880221              -84.03592100
              46.13567314               -8.07844303               80.27670408                0.00010000                4.72057806                3.42993291              -15.11433909               -4.72704144               29.00671648             -102.73792648
              47.18867014              -11.68640619               79.20100289                0.00010000                5.85959180                4.05960409              -18.16882751               -3.64167510               20.08588655             -123.69644539
              48.25286498              -15.28935869               78.03049907                0.00010000                6.90641714                4.76543953              -21.13305314               -2.13705977               10.28774757             -146.88841665
              49.32679849              -18.88194592               76.75664545                0.46281440                7.39335106                5.56936581              -23.88031737               -0.79883147                5.31734831             -172.17665512
              42.56225606               18.05442982               86.50834801                0.47213653               -0.43322778               -1.01312814                2.98064047               -0.09336415                0.09480717               15.42466642
              43.55792379               14.53565435               85.03616229                0.00010000               -0.12336066                0.16156600               -0.10964917               -3.03930271               35.00979573              -11.72824708
              44.55978885               10.95425899               84.26214227                0.00010000                0.50814898                1.09003492               -2.60097410               -5.91972575               68.88866053              -23.40408954
              45.56808677                7.36450975               83.47183388                0.00010000                1.23987488                1.76405199               -5.18190182               -6.05086753               65.91761890              -35.04045973
              46.58458635                3.76818273               82.64495133                0.00010000                2.12611693                2.36244101               -7.94401382               -6.00265436               60.91485135              -47.23511482
              47.61060911                0.16739038               81.76248799                0.00010000                3.12926966                3.00118862              -10.92562626               -5.72794153               54.07815556              -60.53552599
              48.64717174               -3.43563514               80.80673108                0.00010000                4.22416795                3.70871060              -14.11252855               -5.21210294               45.60489334              -75.43219203
              49.69509246               -7.03869165               79.76115405                0.00010000                5.37926160                4.46936848              -17.44027259               -4.45736755               35.68800187              -92.35217651
              50.75475697              -10.63942262               78.61069921                0.00010000                6.53880287                5.26649934              -20.80279797               -3.42931271               24.55641174             -111.65404972
              51.82586852              -14.23471479               77.34278167                0.00010000                7.63750339                6.07564037              -24.06731723               -1.98842616               12.52433693             -133.61385082
              52.90750704              -17.81977011               75.94881246                0.46333207                8.16385206                6.81299565              -27.09650952               -0.74780405                6.46424987             -158.42344782
              46.07431557               19.04510279               86.23520286                0.47228137               -0.24896631               -0.86241781                2.57140993               -0.09117082                0.12812564               15.52805145
              47.07182591               15.53824518               84.62697333                0.00010000                0.34429665                0.37041178               -0.91495094               -3.11906949               42.93027184              -11.79326503
              48.08120151               11.96709732               83.87484418                0.00010000                1.24131933                1.44456941               -3.61214666               -6.04275701               84.49874005              -21.28105598
              49.09665230                8.38477163               83.10482888                0.00010000                1.94785844                2.19906960               -6.38595100               -6.13510244               80.96949875              -30.70616845
              50.12015867                4.79493208               82.29127110                0.00010000                2.81634887                2.87719179               -9.34137376               -5.90103299               74.91457558              -40.71551903
              51.15297927                1.20101115               81.41048231                0.00010000                3.79699393                3.62121587              -12.53193940               -5.42143392               66.60416826              -51.84104836
              52.19609855               -2.39434868               80.44056205                0.00010000                4.86670013                4.46161770              -15.94851560               -4.77977767               56.27921179              -64.54128634
              53.25031328               -5.98905566               79.36097876                0.00010000                6.00042388                5.37233610              -19.52392482               -3.99023254               44.14893988              -79.29685709
              54.31610703               -9.58107620               78.15272157                0.00010000                7.15653314                6.31206101              -23.14445334               -3.00471679               30.45888811              -96.65545884
              55.39344394              -13.16784588               76.79956095                0.00010000                8.29230052                7.21122594              -26.66850249               -1.70868196               15.57334268             -117.19666440
              56.48195304              -16.74568601               75.29010402                0.46405680                8.85091019                7.94252948              -29.95367131               -0.62737660                8.04389534             -141.41937376
              49.57414787               20.03718147               85.96167748                0.47095312               -0.06000118               -0.73455954                2.13682894               -0.10128296                0.16092701               15.40747780
              50.57354786               16.54306258               84.21662723                0.00010000                0.91296909                0.60764109               -1.72078493               -3.20034341               52.14374041              -12.00958803
              51.59240725               12.98315037               83.51147315                0.00010000                2.20010516                1.69670202               -4.60388713               -6.08620322              102.62833209              -18.63025391
              52.61754996                9.40849114               82.78624020                0.00010000                2.89594597                2.40405523               -7.52049569               -6.07323753               98.42875414              -25.26417064
              53.65032617                5.82572657               82.00966990                0.00010000                3.69556149                3.14000226              -10.61614076               -5.54838106               91.22717428              -32.68623261
              54.69146119                2.23981469               81.15388478                0.00010000                4.56584130                4.03312276              -13.96163134               -4.84574534               81.41494287              -41.26178436
              55.74164300               -1.34640278               80.19342664                0.00010000                5.52770689                5.03234169              -17.55347988               -4.09584767               69.23120102              -51.32936078
              56.80201533               -4.93124493               79.10329644                0.00010000                6.59049334                6.09384062              -21.32279343               -3.30079904               54.75910850              -63.37859765
              57.87345286               -8.51318140               77.85841871                0.00010000                7.71446817                7.16629883              -25.15027713               -2.40284202               38.10645725              -78.15925152
              58.95630469              -12.09049027               76.43543218                0.00010000                8.85934509                8.16651522              -28.88815813               -1.32466796               19.61578240              -96.72202144
              60.05063977              -15.66091952               74.81661218                0.46460475                9.43350735                8.94203219              -32.39068715               -0.46083079               10.15664869             -120.07484675
              53.06052769               21.03041160               85.68555710                0.47059497                0.13224472               -0.60814976                1.70685344               -0.09910562                0.25009034               15.22358072
              54.06185013               17.55039800               83.80376806                0.00010000                1.67605988                0.85727444               -2.55523614               -3.37208067               63.01885435              -12.55543288
              55.09404888               14.00103137               83.17778300                0.00010000                3.53806094                1.65988639               -5.55027842               -6.09332968              123.87341087              -14.94181374
              56.13261135               10.43285274               82.52765592                0.00010000                4.19093058                2.19856027               -8.54221358               -5.54370447              118.67847124              -18.38324753
              57.17786750                6.85773213               81.81495633                0.00010000                4.77911820                3.15304323              -11.71807052               -4.65072306              110.09310117              -23.08233746
              58.22819372                3.28167361               81.01077637                0.00010000                5.36868633                4.25601343              -15.16331908               -3.80405508               98.82342302              -28.86587310
              59.28524122               -0.29370185               80.08788332                0.00010000                6.14410990                5.43041165              -18.87714310               -3.07643230               84.93799156              -35.87686980
              60.35107591               -3.86717884               79.01700656                0.00010000                7.10271552                6.63081004              -22.78698878               -2.38088049               68.19673327              -44.53050319
              61.42729553               -7.43775022               77.76499426                0.00010000                8.18063902                7.81662399              -26.76828032               -1.65245253               48.25083666              -55.63741015
              62.51468869              -11.00451558               76.29524864                0.00010000                9.31496921                8.92169330              -30.66904955               -0.86013441               25.17282351              -70.85213374
              63.61359492              -14.56684537               74.57675364                0.46490920                9.89062221                9.79691563              -34.34052275               -0.25770635               13.12670725              -92.78065512
              56.53219296               22.02501847               85.40830533                0.46989617                0.32935204               -0.45824427                1.25271340               -0.10863845               -0.31724816               13.12599170
              57.53548648               18.56020807               83.38305132                0.00010000                2.79464808                1.09818365               -3.41370897               -3.84942623               76.13926966              -11.60412567
              58.58808592               15.01634810               82.88754759                0.00010000                5.72443182                0.56396904               -6.39945081               -4.86535762              149.19468163               -8.76789524
              59.64997511               11.45246234               82.34422194                0.00010000                6.02024626                1.73640286               -9.38500613               -3.79498324              141.61014361               -9.82493214
              60.70849084                7.88878743               81.72169322                0.00010000                5.84194773                3.03964319              -12.58241290               -2.77374317              131.47160906              -12.02512252
              61.76681407                4.32493496               80.99757402                0.00010000                6.02379806                4.38012881              -16.07809280               -2.15960369              119.05661914              -14.92011610
              62.82896680                0.76220545               80.14451794                0.00010000                6.58160133                5.71003210              -19.86499530               -1.68387188              103.93200286              -18.52469212
              63.89844609               -2.79862873               79.13020317                0.00010000                7.43868722                7.01552134              -23.86293865               -1.25695937               85.48410339              -23.08028809
              64.97774055               -6.35684892               77.91415136                0.00010000                8.48755273                8.27548939              -27.94043278               -0.82069156               62.53939873              -29.14676933
              66.06819715               -9.91205641               76.44042619                0.00010000                9.62023345                9.44930678              -31.94381806               -0.38682859               33.59022718              -38.06925785
              67.17014522              -13.46498121               74.63929669                0.46548087               10.19480690               10.46777035              -35.73036245               -0.06534785               17.68891609              -54.99615288
              59.98797572               23.02124671               85.09067160                0.73445516                0.55562560               -0.37717622                0.67356914                0.68977270                5.87920566               11.06359211
              60.99353198               19.57236167               82.98970050                0.45424529                5.82558679                1.21536002               -4.21100454               -4.64224792               95.09803984              -10.25822774
              62.10448746               16.01231075               82.67393966                0.44217607                9.53701898               -0.40373567               -7.03462541               -3.59888957              177.12175377               -4.39267544
              63.18427236               12.46758080               82.25075402                0.43959619                7.27162768                1.51184528               -9.95859227               -1.25956322              165.97777174               -4.88519268
              64.24992001                8.91852499               81.74182848                0.43881197                6.36556331                2.97375573              -13.13907130               -0.77231364              155.15325944               -5.93175148
              65.31158362                5.36927618               81.12675651                0.43945692                6.26037319                4.43412200              -16.64881338               -0.42435413              142.24302456               -7.38280158
              66.37512748                1.82049879               80.37888682                0.44143318                6.67037378                5.82933410              -20.46767134               -0.19116281              126.67113579               -9.20068319
              67.44499110               -1.72686842               79.46506521                0.44521059                7.45909516                7.17603101              -24.50264462                0.01753930              107.63652451              -11.52341867
              68.52430938               -5.27224044               78.34183208                0.45121890                8.50466526                8.46084863              -28.61143950                0.22383186               83.64618901              -14.70076315
              69.61508441               -8.81552944               76.94622432                0.45915083                9.69140899                9.65269625              -32.63446476                0.42624955               50.10446514              -19.47116320
              70.71813756              -12.35748996               75.14409001                0.73286792               10.30531535               10.74912447              -36.45276919                0.60318248               30.35498735              -32.28020192
              25.64151508               13.55420568               89.00887659                0.74225722               -1.37722587               -1.52699565                5.22249047               -0.41496890               -6.95962343                7.41713735
              26.62774282                9.84637246               88.11298013                0.46739608               -1.46960711               -0.88382084                3.49431439               -0.62506484               -9.09127323               -6.00380579
              27.61212294                6.12788565               87.17301451                0.45024803               -1.30117203               -0.50002164                1.90534480               -0.37980847               -8.82875435                0.13683500
              28.60171938                2.39288213               86.27985736                0.44311884               -0.70399609               -0.00824667                0.34489545               -0.37126522               -6.18106090               -0.31898932
              29.59804302               -1.35448969               85.39046025                0.43929900               -0.00606797                0.48899112               -1.25448400               -0.35723988               -5.75651215               -0.19976774
              30.60159802               -5.10918069               84.50413341                0.43925394                0.71624656                0.99744197               -2.88295195               -0.34655430               -5.63739341               -0.13803474
              31.61236795               -8.86608818               83.61657859                0.44261187                1.41751869                1.50658793               -4.53852599               -0.33889856               -6.01251206               -0.06497661
              32.62994840              -12.62112611               82.72349016                0.44936956                2.06040491                2.01567814               -6.22522113               -0.32694397               -6.88518560                0.00877869
              33.65357605              -16.37194879               81.82052693                0.45964002                2.60191522                2.51920425               -7.92568038               -0.31554717               -8.51844820                0.01745154
              34.68198670              -20.11863996               80.89796766                0.47452283                3.02426792                3.01138291               -9.60933161               -0.30390426               -9.04640860                0.79336167
              35.71406140              -23.86423418               79.98854930                0.74332206                3.20747042                3.53401442              -11.32026452               -0.15884232               -8.62893054               -5.48061819
              29.34519862               14.53893573               88.65201511                0.47704212               -1.05464264               -1.59557473                4.54731918               -0.29785990                6.03489942               12.17589077
              30.33465219               10.83753425               87.75388836                0.00010000               -0.50643011               -0.59469682                2.83816730               -0.75503655               13.61344361              -11.08331540
              31.33507002                7.12288543               87.00638395                0.00010000                0.22711016               -0.91632527                1.44471926               -1.85127909               20.04072709              -14.96239317
              32.33919440                3.39279966               86.23772622                0.00010000                0.52160038               -0.58352895               -0.11517427               -2.68510888               19.27674228              -22.17114800
              33.34550203               -0.34959978               85.47662832                0.00010000                0.73686635               -0.08355125               -1.75652343               -3.17446649               19.61710745              -30.17876687
              34.35393172               -4.09920627               84.71656649                0.00010000                0.97248248                0.46709090               -3.45106449               -3.27944712               19.48913633              -39.04613551
              35.36495168               -7.85102230               83.95461469                0.00010000                1.28387698                0.98698659               -5.18342507               -3.00182024               19.04211983              -48.91929954
              36.37960926              -11.60096933               83.18716281                0.00010000                1.71129119                1.42937122               -6.94937395               -2.37234401               18.21441348              -59.98924376
              37.39917750              -15.34675675               82.40994461                0.00010000                2.27405433                1.77480335               -8.70622684               -1.46345385               17.13256053              -72.49990464
              38.42509035              -19.08852613               81.62206010                0.00010000                2.94448500                2.07105594              -10.44057817               -0.36177577               13.74713135              -86.78024668
              39.45806720              -22.82889403               80.77838440                0.47268133                3.29768488                2.30953783              -12.09004546                1.01052402               10.89272109             -106.11904227
              33.03836084               15.52229419               88.38872963                0.46937219               -0.96684519               -1.51259883                4.15513007               -0.07751135               -0.44963677               15.66228027
              34.02869239               11.83447852               87.29241976                0.00010000               -0.92644499               -0.28325355                2.07135448               -1.79218158               16.65177647              -14.18982783
              35.01983194                8.10955914               86.53732390                0.00010000               -0.40949898               -0.76773629                0.48361727               -4.25236004               32.57810025              -29.02023581
              36.02050241                4.38121155               85.75861310                0.00010000                0.33638363               -0.63102138               -1.27000998               -5.14622108               30.46509455              -43.39817584
              37.02655962                0.64383928               84.96372765                0.00010000                0.84645949               -0.15748337               -3.20281587               -5.92045544               28.59399304              -59.27650597
              38.03743160               -3.09983887               84.15176726                0.00010000                1.37674957                0.41564550               -5.30436122               -6.11918154               26.37030201              -76.76158271
              39.05409461               -6.84634845               83.31697780                0.00010000                2.04021829                0.94994323               -7.54832750               -5.68534271               23.56018946              -96.21026103
              40.07823597              -10.59253869               82.45282791                0.00010000                2.88845816                1.35593155               -9.88511456               -4.65985268               20.09228021             -117.98310907
              41.11186377              -14.33645273               81.55147280                0.00010000                3.93262506                1.61216493              -12.24638158               -3.13776125               15.54881151             -142.45796005
              42.15688847              -18.07721884               80.59753041                0.00010000                5.15719597                1.78360210              -14.53987962               -1.41082266                8.72829498             -170.29271450
              43.21500769              -21.81804342               79.55872400                0.45822623                5.81192216                2.18990779              -16.68849204                0.29464873                4.67299903             -199.89695885
              36.71927973               16.50868375               88.09860442                0.46897555               -0.77361202               -1.25959385                3.70856103               -0.09943887                0.07004266               14.87545300
              37.71154361               12.83186918               86.87203078                0.00010000               -0.79949726               -0.20701444                1.37353548               -2.29239064               22.18080409              -12.16030707
              38.70328979                9.10753070               86.08706362                0.00010000               -0.47768915                0.09084705               -0.45716281               -4.62866154               43.55938183              -27.23510190
              39.70198983                5.38017923               85.28804443                0.00010000                0.24267736                0.34089755               -2.45451871               -5.05837320               41.41728064              -41.81049121
              40.70814334                1.64725055               84.46368521                0.00010000                0.98729979                0.79972894               -4.68663580               -5.49469910               38.20260368              -57.06058441
              41.72173583               -2.09089336               83.60613735                0.00010000                1.79006526                1.36055667               -7.16384014               -5.59519226               34.12507202              -73.69657400
              42.74394464               -5.83202344               82.70666147                0.00010000                2.73903318                1.92387036               -9.85436364               -5.23531245               29.17954414              -92.14613031
              43.77651649               -9.57385070               81.75581059                0.00010000                3.85788942                2.42215484              -12.68756807               -4.43765869               23.33566624             -112.76902400
              44.82110243              -13.31451345               80.74301162                0.00010000                5.09740516                2.84624872              -15.55593675               -3.30453329               16.46250977             -135.82626009
              45.87846459              -17.05285409               79.65533279                0.00010000                6.22534523                3.27619586              -18.32281542               -1.85526544                8.55798918             -161.13536404
              46.94560933              -20.78509588               78.48177612                0.45878625                6.71447408                4.11126698              -20.81880889               -0.63530105                4.52078375             -187.50599362
              40.39000121               17.49710231               87.81662641                0.46822263               -0.60035872               -1.07737107                3.31536046               -0.10017189                0.05265577               15.57172841
              41.38399763               13.83033823               86.45242452                0.00010000               -0.55262795               -0.07080894                0.62919152               -2.53606944               28.35837424              -12.07134381
              42.37894866               10.11137608               85.65393975                0.00010000               -0.21912653                0.60372365               -1.41493884               -4.96902049               55.75166122              -25.64379873
              43.37961510                6.38802950               84.83939906                0.00010000                0.43947847                1.11762729               -3.65591419               -5.13061407               53.09265876              -39.21946381
              44.38773822                2.65983386               83.99299932                0.00010000                1.25933243                1.65191112               -6.17073146               -5.28941744               48.81189230              -53.35480219
              45.40480175               -1.07262773               83.10034364                0.00010000                2.23037381                2.25593193               -8.98390861               -5.24165735               43.12869007              -68.68355975
              46.43234570               -4.80787104               82.14832920                0.00010000                3.35855326                2.89483838              -12.06241769               -4.89187486               36.23227349              -85.70891845
              47.47197281               -8.54409559               81.12455997                0.00010000                4.62153967                3.53258149              -15.31967505               -4.23659436               28.26789354             -104.81430525
              48.52477649              -12.27952775               80.01731147                0.00010000                5.91963874                4.16516377              -18.62074448               -3.28579401               19.39451121             -126.22981998
              49.59036559              -16.01169492               78.81637207                0.00010000                7.10043758                4.86352296              -21.79019942               -1.94576926                9.85392110             -149.92714348
              50.66678525              -19.73581808               77.51475866                0.45916097                7.64196607                5.65100732              -24.63145638               -0.67134336                5.13717952             -175.76824826
              44.05080446               18.48713633               87.53793995                0.46765793               -0.42560019               -0.93599474                2.93573263               -0.10883651                0.09290923               15.92011354
              45.04654846               14.83045300               86.03500517                0.00010000               -0.22931750                0.11516792               -0.13083214               -2.64227919               35.34428612              -12.00453424
              46.04621811               11.11960518               85.23691878                0.00010000                0.21856543                1.01827015               -2.39767257               -5.12350973               69.49255405              -23.94747354
              47.05091977                7.40253178               84.42124046                0.00010000                0.83970565                1.71589104               -4.86322973               -5.20465566               66.28433507              -35.81161902
              48.06301222                3.68028878               83.56667934                0.00010000                1.68439086                2.36420013               -7.63002117               -5.17223240               60.94127130              -48.23124260
              49.08460758               -0.04577472               82.65385889                0.00010000                2.72813884                3.05609368              -10.73316678               -4.96605880               53.74559209              -61.78078625
              50.11757500               -3.77412667               81.66528691                0.00010000                3.94168656                3.80961561              -14.14070499               -4.55524174               44.97811000              -76.96969110
              51.16344131               -7.50319907               80.58522759                0.00010000                5.27054419                4.60702075              -17.75572342               -3.92973122               34.90840972              -94.23556013
              52.22298588              -11.23121018               79.39989914                0.00010000                6.61991117                5.43459673              -21.42385138               -3.05072981               23.82418239             -113.94077390
              53.29583954              -14.95558363               78.09832316                0.00010000                7.87214490                6.27381675              -24.94837593               -1.78500976               12.06728554             -136.36275239
              54.38042878              -18.67207573               76.67360652                0.45951031                8.45892433                7.04633305              -28.11601138               -0.61710089                6.27355034             -161.69585777
              47.70119115               19.47838242               87.26099305                0.46741111               -0.25079499               -0.82374596                2.57421294               -0.10874011                0.10748460               16.03283451
              48.69868320               15.83264159               85.61781101                0.00010000                0.16042657                0.33594501               -0.91476030               -2.69025000               43.35335206              -12.09232337
              49.70439968               12.13174148               84.83957829                0.00010000                0.80775926                1.38804201               -3.39116902               -5.18467470               85.27062614              -21.85142776
              50.71483838                8.42234732               84.04221325                0.00010000                1.41001980                2.18037032               -6.05635744               -5.22477818               81.47870270              -31.47545202
              51.73260008                4.70711787               83.19895587                0.00010000                2.25288150                2.91620609               -9.03475540               -5.02669999               75.04656354              -41.65980911
              52.75989601                0.98849414               82.28558208                0.00010000                3.30325714                3.71785323              -12.37716938               -4.64311109               66.33387945              -52.97472540
              53.79866522               -2.73167873               81.28036837                0.00010000                4.52828411                4.61007896              -16.05546876               -4.12837263               55.67665719              -65.90262529
              54.85046170               -6.45195518               80.16361852                0.00010000                5.87406204                5.56848276              -19.96619663               -3.48150979               43.36834563              -80.93743334
              55.91614646              -10.17083582               78.91769938                0.00010000                7.25346248                6.55612941              -23.94181194               -2.64854083               29.71625775              -98.63284667
              56.99553094              -13.88621859               77.52810380                0.00010000                8.56404863                7.51208282              -27.77073002               -1.52004477               15.10969871             -119.57049280
              58.08742743              -17.59489142               75.98520960                0.46018996                9.18964864                8.32208964              -31.22922695               -0.50368594                7.85182256             -144.25227361
              51.34011131               20.47066141               86.98329213                0.46639674               -0.07269218               -0.71983133                2.19560378               -0.10319017                0.16932615               15.90238331
              52.33938439               16.83717190               85.19951281                0.00010000                0.63537848                0.57595826               -1.70635420               -2.73876490               52.68395265              -12.32473425
              53.35281888               13.14736602               84.46629137                0.00010000                1.58317137                1.68777793               -4.37757622               -5.19629216              103.59710797              -19.20549501
              54.37104782                9.44613919               83.71220184                0.00010000                2.17562608                2.46645686               -7.20253688               -5.14997081               99.11932824              -25.99006499
              55.39633140                5.73861290               82.90442247                0.00010000                2.97470681                3.26770591              -10.34327840               -4.70665679               91.49573481              -33.52781556
              56.43054196                2.02858235               82.01436139                0.00010000                3.95627278                4.21176165              -13.87164882               -4.13047550               81.23061016              -42.22872216
              57.47545686               -1.68192509               81.01668218                0.00010000                5.12131261                5.25929955              -17.76437469               -3.52169186               68.67109377              -52.45639064
              58.53296821               -5.39182941               79.88725432                0.00010000                6.44108098                6.37061753              -21.91286886               -2.87101941               53.99096863              -64.71312687
              59.60427848               -9.10008759               78.60246167                0.00010000                7.82630190                7.49797495              -26.13839405               -2.11596380               37.36181578              -79.75429067
              60.68949425              -12.80534197               77.14075808                0.00010000                9.17111221                8.56681076              -30.21642204               -1.17903053               19.14902040              -98.63113559
              61.78770072              -16.50563394               75.48625085                0.46077143                9.82064788                9.44529456              -33.91369811               -0.35618150                9.96508597             -122.35039341
              54.96610637               21.46398579               86.70310679                0.46601210                0.10969260               -0.61679384                1.80681038               -0.11055862                0.24933835               15.71456421
              55.96720329               17.84416076               84.77839000                0.00010000                1.27000897                0.82868309               -2.51521047               -2.86784951               63.69703476              -12.90336845
              56.99150655               14.16549704               84.12310725                0.00010000                2.66943950                1.75951283               -5.32874693               -5.17932454              125.09373927              -15.47095418
              58.02059208               10.47167646               83.44325732                0.00010000                3.22586156                2.41464193               -8.25020103               -4.70623260              119.58102570              -18.99027311
              59.05602378                6.77247198               82.69842505                0.00010000                3.86162024                3.40859356              -11.49708781               -3.95425100              110.50712845              -23.74096775
              60.09782449                3.07272937               81.85881618                0.00010000                4.63096813                4.54270096              -15.15901523               -3.24937030               98.72211534              -29.59028420
              61.14864314               -0.62649274               80.89729791                0.00010000                5.66896589                5.75483580              -19.21464129               -2.65195813               84.41245297              -36.69689224
              62.21120381               -4.32454283               79.78552138                0.00010000                6.93482999                7.00232922              -23.54799315               -2.08183550               67.43200544              -45.48546309
              63.28733974               -8.02087632               78.49187673                0.00010000                8.31464386                8.24357194              -27.96852382               -1.47083201               47.49546529              -56.77080909
              64.37749668              -11.71488237               76.98166628                0.00010000                9.67739950                9.41557439              -32.23801505               -0.77853452               24.69612177              -72.20685586
              65.48088773              -15.40598553               75.22577889                0.46104609               10.33910471               10.38932608              -36.11073413               -0.18090707               12.93230245              -94.39354175
              58.57755022               22.45832553               86.42155518                0.46526548                0.29659365               -0.49769028                1.40500776               -0.11376660               -0.32798723               13.53227424
              59.58051615               18.85374556               84.34917106                0.00010000                2.20832370                1.07726190               -3.35480099               -3.24391203               77.01479795              -11.92964776
              60.62171669               15.18255627               83.82434718                0.00010000                4.47160368                0.94469610               -6.18181484               -4.11997268              150.73949075               -9.13578509
              61.66994823               11.49443203               83.25124854                0.00010000                4.72383917                2.12806452               -9.11935966               -3.23603915              142.72443192              -10.19048585
              62.71619347                7.80678477               82.59622945                0.00010000                4.72855230                3.42543702              -12.41809077               -2.37718501              132.00279844              -12.40020617
              63.76451927                4.11943637               81.83599307                0.00010000                5.17482112                4.77235148              -16.17046261               -1.85909652              119.00178822              -15.31674061
              64.81968989                0.43317163               80.94336610                0.00010000                6.05979040                6.12984709              -20.34656815               -1.46517974              103.40715308              -18.96203018
              65.88571508               -3.25178283               79.88704412                0.00010000                7.27557475                7.48078592              -24.81850412               -1.11501994               84.69692090              -23.58226419
              66.96520139               -6.93521615               78.62818944                0.00010000                8.66588437                8.79777831              -29.38226502               -0.74985013               61.75675846              -29.74020794
              68.05903277              -10.61703049               77.11283796                0.00010000               10.05437518               10.03455244              -33.78564718               -0.36597404               33.09397041              -38.78042429
              69.16628889              -14.29784742               75.27320079                0.46153830               10.72561268               11.12353858              -37.76723999               -0.00944144               17.48719455              -55.84880535
              62.17299098               23.45403199               86.09829561                0.73247628                0.51033317               -0.42935479                0.86748879                0.71147760                6.05637542               11.39267395
              63.17809432               19.86570599               83.94800666                0.45180002                4.77148230                1.19604324               -4.12310475               -3.72423466               96.34419414              -10.54842598
              64.26842063               16.18439096               83.60444504                0.44155085                7.67742446                0.18346915               -6.79760616               -2.90301806              178.96361393               -4.56652715
              65.33164281               12.51423775               83.15199711                0.43960602                5.75275543                1.98057241               -9.69582391               -1.00105395              167.22334800               -5.06528961
              66.38347574                8.84098072               82.61056094                0.43892254                5.13064480                3.41959556              -13.01775312               -0.57484075              155.71747035               -6.11595245
              67.43425570                5.16817640               81.95899212                0.43921517                5.35415023                4.87400355              -16.83639369               -0.27018299              142.15928708               -7.57382453
              68.49055874                1.49610420               81.17096068                0.44100177                6.15177425                6.29325774              -21.10421205               -0.06829053              126.08853408               -9.40261155
              69.55729119               -2.17492711               80.21447977                0.44438021                7.35158258                7.68557237              -25.67569296                0.10636285              106.79238600              -11.74419685
              70.63759040               -5.84492075               79.04786057                0.44905544                8.77586426                9.02953976              -30.33105919                0.27568956               82.82967631              -14.95155638
              71.73280847               -9.51419133               77.61019796                0.45597105               10.23711854               10.28391602              -34.80624056                0.44787017               49.60254071              -19.76462071
              72.84233277              -13.18351476               75.76918896                0.73099503               10.95242945               11.43326590              -38.83122597                0.67204398               30.16846988              -32.63522964
              26.47612531               13.98893321               90.05984767                0.73909869               -1.29879927               -1.43995593                4.95109821               -0.39362732               -7.01488978                7.46582554
              27.46313731               10.14833966               89.14706338                0.46303819               -1.35625333               -0.84264391                3.31016434               -0.57090039               -9.05776262               -6.06728003
              28.44900024                6.29830587               88.19176647                0.44836237               -1.15840611               -0.47642845                1.84051572               -0.35512749               -8.65729817                0.15702476
              29.43996919                2.43412329               87.28351866                0.44269152               -0.58848146               -0.01079114                0.39238871               -0.35567471               -5.97764994               -0.31560405
              30.43723061               -1.44019219               86.37869881                0.43968892                0.05533512                0.46087274               -1.08292267               -0.34350966               -5.56211516               -0.20407318
              31.44107589               -5.32022840               85.47668509                0.43939003                0.70950470                0.94579222               -2.58135429               -0.33595760               -5.46639608               -0.14332512
              32.45142071               -9.20167977               84.57316475                0.44221617                1.34143045                1.43142557               -4.11088028               -0.33009011               -5.87812608               -0.07726930
              33.46790450              -13.08131173               83.66384506                0.44758818                1.91969091                1.91386046               -5.66949693               -0.32542762               -6.78753134               -0.01110960
              34.48981452              -16.95752703               82.74450581                0.45627171                2.40620207                2.38971131               -7.24699945               -0.31756872               -8.44922322               -0.01334431
              35.51602855              -20.83099985               81.80555655                0.46884742                2.78677460                2.86052169               -8.82348197               -0.30035849               -9.01883770                0.74265838
              36.54555002              -24.70509069               80.87947056                0.73972190                2.95214706                3.35825412              -10.43522860               -0.05308798               -8.65097059               -5.46005203
              30.31278258               14.97453365               89.69639398                0.47077594               -1.00406027               -1.46540358                4.31293682               -0.25177934                6.13301524               12.38101398
              31.30274198               11.13991322               88.78156379                0.00010000               -0.51127151               -0.60426632                2.68543233               -0.65197174               13.86592622              -11.19710214
              32.30255715                7.29354159               88.02037594                0.00010000                0.14597480               -0.82859558                1.34752673               -1.60084234               20.31850061              -15.14679805
              33.30566148                3.43401538               87.23636697                0.00010000                0.42071038               -0.46932685               -0.16698289               -2.34604735               19.38692990              -22.44855775
              34.31097136               -0.43558346               86.45902751                0.00010000                0.63993163                0.02453136               -1.76272385               -2.80744259               19.62494826              -30.57342558
              35.31846011               -4.31077048               85.68219574                0.00010000                0.88450531                0.54565654               -3.41897318               -2.93504299               19.43401748              -39.61030653
              36.32866147               -8.18736551               84.90310121                0.00010000                1.20568743                1.01554633               -5.10646488               -2.71389305               18.95633742              -49.71269622
              37.34257386              -12.06217312               84.11834357                0.00010000                1.64107174                1.39113014               -6.81974051               -2.15227338               18.11671935              -61.06222916
              38.36148290              -15.93362991               83.32380086                0.00010000                2.21164677                1.65475004               -8.52591339               -1.29230456               17.04026239              -73.87699853
              39.38680679              -19.80239464               82.51872156                0.00010000                2.88135365                1.85317240              -10.21961798               -0.19815735               13.71336386              -88.45005168
              40.41910997              -23.67150815               81.65880205                0.46728543                3.23031814                1.91618843              -11.81413333                1.34263562               10.90291820             -108.01165158
              34.14033058               15.95962514               89.42936128                0.46425213               -0.92406340               -1.34357288                3.95899719               -0.06810064               -0.51137164               16.04873515
              35.13108994               12.13625433               88.31265777                0.00010000               -0.87246690               -0.35277018                1.97090848               -1.49420459               16.85704683              -14.37854945
              36.12288124                8.28173396               87.54236499                0.00010000               -0.44583243               -0.69896822                0.54505318               -3.56778636               33.00070830              -29.34189319
              37.12217329                4.42473675               86.74656051                0.00010000                0.14931884               -0.47825551               -1.10438226               -4.37558256               30.65894853              -43.89392938
              38.12586762                0.56029844               85.93252220                0.00010000                0.59918955                0.02334626               -2.99807047               -5.12479388               28.52935221              -60.01253990
              39.13415709               -3.30931527               85.09946781                0.00010000                1.13389347                0.58105965               -5.11830852               -5.38148578               26.06350455              -77.84190026
              40.14854548               -7.18136884               84.24196089                0.00010000                1.84831759                1.06371693               -7.43101737               -5.06476599               23.05930356              -97.74365619
              41.17112344              -11.05348912               83.35398073                0.00010000                2.78222317                1.38851342               -9.87466252               -4.17619325               19.48328715             -120.06527904
              42.20418995              -14.92443203               82.42850733                0.00010000                3.94100984                1.53256683              -12.36102938               -2.77636862               14.95937980             -145.14803322
              43.24994363              -18.79393641               81.45123577                0.00010000                5.32199033                1.54110591              -14.76006443               -1.18382098                8.31783068             -173.59206002
              44.31062975              -22.66676692               80.39089401                0.45489374                6.06861211                1.70980981              -16.93714554                0.55336072                4.51512217             -203.83875931
              37.95816218               16.94766219               89.13495468                0.46392059               -0.74131100               -1.10803723                3.55173585               -0.09252635                0.05153249               15.30400212
              38.95074907               13.13285782               87.88541011                0.00010000               -0.77215837               -0.28208738                1.30063820               -1.84473215               22.45238012              -12.37665718
              39.94271901                9.27956222               87.08318568                0.00010000               -0.55818595                0.04157676               -0.27934038               -3.73893413               44.07217357              -27.57705449
              40.93958535                5.42445027               86.26478687                0.00010000               -0.00957523                0.35842680               -2.13163845               -4.12325261               41.66996984              -42.32523731
              41.94252750                1.56488346               85.41823877                0.00010000                0.64561625                0.86473214               -4.32886467               -4.55407576               38.10541334              -57.81212377
              42.95249767               -2.29914929               84.53561146                0.00010000                1.45062468                1.44549575               -6.87492734               -4.70837807               33.67395607              -74.76588276
              43.97154000               -6.16609118               83.60854158                0.00010000                2.48077522                2.00210678               -9.72412003               -4.45556606               28.44070490              -93.62419422
              45.00211318              -10.03440285               82.62840831                0.00010000                3.74314071                2.46714953              -12.78199515               -3.79810525               22.44149408             -114.74031671
              46.04640281              -13.90297858               81.58588338                0.00010000                5.16760463                2.82709629              -15.90261072               -2.83056709               15.60977923             -138.35775032
              47.10546527              -17.77157252               80.46966397                0.00010000                6.47177054                3.15222375              -18.89129886               -1.58903973                8.01015585             -164.27982425
              48.17583822              -21.63731195               79.27080289                0.45539879                7.03729535                3.88128158              -21.49496981               -0.46698661                4.28948161             -191.28691264
              41.76808880               17.93746439               88.84927512                0.46347704               -0.57935285               -0.95983651                3.21427563               -0.09409935                0.03858991               16.06810944
              42.76229527               14.13061259               87.45848321                0.00010000               -0.57893451               -0.13403201                0.57576245               -1.99086415               28.71799994              -12.34698394
              43.75651011               10.28256549               86.64081455                0.00010000               -0.39541340                0.50543818               -1.15607618               -3.90108340               56.40750397              -26.05225045
              44.75438700                6.43190529               85.80455622                0.00010000                0.09377727                1.05064524               -3.22612207               -4.02724303               53.43452810              -39.78957881
              45.75838565                2.57759308               84.93308824                0.00010000                0.82885795                1.63589341               -5.71451975               -4.20223997               48.73883146              -54.13350772
              46.77096416               -1.28040536               84.01179851                0.00010000                1.81510378                2.28427517               -8.63858190               -4.22520404               42.62839827              -69.73734509
              47.79468773               -5.14132671               83.02799945                0.00010000                3.05422871                2.95115225              -11.94671910               -3.99577657               35.38275404              -87.11626859
              48.83204873               -9.00414613               81.97031057                0.00010000                4.50302720                3.59707241              -15.52017276               -3.50140672               27.23343754             -106.65707634
              49.88474827              -12.86789010               80.82858800                0.00010000                6.02237404                4.21762840              -19.17390765               -2.75017774               18.41876556             -128.58564658
              50.95249622              -16.73089193               79.59469508                0.00010000                7.40103104                4.89354730              -22.66010362               -1.66048051                9.23497098             -152.86542544
              52.03276889              -20.58914129               78.26401633                0.45559238                8.02726781                5.65868762              -25.68869079               -0.49628068                4.87000461             -179.35490082
              45.56998380               18.92846546               88.56706266                0.46266928               -0.41531204               -0.85285503                2.88625747               -0.09180090                0.08857709               16.44519320
              46.56583068               15.13017718               87.03354565                0.00010000               -0.32895805                0.06392400               -0.16195748               -2.03910169               35.80834282              -12.31136824
              47.56340464               11.28967098               86.21418882                0.00010000               -0.09088901                0.90653405               -2.08568389               -3.95061672               70.32070175              -24.42939763
              48.56401290                7.44546317               85.37456929                0.00010000                0.36943535                1.61979669               -4.36958923               -3.98039453               66.75754883              -36.44713952
              49.57079335                3.59760133               84.49235091                0.00010000                1.14502383                2.31998467               -7.12337924               -3.97957445               60.94501936              -49.04023128
              50.58691338               -0.25346378               83.54782466                0.00010000                2.22859472                3.07097512              -10.37499215               -3.86946278               53.26485440              -62.81153523
              51.61536524               -4.10706813               82.52391698                0.00010000                3.58675292                3.87651270              -14.07095233               -3.60450458               44.10030536              -78.29003145
              52.65864844               -7.96246140               81.40603958                0.00010000                5.13899070                4.71575422              -18.07631723               -3.16287208               33.81956416              -95.92321396
              53.71814505              -11.81862601               80.18222219                0.00010000                6.74292067                5.57972175              -22.17848221               -2.50207679               22.79410175             -116.07592602
              54.79350685              -15.67370157               78.84381415                0.00010000                8.21331373                6.46006390              -26.09997780               -1.49403537               11.41727633             -139.02488692
              55.88241133              -19.52413820               77.38649223                0.45613320                8.89044808                7.28827375              -29.52648731               -0.44321264                5.99053709             -164.96340749
              49.36282935               19.92040729               88.28668712                0.46292539               -0.25216365               -0.76750358                2.57457819               -0.09616108                0.11062330               16.56998649
              50.36030771               16.13189107               86.60867812                0.00010000               -0.03087840                0.29058639               -0.92059391               -2.06570617               43.92803111              -12.42249225
              51.36221178               12.30069617               85.80702080                0.00010000                0.32705271                1.29202629               -3.04861334               -3.96670490               86.29182259              -22.39342136
              52.36684877                8.46430122               84.98370173                0.00010000                0.77546692                2.10912996               -5.53535323               -3.94554371               82.11549403              -32.16127221
              53.37772112                4.62399277               84.11057599                0.00010000                1.56977995                2.90498708               -8.51969335               -3.79995528               75.16445379              -42.47693921
              54.39824436                0.78101415               83.16293892                0.00010000                2.69370695                3.77349694              -12.04662933               -3.54444574               65.91330035              -53.95364001
              55.43159526               -3.06379645               82.11945267                0.00010000                4.10524041                4.73039966              -16.06479530               -3.20192439               54.81264999              -67.10043482
              56.48034917               -6.90983105               80.96165483                0.00010000                5.71758240                5.75255389              -20.42834706               -2.75462190               42.26384077              -82.42524698
              57.54594691              -10.75629567               79.67388534                0.00010000                7.38892634                6.80907245              -24.90527151               -2.14096185               28.66182126             -100.48647275
              58.62812770              -14.60169065               78.24414635                0.00010000                8.94154967                7.85130567              -29.19626394               -1.25455414               14.44474868             -121.86467584
              59.72477790              -18.44337582               76.66551948                0.45639935                9.66501989                8.78207597              -32.97013301               -0.34128643                7.56225278             -147.06023557
              53.14509303               20.91311539               88.00558956                0.46231641               -0.08653572               -0.69837306                2.25724424               -0.10671366                0.16370797               16.42534569
              54.14422767               17.13598890               86.18250015                0.00010000                0.32836784                0.53906576               -1.69022461               -2.10606095               53.37587345              -12.66787617
              55.15166039               13.31551151               85.42392163                0.00010000                0.87888773                1.64301478               -4.02196807               -3.97492852              104.83360579              -19.78260634
              56.16180543                9.48764577               84.64218946                0.00010000                1.32104639                2.48496753               -6.68318562               -3.88725714               99.94171680              -26.68146000
              57.17808132                5.65570107               83.80280434                0.00010000                2.10041297                3.35565091               -9.85418126               -3.54547613               91.74533980              -34.29899064
              58.20381369                1.82200615               82.87645181                0.00010000                3.20453156                4.36110497              -13.60375512               -3.13212020               80.88041813              -43.09852376
              59.24217195               -2.01246014               81.83813915                0.00010000                4.61207613                5.47364175              -17.88457370               -2.71133298               67.82599797              -53.47297341
              60.29605521               -5.84741033               80.66503906                0.00010000                6.25067383                6.65765693              -22.54174312               -2.25981962               52.87211641              -65.93842721
              61.36718542               -9.68244456               79.33565083                0.00010000                7.97203530                7.87007456              -27.32562611               -1.70760476               36.28160411              -81.25353276
              62.45549592              -13.51667546               77.83110374                0.00010000                9.58852525                9.04790367              -31.91611118               -0.97354276               18.46699321             -100.46413567
              63.55895593              -17.34849668               76.13833822                0.45694619               10.34600118               10.08548395              -35.96503862               -0.22023060                9.66817366             -124.56825409
              56.91494804               21.90643983               87.72169331                0.46169619                0.08423269               -0.63201235                1.91798943               -0.11132382                0.25968018               16.21521923
              57.91579037               18.14267238               85.75346385                0.00010000                0.80541503                0.80047745               -2.46829511               -2.20602992               64.53155281              -13.26587007
              58.93105634               14.33355647               85.07120807                0.00010000                1.65618456                1.83915519               -4.97162968               -3.97669742              126.57388438              -16.02857297
              59.94891406               10.51400057               84.36265190                0.00010000                2.06974328                2.61335365               -7.75062829               -3.58373121              120.60561657              -19.60065160
              60.97245121                6.69110579               83.58501458                0.00010000                2.74245535                3.64731761              -11.05675345               -3.00216772              110.87822351              -24.37481389
              62.00376317                2.86823624               82.70759607                0.00010000                3.71669343                4.82090255              -14.97966352               -2.47649576               98.41784395              -30.26605956
              63.04678508               -0.95432362               81.70359049                0.00010000                5.06870177                6.08811085              -19.47300659               -2.05136434               83.55529751              -37.45354125
              64.10513720               -4.77667791               80.54604670                0.00010000                6.71374321                7.40889631              -24.37018083               -1.65322971               66.26700092              -46.37228939
              65.18105994               -8.59889418               79.20562378                0.00010000                8.47858807                8.74038181              -29.40205498               -1.20791072               46.36147410              -57.83815473
              66.27470897              -12.42073258               77.65048834                0.00010000               10.14778946               10.02394401              -34.22346882               -0.66013365               23.97863664              -73.49473469
              67.38401573              -16.24166614               75.85453896                0.45726572               10.93067662               11.15646505              -38.46238577               -0.08297981               12.61858425              -95.91899862
              60.67040145               22.90047514               87.43640549                0.46072742                0.25889819               -0.54102450                1.57404709               -0.11101459               -0.33495578               13.96510001
              61.67299043               19.15199845               85.31595530                0.00010000                1.51983981                1.05247885               -3.28408357               -2.48522330               78.04522835              -12.28182361
              62.70079825               15.35229461               84.76391129                0.00010000                2.97955243                1.36140126               -5.82088754               -3.16863331              152.53587986               -9.53673382
              63.73258148               11.53991284               84.16183475                0.00010000                3.15020186                2.53886555               -8.63901969               -2.49689188              143.93264738              -10.57462569
              64.76380229                7.72864742               83.47333140                0.00010000                3.35658489                3.82185852              -12.03131155               -1.83327218              132.44074386              -12.77556063
              65.79971318                3.91842421               82.67416477                0.00010000                4.11282636                5.17826714              -16.09164075               -1.43694412              118.67531913              -15.69762141
              66.84605881                0.10930208               81.73758658                0.00010000                5.39239957                6.57905135              -20.76240405               -1.15155865              102.47026969              -19.37278992
              67.90756117               -3.69923240               80.63383309                0.00010000                7.05115327                8.00271302              -25.85991848               -0.90686421               83.42565706              -24.05244829
              68.98708188               -7.50763692               79.32650606                0.00010000                8.87520164                9.41401731              -31.09371794               -0.64197060               60.52041293              -30.29986436
              70.08506521              -11.31619658               77.76471325                0.00010000               10.60407841               10.75953569              -36.08965555               -0.33162966               32.31062240              -39.45104075
              71.19916345              -15.12536738               75.88395189                0.45766246               11.40982418               11.97476201              -40.43346610                0.05838121               17.14114975              -56.61889793
              64.40968113               23.89561934               87.10802138                0.73041743                0.45853027               -0.48558024                1.08611537                0.73822946                6.24995907               11.75596248
              65.41426643               20.16372196               84.90723840                0.44948151                3.50440800                1.17235041               -4.02095026               -2.61414247               97.77081943              -10.87210949
              66.47976929               16.36078450               84.53798754                0.44081584                5.41784914                0.84898808               -6.39995074               -2.05009977              181.04604620               -4.77317360
              67.52262342               12.56477788               84.05683754                0.43943259                3.87525568                2.48650391               -9.20273079               -0.65788353              168.50546516               -5.27393297
              68.55727440                8.76754296               83.48147342                0.43891329                3.58731075                3.88955372              -12.66355905               -0.30160301              156.09708031               -6.31863254
              69.59436963                4.97180159               82.79002864                0.43895201                4.20680543                5.33773819              -16.85186002               -0.04863270              141.68995776               -7.77270542
              70.64141051                1.17725741               81.95680258                0.44048249                5.47846474                6.79553289              -21.68604857                0.11390799              124.96799009               -9.60253490
              71.70393893               -2.61662365               80.95155135                0.44334204                7.18870991                8.26087513              -26.95899389                0.24421335              105.33562311              -11.95406603
              72.78518471               -6.41061383               79.73521089                0.44728202                9.09339522                9.70230959              -32.35842459                0.36437226               81.43703579              -15.18201715
              73.88580683              -10.20554187               78.25009951                0.45299387               10.91701252               11.06547136              -37.49098034                0.49630896               48.71981955              -20.02373505
              75.00352496              -14.00217090               76.36746549                0.72907137               11.77181310               12.31964841              -41.89377203                0.77324816               29.76867222              -32.90090461
              27.32678586               14.43042959               91.10789856                0.73538262               -1.21170837               -1.33871844                4.65296787               -0.36701088               -7.05415972                7.51130161
              28.31466877               10.45602604               90.17918342                0.45855977               -1.21320772               -0.80282198                3.10920572               -0.49912129               -8.99270991               -6.12370334
              29.30252170                6.47380720               89.20982482                0.44669318               -0.97173654               -0.44562554                1.77000292               -0.34611548               -8.42235439                0.16909141
              30.29523404                2.48087343               88.28770513                0.44208889               -0.44437106               -0.00867756                0.44992166               -0.34705040               -5.69909549               -0.32076039
              31.29363428               -1.51922856               87.36880180                0.43965343                0.12850560                0.43368837               -0.88491594               -0.34330244               -5.28264403               -0.20564287
              32.29780416               -5.52306849               86.45250632                0.43925416                0.70055855                0.88733755               -2.23954341               -0.34047306               -5.20990022               -0.15224333
              33.30764545               -9.52750647               85.53436098                0.44169551                1.25262770                1.34341141               -3.62672394               -0.33532710               -5.66247783               -0.08333282
              34.32285671              -13.53034532               84.61010022                0.44591533                1.76173221                1.79957332               -5.04760639               -0.32623659               -6.61722797               -0.03141009
              35.34288010              -17.53080578               83.67558694                0.45296412                2.18942436                2.25075377               -6.49625630               -0.31610943               -8.31233575               -0.03860921
              36.36664520              -21.53011682               82.72149802                0.46380343                2.51669320                2.69104284               -7.93311696               -0.29349695               -8.93021710                0.69495096
              37.39321396              -25.53209820               81.77984473                0.73654845                2.65687648                3.15476812               -9.41685415                0.07692394               -8.62131381               -5.41125383
              31.29751929               15.41704240               90.73827384                0.46540499               -0.95305374               -1.28607015                4.05410820               -0.16672939                6.21634899               12.58009823
              32.28798876               11.44799782               89.80759701                0.00010000               -0.54412188               -0.64824173                2.51656841               -0.47653111               14.08914290              -11.29136966
              33.28663686                7.46935094               89.03333449                0.00010000                0.01463325               -0.69478339                1.23526242               -1.18947534               20.52152730              -15.22744825
              34.28828142                3.48078665               88.23438656                0.00010000                0.27676811               -0.29801852               -0.23569249               -1.79762450               19.40433721              -22.54391637
              35.29217222               -0.51489168               87.44137384                0.00010000                0.51284794                0.18028990               -1.77963639               -2.21883435               19.53327200              -30.74040873
              36.29853838               -4.51419512               86.64818703                0.00010000                0.78791886                0.64879494               -3.38525798               -2.38609162               19.28053252              -39.93456923
              37.30793059               -8.51407236               85.85248540                0.00010000                1.13528081                1.04222648               -5.02597749               -2.25160838               18.77397000              -50.28533614
              38.32124400              -12.51234958               85.05076800                0.00010000                1.58370800                1.32181542               -6.68809003               -1.78636618               17.93424155              -61.95772864
              39.33960475              -16.50829824               84.23942634                0.00010000                2.15562207                1.46549323               -8.34860154               -0.99702907               16.87987668              -75.13786441
              40.36435644              -20.50320639               83.41766774                0.00010000                2.81799120                1.50571828               -9.98212863                0.09804631               13.60858690              -90.06110368
              41.39596458              -24.50055052               82.54210173                0.46232520                3.16081419                1.26393748              -11.49684633                1.90457195               10.84111999             -109.84857789
              35.26154043               16.40470818               90.46790958                0.45987899               -0.87108168               -1.10962260                3.72944635               -0.07068603               -0.58304391               16.43236542
              36.25282961               12.44306121               89.33183793                0.00010000               -0.77985313               -0.47436153                1.85503065               -1.02125967               17.09690723              -14.55628363
              37.24594337                8.45991153               88.54822496                0.00010000               -0.46527175               -0.59054418                0.65578207               -2.47142505               33.50132486              -29.44017469
              38.24352418                4.47491306               87.73652546                0.00010000               -0.08520011               -0.25539379               -0.85509161               -3.17397867               30.86289422              -44.01801491
              39.24423936                0.48437723               86.90376624                0.00010000                0.28694124                0.26668585               -2.69670429               -3.88754275               28.40101708              -60.29817215
              40.24926300               -3.51009259               86.04940109                0.00010000                0.82641947                0.78266988               -4.84234186               -4.23327116               25.62445865              -78.44916312
              41.26076775               -7.50666194               85.16835745                0.00010000                1.60461323                1.17632372               -7.24752402               -4.08925615               22.36896030              -98.84706451
              42.28135527              -11.50390901               84.25533465                0.00010000                2.65142854                1.36813530               -9.83682755               -3.40366994               18.64223912             -121.80391634
              43.31379632              -15.50149591               83.30425221                0.00010000                3.97515664                1.32745544              -12.50078744               -2.18279263               14.12723319             -147.61913843
              44.36085840              -19.50000245               82.30232912                0.00010000                5.60986634                1.06482532              -15.06840138               -0.79658856                7.72813088             -176.80002140
              45.42599365              -23.50681945               81.21998109                0.45172188                6.51352520                0.82970367              -17.32530206                0.97612780                4.28071905             -207.82087472
              39.21939952               17.39484995               90.16963914                0.45924821               -0.70393075               -0.91758289                3.37810854               -0.09311544                0.03338244               15.75917824
              40.21236022               13.43851059               88.89804354                0.00010000               -0.70215098               -0.38990946                1.21665357               -1.16606521               22.82592706              -12.62223943
              41.20535650                9.45754006               88.08147681                0.00010000               -0.60120359               -0.02917967               -0.00818984               -2.38747293               44.77583168              -27.73769617
              42.20033614                5.47567878               87.24541166                0.00010000               -0.29647452                0.37712241               -1.65703639               -2.72951175               42.01419358              -42.52330044
              43.19942701                1.49044204               86.37710791                0.00010000                0.22879947                0.93371670               -3.79875419               -3.15936482               37.98570320              -58.16779829
              44.20491213               -2.49854172               85.46863880                0.00010000                1.02674372                1.52523786               -6.42683187               -3.38962131               33.08923267              -75.41441711
              45.21996189               -6.49054589               84.51217907                0.00010000                2.15462162                2.05450635               -9.47930200               -3.28620969               27.47034883              -94.70601501
              46.24800457              -10.48498688               83.50017069                0.00010000                3.60402304                2.45203104              -12.83687957               -2.82527511               21.24903528             -116.38643707
              47.29204235              -14.48174913               82.42495941                0.00010000                5.28718174                2.69582143              -16.31018691               -2.09760183               14.45260908             -140.66760070
              48.35374820              -18.48190989               81.27750681                0.00010000                6.85393874                2.84244225              -19.63363302               -1.17145143                7.25457082             -167.33426419
              49.42912112              -22.48395644               80.05187672                0.45198213                7.53729227                3.41070057              -22.44261996               -0.22719578                3.96093712             -195.13588599
              43.17235684               18.38635653               89.88091193                0.45956056               -0.55386364               -0.81108767                3.09544594               -0.09882557                0.01018665               16.59574957
              44.16681820               14.43526302               88.46393977                0.00010000               -0.56655567               -0.22399360                0.51652021               -1.18998254               29.23211797              -12.65767591
              45.16102572               10.45932794               87.63081823                0.00010000               -0.53931172                0.36354572               -0.77287145               -2.32777556               57.35084244              -26.32634791
              46.15603197                6.48245551               86.77487662                0.00010000               -0.28765797                0.93823491               -2.59666152               -2.43519309               53.93360439              -40.10523095
              47.15527256                2.50305157               85.87870893                0.00010000                0.32132660                1.57771829               -5.03333628               -2.64065577               48.68401738              -54.58538514
              48.16245850               -1.47958783               84.92757201                0.00010000                1.31080782                2.26979409               -8.08792747               -2.75984620               42.00942738              -70.43557574
              49.18148872               -5.46557182               83.90939481                0.00010000                2.67972568                2.95826854              -11.68782734               -2.69381283               34.29533021              -88.18129004
              50.21605301               -9.45486839               82.81415651                0.00010000                4.36392884                3.59896349              -15.67985703               -2.42424185               25.88198459             -108.20972182
              51.26876730              -13.44757949               81.63383332                0.00010000                6.17918360                4.18615512              -19.82252854               -1.96171120               17.12022657             -130.74095606
              52.33963668              -17.44315361               80.36316999                0.00010000                7.83877781                4.81886229              -23.77944848               -1.24295679                8.39809877             -155.72803356
              53.42554285              -21.43860544               79.00098484                0.45253192                8.59061698                5.55547029              -27.13832890               -0.25707125                4.49877234             -183.02528037
              47.11961003               19.37862820               89.59566510                0.45871786               -0.40208712               -0.75506365                2.83046747               -0.10650921                0.08534091               17.00003226
              48.11558916               15.43403072               88.03176602                0.00010000               -0.40007606               -0.00128877               -0.20063053               -1.18626412               36.46744088              -12.65489441
              49.11160850               11.46481097               87.19520510                0.00010000               -0.38402514                0.74061551               -1.62732697               -2.27002245               71.50326766              -24.82048257
              50.10790865                7.49444348               86.33384868                0.00010000               -0.14756324                1.45230985               -3.64358055               -2.26267328               67.43890768              -36.89556635
              51.10865724                3.52199640               85.42421176                0.00010000                0.52149709                2.20370434               -6.35743582               -2.31049568               60.99973660              -49.59809343
              52.11833859               -0.45314584               84.44635905                0.00010000                1.63544718                3.01910100               -9.78370276               -2.32750380               52.68263026              -63.56047093
              53.14136618               -4.43138051               83.38386787                0.00010000                3.15944012                3.88311159              -13.84444897               -2.25740904               42.98916392              -79.33140940
              54.18152740               -8.41300761               82.22370125                0.00010000                4.98635816                4.77043953              -18.36411095               -2.06963394               32.41061205              -97.36881227
              55.24109335              -12.39802603               80.95632949                0.00010000                6.91938104                5.67927833              -23.06472221               -1.72004835               21.43558273             -118.04000688
              56.31991502              -16.38553264               79.57632361                0.00010000                8.68950038                6.61759532              -27.57134114               -1.08329596               10.54574705             -141.62087863
              57.41488335              -20.37284704               78.08307678                0.45305813                9.49683372                7.53316591              -31.43928416               -0.21227094                5.59965110             -168.30095491
              51.05942160               20.37125525               89.31248461                0.45873476               -0.25114640               -0.72330324                2.57358375               -0.10408794                0.10518337               17.13393223
              52.05691014               16.43523724               87.59939913                0.00010000               -0.21045435                0.24989649               -0.93023622               -1.20671868               44.72165589              -12.78733000
              53.05521252               12.47414025               86.77860602                0.00010000               -0.16585349                1.13578232               -2.54388043               -2.27711782               87.71257001              -22.88702787
              54.05359307                8.51150170               85.93150619                0.00010000                0.07197214                1.95581703               -4.76078216               -2.19618993               82.99038171              -32.72764600
              55.05665196                4.54712565               85.02856200                0.00010000                0.78461331                2.80990476               -7.72478698               -2.11944537               75.35183172              -43.12104946
              56.06928534                0.58079419               84.04464949                0.00010000                1.97751746                3.75502819              -11.46884629               -2.02791624               65.39830127              -54.72817375
              57.09620231               -3.38790959               82.95907246                0.00010000                3.60102544                4.79290683              -15.91511568               -1.91151980               53.71347999              -68.08781990
              58.14130585               -7.35945960               81.75505158                0.00010000                5.53445258                5.90088915              -20.87259130               -1.73564395               40.83191558              -83.72369095
              59.20689136              -11.33399392               80.41959395                0.00010000                7.57429628                7.05646689              -26.03738933               -1.42947882               27.27029991             -102.19899564
              60.29279177              -15.31080170               78.94417852                0.00010000                9.45174343                8.22829816              -31.00533997               -0.88582479               13.55267861             -124.09119265
              61.39592623              -19.28794212               77.32580694                0.45315369               10.31344584                9.34142691              -35.30763636               -0.12844691                7.16067057             -149.89451590
              54.98956429               21.36416213               89.02843702                0.45792730               -0.09944983               -0.68905054                2.31877114               -0.09648352                0.17160319               16.97336740
              55.98856979               17.43902865               87.16570832                0.00010000                0.01187009                0.50754779               -1.67148639               -1.26130296               54.30173799              -13.04049821
              56.98980169               13.48752662               86.38585201                0.00010000                0.12148293                1.53978353               -3.49288159               -2.34425868              106.48309039              -20.35138550
              57.99099945                9.53355982               85.57853813                0.00010000                0.35870819                2.42582174               -5.89707150               -2.20136446              101.01217408              -27.31681703
              58.99697585                5.57819450               84.70733884                0.00010000                1.09080311                3.36614949               -9.07451110               -1.98064816               92.06265299              -34.97132922
              60.01281551                1.62195473               83.74228629                0.00010000                2.32068589                4.44505181              -13.08425002               -1.76983797               80.42347061              -43.83878159
              61.04338957               -2.33552238               82.65899070                0.00010000                4.00416708                5.64492951              -17.85167881               -1.59242000               66.72482694              -54.34689765
              62.09289885               -6.29498982               81.43641946                0.00010000                6.02281535                6.93384780              -23.17259745               -1.40848122               51.40084334              -67.02779516
              63.16384588              -10.25689669               80.05594915                0.00010000                8.16239361                8.27496362              -28.71851451               -1.13703179               34.84141005              -82.64180640
              64.25614672              -14.22096668               78.50243585                0.00010000               10.13746861                9.62075646              -34.05567515               -0.68796702               17.54408007             -102.22333042
              65.36659525              -18.18601850               76.76695008                0.45361712               11.04485266               10.89814705              -38.68962900               -0.04358481                9.25116877             -126.75328487
              58.90775890               22.35747424               88.74146658                0.45755756                0.05606961               -0.64313341                2.03855093               -0.09924497                0.27487699               16.75192925
              59.90831959               18.44538820               86.72902409                0.00010000                0.30186399                0.76529405               -2.41632019               -1.35965994               65.60076513              -13.66457235
              60.91379618               14.50493592               86.02367466                0.00010000                0.52891552                1.87577524               -4.43106007               -2.43084537              128.46418527              -16.60728633
              61.91889790               10.56001814               85.28824476                0.00010000                0.74239540                2.75970280               -6.97588194               -2.11528270              121.86558631              -20.20642370
              62.92864409                6.61444864               84.47728999                0.00010000                1.43537740                3.83101096              -10.32095297               -1.73102202              111.29093312              -24.97106277
              63.94760545                2.66969522               83.55922291                0.00010000                2.63271882                5.05483203              -14.55051696               -1.42523368               97.96624891              -30.87650380
              64.98129846               -1.27501100               82.50783778                0.00010000                4.34525412                6.40130626              -19.58984162               -1.22202313               82.39080132              -38.12861734
              66.03451054               -5.22078264               81.29811776                0.00010000                6.44145577                7.83266882              -25.21827900               -1.05368828               64.69453534              -47.17467962
              67.11012758               -9.16849465               79.90383563                0.00010000                8.68218521                9.30480734              -31.07903873               -0.83601623               44.81925246              -58.82844246
              68.20815424              -13.11838657               78.29719690                0.00010000               10.75153013               10.76521060              -36.69991641               -0.49159353               22.99145332              -74.71203945
              69.32515818              -17.06997918               76.45653118                0.45415219               11.70039410               12.14332972              -41.54899823                0.04270705               12.16883808              -97.35959246
              62.81175147               23.35129946               88.45303612                0.45695617                0.21634418               -0.57773938                1.75194819               -0.10663230               -0.34683812               14.42022228
              63.81391491               19.45433453               86.28348939                0.00010000                0.74016844                1.01547008               -3.19487986               -1.55161940               79.30810176              -12.65915894
              64.82655484               15.52504212               85.70792943                0.00010000                1.26330760                1.79195430               -5.26604985               -1.98172110              154.72962046               -9.96892057
              65.83918107               11.58875387               85.07846815                0.00010000                1.30617440                2.93676798               -7.87437121               -1.54295425              145.34309050              -10.97812896
              66.85267833                7.65481472               84.35560322                0.00010000                1.72947039                4.19376971              -11.34466238               -1.10601692              132.86218738              -13.14911645
              67.87377047                3.72305137               83.51416025                0.00010000                2.83743202                5.56496668              -15.76652436               -0.85953613              118.12181321              -16.05761341
              68.90942697               -0.20749625               82.52811802                0.00010000                4.57691306                7.03162551              -21.05100524               -0.71452234              101.13207492              -19.75014677
              69.96530874               -4.13833645               81.36984575                0.00010000                6.76512579                8.56688440              -26.95442427               -0.61097475               81.64825943              -24.48413014
              71.04472949               -8.07080054               80.00631508                0.00010000                9.12453245               10.12619480              -33.08938939               -0.48353206               58.78679688              -30.82064470
              72.14779938              -12.00566246               78.39104485                0.00010000               11.29525568               11.64740162              -38.93650670               -0.27776686               31.20247424              -40.07759613
              73.27063460              -15.94315191               76.46453147                0.45424443               12.28352145               13.07095671              -43.88923371                0.14185899               16.62932447              -57.29829392
              66.69955612               24.34591946               88.12001792                0.72814961                0.39884283               -0.53800091                1.31251869                0.75827917                6.44876399               12.13635987
              67.70354455               20.46569760               85.86758765                0.44754110                2.00931484                1.13630700               -3.88280666               -1.29425938               99.44928566              -11.21710465
              68.73974241               16.54077500               85.47644602                0.44032764                2.73608410                1.57328790               -5.78812502               -1.02844777              183.51950648               -5.02227441
              69.75826623               12.61875350               84.96794249                0.43916370                1.62419183                2.99996261               -8.40552728               -0.21403208              169.92610233               -5.52155736
              70.77222625                8.69832404               84.35728976                0.43871600                1.72297355                4.35093218              -11.99643516                0.06684504              156.35350654               -6.54800410
              71.79272570                4.78099455               83.62195492                0.43919025                2.80847905                5.79431862              -16.61910542                0.26039637              140.85839058               -7.98499211
              72.82839583                0.86562151               82.73723970                0.44034866                4.64348164                7.31177679              -22.15260809                0.37491090              123.29551343               -9.80390347
              73.88559533               -3.04944495               81.67529989                0.44217853                6.96935604                8.88914951              -28.32289470                0.44904643              103.21773624              -12.15479132
              74.96778295               -6.96597075               80.40069208                0.44552220                9.46774653               10.48297949              -34.71377497                0.50566734               79.39822345              -15.39217099
              76.07495026              -10.88543854               78.86037836                0.45024379               11.75956443               12.02239229              -40.77768173                0.58562313               47.39757429              -20.24574936
              77.20297424              -14.80856004               76.93131352                0.72729375               12.80239791               13.45918612              -45.80984797                0.92181403               29.11865543              -33.06272337
              28.19247239               14.87840866               92.15290703                0.73254283               -1.11155342               -1.22840739                4.32589905               -0.33794159               -7.08165442                7.53758585
              29.18135685               10.76903841               91.20924750                0.45479002               -1.02204735               -0.76070930                2.88913278               -0.37628096               -8.89418532               -6.17218185
              30.17203144                6.65466836               90.22716653                0.44512303               -0.71732730               -0.40758835                1.69450511               -0.31798790               -8.11393586                0.17137177
              31.16701031                2.53434523               89.29251709                0.44127493               -0.26274477               -0.00285019                0.51572986               -0.33601918               -5.33136284               -0.32960388
              32.16677654               -1.58944914               88.36100049                0.43901399                0.21542001                0.40930616               -0.66554281               -0.34301642               -4.90358491               -0.20946486
              33.17131871               -5.71463468               87.43189422                0.43904073                0.69003504                0.82780467               -1.86531361               -0.34325615               -4.85332913               -0.15387784
              34.18057724               -9.83959526               86.50063027                0.44091771                1.15076394                1.25265514               -3.09475837               -0.33377517               -5.35256647               -0.09427154
              35.19433398              -13.96327548               85.56289293                0.44464693                1.57963859                1.67133536               -4.35946956               -0.32076228               -6.36267790               -0.04380112
              36.21217002              -18.08597802               84.61458069                0.45032834                1.94162134                2.09255406               -5.65311496               -0.30717290               -8.09637065               -0.06145637
              37.23316641              -22.20944029               83.64689421                0.45916714                2.21301467                2.49924726               -6.92989454               -0.27891499               -8.76456601                0.64478786
              38.25643031              -26.33782977               82.69113348                0.73324228                2.32638978                2.92137075               -8.27338384                0.22445948               -8.51311141               -5.32798238
              32.29846323               15.86612459               91.77747614                0.46008575               -0.89990332               -1.07507573                3.76860688               -0.05229717                6.27803406               12.75388317
              33.28946419               11.76143132               90.83189516                0.00010000               -0.61325379               -0.71781392                2.33379975               -0.20881295               14.26875508              -11.37055882
              34.28619815                7.65059248               90.04508119                0.00010000               -0.18776640               -0.49401103                1.10265539               -0.54629088               20.63143958              -15.16263210
              35.28570886                3.53431673               89.23165312                0.00010000                0.08190912               -0.04969398               -0.31577241               -0.95344797               19.32532838              -22.39069503
              36.28783633               -0.58535608               88.42343478                0.00010000                0.36251694                0.40250309               -1.81544653               -1.32187888               19.36500953              -30.59975200
              37.29295920               -4.70635663               87.61449058                0.00010000                0.68617793                0.79421831               -3.36398362               -1.54881455               19.04834190              -39.93698756
              38.30155989               -8.82706871               86.80258166                0.00010000                1.06792690                1.07957249               -4.96024972               -1.53958055               18.50677545              -50.56351778
              39.31431774              -12.94656212               85.98458177                0.00010000                1.53103998                1.21526683               -6.54644703               -1.21221494               17.65515546              -62.62584451
              40.33218069              -17.06505248               85.15682883                0.00010000                2.09926987                1.18150776               -8.15013375               -0.51577790               16.61760932              -76.25923286
              41.35630314              -21.18444781               84.31907899                0.00010000                2.74418496                0.98321903               -9.71770244                0.60236888               13.42630583              -91.62655159
              42.38706439              -25.30861606               83.42886513                0.45744062                3.07612513                0.24351826              -11.13334390                2.80866931               10.71689713             -111.67823504
              36.40081299               16.85690715               91.50395020                0.45543295               -0.81002888               -0.81405913                3.47667607               -0.04461249               -0.65339337               16.82498791
              37.39271270               12.75468213               90.34975838                0.00010000               -0.62963909               -0.65600633                1.72605415               -0.30766332               17.40866873              -14.74292929
              38.38822021                8.64478814               89.55548063                0.00010000               -0.44114004               -0.41887258                0.83229726               -0.83307060               34.14211375              -29.23170044
              39.38388990                4.53335135               88.72945868                0.00010000               -0.36039434                0.06581848               -0.49847038               -1.38289850               31.12113051              -43.64566750
              40.38101232                0.41860092               87.87858811                0.00010000               -0.09174298                0.59704425               -2.26779995               -2.04617843               28.23954212              -59.97973221
              41.38205504               -3.69875031               87.00262097                0.00010000                0.44893998                1.03740427               -4.44182033               -2.51763841               25.07207206              -78.43092518
              42.38999112               -7.81800381               86.09701041                0.00010000                1.30092062                1.29099339               -6.96113250               -2.61823156               21.49037269              -99.37562684
              43.40807346              -11.93897014               85.15724418                0.00010000                2.48745116                1.28043356               -9.74532771               -2.21741256               17.55044905             -123.10316923
              44.43974015              -16.06234786               84.17849158                0.00010000                4.03519605                0.95703890              -12.65538363               -1.24337927               13.01508931             -149.82849413
              45.48877738              -20.18977591               83.14986774                0.00010000                6.06000255                0.26745688              -15.47618460               -0.16376565                6.91322514             -179.95215382
              46.56094020              -24.33295941               82.04438797                0.44914005                7.21628211               -0.62086813              -17.89298910                1.64428758                3.94404625             -211.98697936
              40.50202102               17.84984341               91.20251686                0.45547070               -0.65910821               -0.67768628                3.18397324               -0.08202950                0.00273265               16.23635241
              41.49542993               13.74831119               89.90974319                0.00010000               -0.55767478               -0.54727713                1.11973209               -0.16548806               23.35420866              -12.89231509
              42.49086752                9.64221503               89.08302189                0.00010000               -0.55959098               -0.12389475                0.38370062               -0.41540976               45.78143167              -27.65523408
              43.48423811                5.53563309               88.23164614                0.00010000               -0.59265477                0.40061510               -0.98882456               -0.71758642               42.53644955              -42.30053137
              44.47901443                1.42658481               87.34226368                0.00010000               -0.25134745                1.00903039               -3.04605692               -1.14416777               37.91400392              -58.00419817
              45.47921117               -2.68560855               86.40707482                0.00010000                0.52003310                1.59565983               -5.76425492               -1.47109354               32.42267268              -75.51364015
              46.48941509               -6.80124884               85.41895554                0.00010000                1.75511892                2.06812522               -9.06603429               -1.56631018               26.29562430              -95.27710689
              47.51431354              -10.92095345               84.37167072                0.00010000                3.43518912                2.35495067              -12.80933935               -1.37431977               19.75448336             -117.62164502
              48.55811887              -15.04591170               83.25967965                0.00010000                5.46629134                2.41342776              -16.76214335               -0.98730224               12.95918694             -142.72229147
              49.62363937              -19.17909868               82.07699131                0.00010000                7.40991376                2.27532553              -20.57455345               -0.52962180                6.25708927             -170.33740658
              50.70631715              -23.32103343               80.82195049                0.44925779                8.26777742                2.60562278              -23.73621126                0.11524705                3.51594452             -199.19041124
              44.60223684               18.84335342               90.91118404                0.45510330               -0.52055184               -0.64749936                2.95661619               -0.08829612               -0.00249905               17.14841930
              45.59703132               14.74373659               89.46881361                0.00010000               -0.48233660               -0.33456285                0.45232794               -0.04168077               29.97793081              -13.00810349
              46.59259011               10.64231025               88.62535712                0.00010000               -0.59314640                0.16292590               -0.23186583               -0.09265617               58.72339815              -26.41745709
              47.58516840                6.54136365               87.75262299                0.00010000               -0.66097490                0.76445880               -1.71595875               -0.19912195               54.71126008              -40.08356055
              48.57937061                2.43878153               86.83242151                0.00010000               -0.23507882                1.46007881               -4.06581461               -0.44687417               48.74983221              -54.60960481
              49.58046682               -1.66683712               85.85003996                0.00010000                0.73196069                2.19289287               -7.26575229               -0.68620631               41.35453176              -70.67355354
              50.59400983               -5.77664130               84.79424291                0.00010000                2.23915508                2.89374367              -11.22179984               -0.83213892               33.02493715              -88.80834212
              51.62524992               -9.89187113               83.65671343                0.00010000                4.20647498                3.51103691              -15.75008179               -0.86762484               24.23281835             -109.40144659
              52.67813933              -14.01407931               82.43213743                0.00010000                6.40283747                4.03624593              -20.55199577               -0.81413917               15.48576348             -132.66783415
              53.75330667              -18.14426939               81.11910611                0.00010000                8.44876587                4.59855009              -25.18861249               -0.63662538                7.32052819             -158.55305668
              54.84711464              -22.28084695               79.72124975                0.44945858                9.38079727                5.30270163              -29.09192118                0.07128768                4.00956310             -186.91257580
              48.69948877               19.83689342               90.62367201                0.45488234               -0.38492722               -0.65197048                2.77164927               -0.08399185                0.07793528               17.57891973
              49.69563950               15.74161993               89.02953304                0.00010000               -0.40507168               -0.07672110               -0.24766788                0.00841113               37.40928798              -13.03792172
              50.69138733               11.64547355               88.18164228                0.00010000               -0.59275517                0.49992292               -0.98412603                0.05341739               73.21482496              -25.08467396
              51.68378439                7.55092227               87.30169768                0.00010000               -0.65548132                1.18476018               -2.62836616                0.09224293               68.47119874              -37.09257155
              52.67827771                3.45578638               86.36520219                0.00010000               -0.14372596                1.98315836               -5.26523877               -0.02145624               61.23032403              -49.82590195
              53.68090987               -0.64175069               85.35215060                0.00010000                0.97643055                2.86802741               -8.88783634               -0.19636180               52.10472778              -63.94408202
              54.69780632               -4.74337397               84.24702801                0.00010000                2.67445884                3.79828084              -13.39329910               -0.37645388               41.72254959              -80.01608179
              55.73439905               -8.85073271               83.03875736                0.00010000                4.82140170                4.74240272              -18.56957054               -0.52983707               30.72193851              -98.51273963
              56.79423435              -12.96518678               81.72092774                0.00010000                7.16377288                5.70920369              -24.07338213               -0.61541614               19.75226601             -119.80756717
              57.87767451              -17.08712767               80.29238732                0.00010000                9.33318294                6.73213212              -29.41887028               -0.50654977                9.43964533             -144.17970163
              58.98089801              -21.21497939               78.75770655                0.44966921               10.32235043                7.78537551              -33.99821829                0.09581980                5.09130589             -171.81501073
              52.79110398               20.83031401               90.33815879                0.45438451               -0.24845618               -0.66463269                2.56503952               -0.08649909                0.12385123               17.71930049
              53.78861942               16.74220217               88.59007340                0.00010000               -0.33739324                0.19670204               -0.93889342               -0.03986821               45.83525139              -13.18632615
              54.78435612               12.65230871               87.75614319                0.00010000               -0.59595025                0.89708087               -1.83665250               -0.00191280               89.71293079              -23.30546392
              55.77670042                8.56505885               86.88848609                0.00010000               -0.63708350                1.68242952               -3.67216246                0.14568368               84.25923966              -33.12762197
              56.77161445                4.47844470               85.95608025                0.00010000               -0.05002423                2.58800604               -6.58004212                0.13865409               75.74576026              -43.53359436
              57.77569993                0.39052343               84.93356200                0.00010000                1.19241620                3.62039001              -10.56975993                0.03004917               64.90878696              -55.23454230
              58.79546277               -3.70067569               83.80115036                0.00010000                3.03830310                4.76052799              -15.53693238               -0.14087528               52.47179050              -68.80299962
              59.83646599               -7.79702307               82.54420301                0.00010000                5.33815946                5.98501501              -21.25004398               -0.32524818               39.12674381              -84.78246790
              60.90222596              -11.89989523               81.15313755                0.00010000                7.82511478                7.28322076              -27.33394604               -0.44204023               25.55605949             -103.74383083
              61.99296829              -16.00962675               79.62403955                0.00010000               10.12542593                8.64836137              -33.26666395               -0.37710665               12.42624309             -126.26196257
              63.10473448              -20.12513944               77.95936676                0.44993725               11.17661910               10.03463868              -38.40886987                0.15137265                6.63996981             -152.82122997
              56.87398249               21.82360077               90.05196498                0.45434790               -0.11350445               -0.67173535                2.37878912               -0.09335080                0.17313814               17.54569030
              57.87284744               17.74555397               88.14907042                0.00010000               -0.27450474                0.46988498               -1.64881738               -0.16037138               55.55489145              -13.44719684
              58.86849239               13.66341516               87.35406400                0.00010000               -0.61426832                1.35123078               -2.74538504               -0.21099205              108.73724324              -20.89185821
              59.86056207                9.58457086               86.52424803                0.00010000               -0.64530894                2.24416091               -4.78131245                0.00206920              102.48666438              -27.86634734
              60.85558621                5.50754650               85.62131411                0.00010000                0.00345834                3.24877317               -7.93216558                0.08817616               92.58863313              -35.50621227
              61.86063124                1.43065711               84.61476681                0.00010000                1.34745531                4.41543860              -12.23727726                0.05652573               79.98467370              -44.40512240
              62.88253532               -2.64816341               83.48110557                0.00010000                3.32411958                5.73262030              -17.59495570               -0.07230240               65.46574703              -55.03256897
              63.92711363               -6.73103241               82.20158711                0.00010000                5.77309548                7.17126379              -23.75662632               -0.23974461               49.63622717              -67.94091132
              64.99799723              -10.81952236               80.76128054                0.00010000                8.41314751                8.70331382              -30.31547643               -0.34940684               33.05901018              -83.89203105
              66.09537658              -14.91416045               79.14999024                0.00010000               10.84768077               10.30221935              -36.71058348               -0.29450305               16.37457338             -103.90337545
              67.21495084              -19.01428662               77.36454564                0.45045628               11.95742602               11.93500345              -42.26715160                0.18685544                8.70727851             -128.92981786
              60.94533056               22.81687931               89.76246433                0.45386145                0.02670415               -0.66362567                2.15080560               -0.09916063                0.28880256               17.29586351
              61.94559760               18.75159986               87.70513744                0.00010000               -0.21055838                0.73488719               -2.34604329               -0.30671325               66.99808530              -14.08011243
              62.94111939               14.67933332               86.98258686                0.00010000               -0.64935693                1.83648374               -3.66007872               -0.48691434              130.94768800              -17.19892799
              63.93261046               10.60994207               86.22313427                0.00010000               -0.69138330                2.80408339               -5.86121501               -0.23528645              123.51234416              -20.79395761
              64.92729172                6.54342016               85.37859552                0.00010000               -0.00350515                3.90594088               -9.21611337               -0.06710748              111.88251429              -25.51046447
              65.93254036                2.47883220               84.41658573                0.00010000                1.42072630                5.19414060              -13.79445712               -0.02200189               97.48870948              -31.39644659
              66.95570625               -1.58602328               83.31179366                0.00010000                3.52448521                6.65303114              -19.49347350               -0.09752520               81.01290890              -38.69383116
              68.00303006               -5.65359780               82.04168112                0.00010000                6.13298039                8.24676421              -26.04331399               -0.22950038               62.76871163              -47.86524689
              69.07836586               -9.72582896               80.58404301                0.00010000                8.94062119                9.93080475              -32.99908095               -0.31815378               42.88168169              -59.71947441
              70.18184248              -13.80358237               78.91649002                0.00010000               11.51790407               11.66152433              -39.74573815               -0.25443479               21.72563808              -75.84449553
              71.30872394              -17.88643937               77.02355900                0.45075382               12.68814538               13.40855086              -45.55492783                0.20559204               11.57413930              -98.70843224
              65.00255816               23.81032825               89.47144445                0.45358062                0.17010039               -0.62481759                1.91818493               -0.09833485               -0.36026099               14.87425018
              66.00425916               19.76025172               87.25205771                0.00010000               -0.10731305                0.97917371               -3.06881691               -0.44784875               80.88808008              -13.03893843
              67.00041190               15.70014484               86.65859030                0.00010000               -0.62448283                2.19862527               -4.46952600               -0.54569968              157.48901071              -10.42984282
              67.99176951               11.64065253               86.00434732                0.00010000               -0.75289835                3.27279922               -6.75936620               -0.33941250              147.10007956              -11.40069047
              68.98535393                7.58566532               85.24643815                0.00010000               -0.10674303                4.48948193              -10.28385380               -0.15361136              133.39435695              -13.51613260
              69.98963465                3.53453992               84.35883428                0.00010000                1.38304422                5.88401038              -15.11786161               -0.08604820              117.44986541              -16.38762405
              71.01301482               -0.51510278               83.31656647                0.00010000                3.63473277                7.44796249              -21.14121710               -0.11837444               99.47127289              -20.08218042
              72.06232930               -4.56609713               82.09474460                0.00010000                6.43019524                9.14850223              -28.05456132               -0.19961359               79.40201653              -24.86471078
              73.14161872               -8.62090627               80.66471828                0.00010000                9.42845010               10.93088545              -35.37179331               -0.25639866               56.55271631              -31.29101414
              74.25089830              -12.68092996               78.98598312                0.00010000               12.15789891               12.72292476              -42.40860486               -0.19574722               29.75034810              -40.64946444
              75.38477670              -16.74611560               77.00616722                0.45123426               13.38783954               14.47249502              -48.32217956                0.24662572               15.93711486              -57.86964101
              69.04351693               24.80438296               89.13427175                0.72659849                0.33071050               -0.59452976                1.53671173                0.77591577                6.65648961               12.50783520
              70.04682404               20.77118334               86.82958227                0.44553345                0.31438244                1.09316227               -3.69645274                0.20263111              101.45255739              -11.55410705
              71.04980458               16.72330583               86.42222504                0.43996458               -0.32611567                2.31609890               -4.91060749                0.15000428              186.55285341               -5.32916318
              72.04030173               12.67539806               85.88872700                0.43897263               -0.97362399                3.47455267               -7.23545980                0.34842052              171.62110007               -5.82111518
              73.03033210                8.63320980               85.24154471                0.43883043               -0.43571143                4.75444777              -10.94112765                0.55353494              156.59494180               -6.81386839
              74.03158750                4.59651241               84.45764653                0.43903803                1.18218548                6.19724889              -16.06171931                0.68159356              139.74814958               -8.21701763
              75.05397581                0.56293597               83.51375041                0.43968908                3.66268894                7.80387516              -22.43529914                0.73909149              121.12117821              -10.01043626
              76.10484128               -3.47062775               82.38509346                0.44168231                6.70474504                9.54693773              -29.72454144                0.74383662              100.44494765              -12.34800882
              77.18807071               -7.50721125               81.04093539                0.44404385                9.91477993               11.36950221              -37.40697928                0.72039342               76.67799038              -15.58130534
              78.30313687              -11.54912387               79.43454587                0.44802762               12.79785139               13.18060898              -44.75942802                0.73494588               45.59048193              -20.42596993
              79.44402774              -15.59698947               77.45126853                0.72564786               14.08908667               14.91261321              -50.77855096                1.13854404               28.18424679              -33.10056065
              29.07247183               15.33204308               93.19441654                0.72987406               -0.99462573               -1.09661908                3.96037462               -0.29858904               -7.08160677                7.53858644
              30.06252557               11.08728709               92.23696607                0.45089088               -0.77492162               -0.72113194                2.64647772               -0.20856456               -8.74761775               -6.19856158
              31.05697340                6.84140531               91.24371492                0.44332128               -0.38763732               -0.36211187                1.61377964               -0.31045981               -7.72530752                0.15901321
              32.05477282                2.59600930               90.29801973                0.44066364               -0.03939708                0.00218661                0.58801608               -0.31843171               -4.87074068               -0.34225652
              33.05618545               -1.64828646               89.35549094                0.43900104                0.31674816                0.38121106               -0.42498443               -0.32245415               -4.42271466               -0.21727940
              34.06110779               -5.89133877               88.41520005                0.43915926                0.67049781                0.76771512               -1.45220431               -0.32535499               -4.39784530               -0.14954581
              35.06959541              -10.13329467               87.47246581                0.43998474                1.02724756                1.15718219               -2.51363306               -0.32506135               -4.95027864               -0.10465210
              36.08165274              -14.37459901               86.52291083                0.44347745                1.36780004                1.53812863               -3.60612541               -0.31710696               -6.02116212               -0.04542905
              37.09695141              -18.61653120               85.56252464                0.44800119                1.65741723                1.91374008               -4.71973152               -0.29874982               -7.79055568               -0.07977934
              38.11480108              -22.86159062               84.58290013                0.45451626                1.87608893                2.28796615               -5.83253960               -0.27497958               -8.52617497                0.58830818
              39.13447319              -27.11412114               83.61437706                0.73035242                1.96721063                2.67514267               -7.03401802                0.37265409               -8.34944846               -5.20465182
              33.31424193               16.32107689               92.81364598                0.45557123               -0.84831237               -0.79379276                3.45209713                0.11910649                6.31299150               12.90582470
              34.30575881               12.08007577               91.85427301                0.00010000               -0.73671218               -0.84662443                2.13547192                0.18271437               14.38975356              -11.42222679
              35.29950769                7.83778419               91.05538760                0.00010000               -0.46622100               -0.20342452                0.95484439                0.40336736               20.65016183              -14.90162011
              36.29643439                3.59603117               90.22807111                0.00010000               -0.14363727                0.29986923               -0.41079508                0.29039737               19.13691141              -21.91073920
              37.29663494               -0.64447435               89.40506491                0.00010000                0.19619775                0.71200733               -1.85387054               -0.00051594               19.06637475              -30.05494559
              38.30035835               -4.88366162               88.58090735                0.00010000                0.56699856                1.00217152               -3.35401753               -0.30370723               18.68366463              -39.51393156
              39.30797492               -9.12172285               87.75328040                0.00010000                0.98707926                1.13731536               -4.88834297               -0.45997589               18.13073589              -50.45403937
              40.32009993              -13.35921772               86.91983906                0.00010000                1.47424026                1.07688321               -6.41066508               -0.32203054               17.28390241              -63.00013377
              41.33745972              -17.59739379               86.07642367                0.00010000                2.03731642                0.78072917               -7.91780307                0.25149462               16.24179109              -77.21940617
              42.36084626              -21.83871096               85.22331369                0.00010000                2.66352621                0.23163840               -9.42397163                1.42247556               13.15496531              -93.17538458
              43.39073025              -26.08736971               84.31943486                0.45350028                2.98839866               -1.27616331              -10.75923433                4.20217159               10.53649561             -113.58466499
              37.55685621               17.31616723               92.53744310                0.45193905               -0.73836514               -0.43668638                3.20195956               -0.04328390               -0.74016685               17.22045739
              38.54947256               13.07035460               91.36635901                0.00010000               -0.38854323               -0.92333536                1.58721393                0.71750708               17.81654198              -14.93671243
              39.54908534                8.83733682               90.56487091                0.00010000               -0.33166238               -0.16126496                1.09035681                1.56132890               34.99369840              -28.61780812
              40.54283931                4.60200668               89.72655605                0.00010000               -0.66087140                0.52363365               -0.00843319                1.20029100               31.49545873              -42.62413453
              41.53586792                0.36595369               88.85841024                0.00010000               -0.52785808                1.04995072               -1.68225243                0.61707245               28.10606587              -58.87395892
              42.53228215               -3.87129534               87.96056468                0.00010000                0.00420405                1.37140506               -3.87799139               -0.00933354               24.46077566              -77.59717474
              43.53595200               -8.11054836               87.02913480                0.00010000                0.93004625                1.42011632               -6.53080187               -0.42312219               20.45796830              -99.15962234
              44.55088307              -12.35306134               86.06042810                0.00010000                2.27612745                1.11643441               -9.55388083               -0.40490254               16.21014544             -123.83805108
              45.58147455              -16.60091661               85.05114454                0.00010000                4.11717198                0.37764909              -12.79941288                0.22746287               11.59734443             -151.73519806
              46.63322651              -20.85695786               83.99280543                0.00010000                6.71797880               -0.95927122              -15.98852904                0.85225433                5.83470802             -183.11070862
              47.71583412              -25.13964440               82.86212131                0.44631948                8.26076097               -2.86283666              -18.68043977                2.67091526                3.47966352             -216.54061703
              41.80500152               18.31234316               92.23331860                0.45132389               -0.60621581               -0.39987344                2.97100586               -0.06383549               -0.02874804               16.73564169
              42.79893936               14.06160906               90.92043818                0.00010000               -0.29596672               -0.75217493                1.01493170                1.24734552               24.10626464              -13.20148361
              43.79908218                9.83455889               90.08915082                0.00010000               -0.35580089               -0.24892092                0.92033833                2.37468719               47.23093673              -27.25517766
              44.79182334                5.60650384               89.22563517                0.00010000               -0.84018840                0.43630393               -0.08977225                2.11596184               43.36372320              -41.53398183
              45.78227841                1.37652467               88.31618677                0.00010000               -0.75748050                1.09836350               -2.02385614                1.71234838               38.01231374              -57.17596582
              46.77667373               -2.85623351               87.35335371                0.00010000               -0.04999678                1.65803250               -4.83033370                1.28001999               31.78945753              -74.91377651
              47.78127848               -7.09332052               86.33085839                0.00010000                1.28481985                2.03686193               -8.41941018                0.93532386               25.00866452              -95.19999922
              48.80237013              -11.33688903               85.24398390                0.00010000                3.23135072                2.15386902              -12.63958652                0.77057447               18.00765609             -118.34246911
              49.84590549              -15.58984081               84.08971654                0.00010000                5.71245057                1.93661741              -17.22423608                0.68039926               11.13038696             -144.47975513
              50.91661914              -19.85789639               82.86601574                0.00010000                8.18080787                1.36735493              -21.73293286                0.44613935                4.99548656             -173.34751562
              52.00952165              -24.14462644               81.57715250                0.44653482                9.29025112                1.35156980              -25.46772734                0.60763031                2.93833698             -203.65708671
              46.05704771               19.30816976               91.94004425                0.45105410               -0.48439705               -0.45556624                2.82352105               -0.06360791               -0.00617488               17.75068272
              47.05220374               15.05531110               90.47298633                0.00010000               -0.26816999               -0.47982785                0.37334033                1.55269660               31.04603952              -13.41674322
              48.05168431               10.83235840               89.62618091                0.00010000               -0.45054837               -0.11137348                0.49680040                3.00399242               60.71518160              -26.26752225
              49.04319277                6.61073276               88.74055744                0.00010000               -0.94160364                0.51125528               -0.54185873                2.87559666               55.93715798              -39.62821789
              50.03285223                2.38792096               87.79739263                0.00010000               -0.77325149                1.26474792               -2.76009023                2.58324672               49.10495623              -54.09014220
              51.02772774               -1.83813469               86.78225696                0.00010000                0.12308780                2.03420007               -6.10910948                2.21007596               40.82888668              -70.32950938
              52.03531399               -6.06981113               85.68495882                0.00010000                1.75435556                2.73554606              -10.47778400                1.80413324               31.71433409              -88.88400322
              53.06281485              -10.30998396               84.49915488                0.00010000                4.03879473                3.30685293              -15.66662610                1.36615832               22.38224589             -110.14548901
              54.11608989              -14.56218426               83.22279341                0.00010000                6.70600400                3.73316617              -21.33278184                0.84882065               13.55464690             -134.33198593
              55.19693493              -18.82961076               81.85939774                0.00010000                9.26784799                4.19181363              -26.92762694                0.24406166                6.00339441             -161.39467389
              56.30144685              -23.11261301               80.41914642                0.44663014               10.45119142                4.86810924              -31.69025474                0.52724359                3.39723062             -191.20774262
              50.30944668               20.30323184               91.65109808                0.45118108               -0.36420321               -0.54107315                2.70004080               -0.07084809                0.06466690               18.19710880
              51.30580465               16.05201250               90.02681266                0.00010000               -0.28531558               -0.16688805               -0.29308844                1.62633106               38.73893695              -13.47590443
              52.30374037               11.83233142               89.17552258                0.00010000               -0.60159653                0.16254244               -0.12637936                3.20452872               75.66908252              -25.17585467
              53.29377271                7.61672894               88.28128136                0.00010000               -1.04647848                0.78330743               -1.28070123                3.25681185               70.05013724              -36.96252156
              54.28281080                3.40181963               87.31890698                0.00010000               -0.75826892                1.62104413               -3.79480241                3.06802836               61.83529569              -49.63135813
              55.27860734               -0.81554951               86.26860232                0.00010000                0.31998108                2.58109086               -7.62431680                2.71169993               51.73138659              -63.86294331
              56.28921042               -5.03860960               85.11600189                0.00010000                2.17295475                3.58819917              -12.64663736                2.22403307               40.48103127              -80.24816970
              57.32206643               -9.27075197               83.85230984                0.00010000                4.66491415                4.60226275              -18.63062874                1.62353963               28.88641684              -99.27779945
              58.38250870              -13.51517749               82.47486185                0.00010000                7.49313428                5.64804642              -25.18292401                0.93889882               17.81359668             -121.34197727
              59.47192912              -17.77406011               80.98794620                0.00010000               10.17811623                6.79834430              -31.70297078                0.30328628                8.11814699             -146.73525855
              60.58607103              -22.04726426               79.40311241                0.44706022               11.41419085                8.07035999              -37.38594257                0.51080434                4.46921863             -175.64651403
              54.55806942               21.29734829               91.36378540                0.45047644               -0.24386465               -0.62307181                2.56223240               -0.06902145                0.14973214               18.32076822
              55.55563077               17.05197334               89.58062126                0.00010000               -0.35054899                0.15040832               -0.95329307                1.50124550               47.37759673              -13.62438974
              56.55105844               12.83560925               88.74187297                0.00010000               -0.83949851                0.54571773               -0.89217256                3.00270761               92.52051204              -23.61100471
              57.53884080                8.62639891               87.85806294                0.00010000               -1.22835906                1.24278759               -2.22657860                3.22212469               86.12750235              -33.30317907
              58.52649126                4.42034184               86.89696116                0.00010000               -0.82249174                2.18676774               -5.03400726                3.12535801               76.55992760              -43.64251231
              59.52239097                0.21348713               85.83325430                0.00010000                0.42529270                3.31890314               -9.28674151                2.78606026               64.66485490              -55.39199822
              60.53499711               -3.99804714               84.64833381                0.00010000                2.47312815                4.58962707              -14.85970188                2.26239770               51.29087986              -69.16406974
              61.57185353               -8.21793871               83.33005070                0.00010000                5.15894451                5.97329052              -21.50005021                1.61028994               37.30354921              -85.52982606
              62.63817600              -12.44922334               81.87291503                0.00010000                8.16169482                7.47673584              -28.77857677                0.92045419               23.60658061             -105.07556553
              63.73508743              -16.69364387               80.27884524                0.00010000               10.99476112                9.12877338              -36.05351288                0.32307514               11.09454974             -128.37888360
              64.85807123              -20.95120581               78.55762954                0.44756209               12.29837977               10.92285807              -42.48189679                0.52175619                6.00833779             -155.91290918
              58.79881616               22.29077040               91.07601280                0.45070060               -0.12475651               -0.67181284                2.41459066               -0.06900843                0.18098156               18.11425611
              59.79756860               18.05502067               89.13273197                0.00010000               -0.47236097                0.44126648               -1.60594032                1.25016835               57.24697543              -13.87269177
              60.78936894               13.84324578               88.33094431                0.00010000               -1.20429913                1.04109031               -1.74512529                2.51293517              111.81157801              -21.37609397
              61.77348262                9.64158470               87.48291188                0.00010000               -1.55696042                1.88203912               -3.29185791                2.83022681              104.57000449              -28.28990012
              62.75822974                5.44555498               86.54869553                0.00010000               -1.03825442                2.93867364               -6.37497583                2.77977525               93.53996919              -35.85173239
              63.75271753                1.25082855               85.49754074                0.00010000                0.38272366                4.21058432              -10.99882255                2.47092443               79.79117089              -44.73595741
              64.76588421               -2.94681706               84.30709159                0.00010000                2.63654475                5.68493095              -17.04171023                1.96747133               64.26086987              -55.46328782
              65.80544842               -7.15128616               82.96128693                0.00010000                5.53693700                7.33468180              -24.23098822                1.34780882               47.74202585              -68.61353903
              66.87662295              -11.36564277               81.44963962                0.00010000                8.74623353                9.14507328              -32.09932966                0.72889139               31.02824667              -84.95250322
              67.98037309              -15.59148465               79.76822418                0.00010000               11.75035380               11.11872559              -39.95649130                0.24496299               14.99061170             -105.47645611
              69.11163003              -19.82880710               77.92160705                0.44770833               13.12569321               13.27182019              -46.91305386                0.48934363                8.04552856             -131.10510209
              63.02818872               23.28391204               90.78448269                0.45075964               -0.00299562               -0.68966801                2.23400131               -0.08615792                0.30829554               17.81363671
              64.02815876               19.06079867               88.68210323                0.00010000               -0.67178023                0.70451336               -2.23983030                0.97405467               68.81744552              -14.49104008
              65.01475312               14.85643106               87.95047308                0.00010000               -1.75113146                1.67806582               -2.62194330                1.89587600              134.22629166              -17.78939400
              65.99313613               10.66403969               87.17102046                0.00010000               -2.09551033                2.67813177               -4.36109004                2.12682224              125.74114301              -21.34260687
              66.97284291                6.47911532               86.29296772                0.00010000               -1.44773176                3.79939422               -7.68850885                2.07539498              112.86440437              -25.96299076
              67.96418150                2.29769882               85.28333376                0.00010000                0.18091713                5.17047689              -12.64494432                1.82290463               97.20857630              -31.78639384
              68.97646125               -1.88434852               84.11796831                0.00010000                2.67269598                6.78602231              -19.10748150                1.40570050               79.63009686              -39.10278442
              70.01763542               -6.07124507               82.77725148                0.00010000                5.82455313                8.61215805              -26.77788867                0.88877479               60.64890726              -48.39526947
              71.09295231              -10.26632187               81.24385401                0.00010000                9.27577970               10.60647809              -35.14022290                0.39490298               40.63799360              -60.46518272
              72.20315101              -14.47126936               79.50228214                0.00010000               12.47753443               12.73885177              -43.43181183                0.07683872               20.21007607              -76.85178723
              73.34250300              -18.68576940               77.54543262                0.44782128               13.93519895               15.02764193              -50.69048704                0.41892850               10.84097907              -99.93014142
              67.24331975               24.27697704               90.49139982                0.45014422                0.12109246               -0.67452400                2.05566965               -0.09280289               -0.36524505               15.31595363
              68.24453067               20.06911093               88.22211305                0.00010000               -0.96371551                0.93838318               -2.89493713                0.81568494               82.87100280              -13.41677150
              69.22404544               15.87680709               87.61853891                0.00010000               -2.55979353                2.52455999               -3.39251960                1.14690184              161.00287005              -10.91782442
              70.19333480               11.69514733               86.94328083                0.00010000               -2.89834632                3.47660769               -5.24772981                1.14840949              149.38783271              -11.83846541
              71.16607851                7.52154287               86.14992614                0.00010000               -2.03476707                4.63591140               -8.79481584                1.07267024              134.23603602              -13.86638687
              72.15263946                3.35423809               85.21180302                0.00010000               -0.15682022                6.06654445              -14.07825050                0.93310056              116.86841099              -16.67056215
              73.16294211               -0.81109661               84.10529368                0.00010000                2.62789020                7.76967174              -20.95491365                0.68150646               97.67975329              -20.34662124
              74.20519726               -4.97904300               82.80875453                0.00010000                6.08015953                9.70711163              -29.09067981                0.36286455               76.82761676              -25.16911525
              75.28454530               -9.15351321               81.29887921                0.00010000                9.80800693               11.81453904              -37.91672899                0.06367102               53.88887480              -31.68485334
              76.40135740              -13.33670761               79.54287275                0.00010000               13.22316949               14.00929524              -46.57420441               -0.07326503               27.97106248              -41.13869573
              77.54900869              -17.52825426               77.49808788                0.44829444               14.76512843               16.24977621              -53.93670369                0.38087787               15.06387872              -58.29264729
              71.44206488               25.27042156               90.15075215                0.72530664                0.25775336               -0.65554844                1.74025356                0.78899011                6.87321787               12.89282377
              72.44464241               21.07956633               87.79365860                0.44419547               -1.52050601                1.04553953               -3.45715620                1.83620874              103.88125912              -11.90478721
              73.41165476               16.90692226               87.37823387                0.43920563               -3.66369288                3.01151624               -3.72567276                1.46120769              190.34481556               -5.70985529
              74.37136855               12.73357185               86.82323329                0.43891792               -3.82245998                3.84245158               -5.64641899                1.04893945              173.76057517               -6.18764115
              75.33520556                8.57183354               86.13846721                0.43883087               -2.79427802                5.02906777               -9.44570660                1.18559754              156.99660169               -7.12623137
              76.31548299                4.41902971               85.30072054                0.43895905               -0.59165434                6.47916185              -15.11576610                1.24492153              138.53950627               -8.47420494
              77.32337247                0.27104491               84.28853372                0.43944168                2.59131572                8.21415258              -22.46015320                1.23640911              118.60471561              -10.22417635
              78.36730931               -3.87710284               83.08080906                0.44062130                6.42589369               10.19401637              -31.09950879                1.15740422               97.12203658              -12.53299666
              79.45189034               -8.03003109               81.65255249                0.44266749               10.45587277               12.34821220              -40.42149168                1.03547381               73.30786786              -15.74516419
              80.57642676              -12.19108345               79.96518980                0.44577328               14.06617578               14.56241565              -49.51605504                0.96979631               43.28180714              -20.55380491
              81.73321386              -16.36077388               77.91574250                0.72392961               15.67870973               16.74803794              -57.01619046                1.45147454               26.93855743              -32.98166095
              29.96574117               15.79072150               94.23211452                0.72740755               -0.86350635               -0.95069830                3.56578223               -0.25403598               -7.06002503                7.52134062
              30.95710611               11.41045331               93.26217705                0.44816891               -0.46347708               -0.68594733                2.38689278                0.03024263               -8.56096648               -6.20861039
              31.95647163                7.03450328               92.25944212                0.44267467                0.03566812               -0.30991875                1.52022668               -0.25963391               -7.25988479                0.12754670
              32.95781947                2.66739734               91.30427741                0.44005617                0.23351498                0.01682876                0.66267235               -0.27726718               -4.32217298               -0.36526372
              33.96114193               -1.69294267               90.35250080                0.43903510                0.42837266                0.35683832               -0.16549897               -0.30331181               -3.84114586               -0.21348753
              34.96638693               -6.04904021               89.40285013                0.43872535                0.63594767                0.70403081               -1.00759941               -0.31573257               -3.84826057               -0.14481336
              35.97386089              -10.40331748               88.45035761                0.44018023                0.87324940                1.04989970               -1.88751593               -0.31181347               -4.46135912               -0.09863445
              36.98385191              -14.75804051               87.49077043                0.44197008                1.12543619                1.39584432               -2.79671162               -0.30264798               -5.59010110               -0.05360077
              37.99636961              -19.11537166               86.52018606                0.44506878                1.34692918                1.73111572               -3.73687502               -0.30581051               -7.40417202               -0.08364315
              39.01079050              -23.47850126               85.53024341                0.45080781                1.50589361                2.06404512               -4.66494116               -0.27326171               -8.21867693                0.54052016
              40.02648748              -27.85203841               84.55045312                0.72752141                1.56969836                2.39847942               -5.68931612                0.55273438               -8.11579913               -5.05256726
              34.34346901               16.78121452               93.84651808                0.45134865               -0.79513563               -0.45389144                3.11189270                0.35976451                6.32432485               13.03011702
              35.33551765               12.40359384               92.87460460                0.00010000               -0.90328616               -1.03353049                1.92489455                0.73495984               14.44617323              -11.45389065
              36.32540328                8.03140409               92.06417807                0.00010000               -0.83739364                0.20827361                0.79505910                1.76986477               20.52292520              -14.39377442
              37.31876978                3.66756562               91.22343721                0.00010000               -0.45378487                0.79536300               -0.51468690                2.08309468               18.79607814              -21.01637988
              38.31632759               -0.68937429               90.38635737                0.00010000               -0.01763858                1.14712754               -1.89236097                1.92087772               18.61207222              -29.00119046
              39.31841701               -5.04199990               89.54741023                0.00010000                0.44576589                1.29500219               -3.34174297                1.53574361               18.17259957              -38.55475162
              40.32524290               -9.39281848               88.70481480                0.00010000                0.92177596                1.22716199               -4.79798470                1.16720080               17.60902436              -49.84828253
              41.33685252              -13.74408207               87.85636847                0.00010000                1.41494875                0.90822513               -6.25923637                1.05863453               16.79043882              -62.98979092
              42.35354188              -18.09806050               86.99847277                0.00010000                1.97693665                0.25134799               -7.67921019                1.45806798               15.77890489              -77.98575240
              43.37639126              -22.45786081               86.13059955                0.00010000                2.60050499               -0.80954355               -9.11434013                2.68555794               12.77450476              -94.73721187
              44.40555198              -26.82805362               85.21368044                0.44966233                2.91607207               -3.47254899              -10.33550161                6.25143052               10.22904638             -115.64903892
              38.72817783               17.78164368               93.56798939                0.44790894               -0.65620907                0.03702850                2.90923585                0.00079716               -0.82974575               17.62616822
              39.72161574               13.38978270               92.38150266                0.00010000               -0.01403412               -1.29698197                1.43802048                2.16152172               18.37264283              -15.14932242
              40.72789715                9.03866875               91.57728777                0.00010000               -0.06779951                0.21986865                1.44501553                4.92039386               36.16175503              -27.49097506
              41.72025975                4.68330460               90.72929001                0.00010000               -0.93860684                1.16932203                0.63421384                4.85189891               32.07862461              -40.78307411
              42.70912501                0.32999988               89.84494306                0.00010000               -0.98568766                1.67286910               -0.91365225                4.43849109               28.10047327              -56.78969308
              43.70054599               -4.02314016               88.92506114                0.00010000               -0.49189688                1.82117704               -3.11250795                3.65687901               23.89846757              -75.73658951
              44.69928707               -8.37877424               87.96639437                0.00010000                0.48603154                1.58728206               -5.90184195                2.84897161               19.37522024              -98.00415721
              45.71026662              -12.73987601               86.96616656                0.00010000                2.00113190                0.87762273               -9.20259954                2.35927633               14.68777461             -123.84154899
              46.73930971              -17.11034470               85.92250332                0.00010000                4.21140741               -0.45475823              -12.87806758                2.51683845                9.87271741             -153.27896719
              47.79449477              -21.49469213               84.83009716                0.00010000                7.62960011               -2.73902484              -16.59258041                2.42885985                4.45446550             -186.34875421
              48.89190171              -25.92148939               83.67077918                0.44364897                9.74069384               -6.15733287              -19.74234340                4.18319388                2.86590731             -221.74860015
              43.12720689               18.78195509               93.26193697                0.44782085               -0.54838862               -0.05280382                2.75506249               -0.02752121               -0.05805084               17.28636493
              44.12172301               14.37765420               91.93004182                0.00010000                0.15411870               -1.03777307                0.90076105                3.20230429               25.16935009              -13.57157570
              45.13028927               10.03580147               91.10142865                0.00010000                0.13768096               -0.40403527                1.61942578                6.23616736               49.30183897              -26.45339783
              46.12447663                5.69095206               90.22985070                0.00010000               -0.93735512                0.49242554                1.06081882                6.03608598               44.67161668              -40.09338698
              47.11154217                1.34408310               89.30178656                0.00010000               -1.20739608                1.21292981               -0.70433447                5.70583942               38.47848654              -55.52675746
              48.10032870               -3.00557636               88.31046815                0.00010000               -0.62919923                1.72321204               -3.57889454                5.18882193               31.40755567              -73.45005218
              49.09895818               -7.36107284               87.25056734                0.00010000                0.76399026                1.96546854               -7.46926592                4.55791320               23.81667483              -94.31635568
              50.11560851              -11.72652961               86.11887899                0.00010000                2.98682940                1.83845822              -12.24440362                3.93554008               16.16107895             -118.42801259
              51.15869477              -16.10715566               84.91519492                0.00010000                6.02523182                1.22401818              -17.63480091                3.17839990                9.03555375             -145.88879227
              52.23611315              -20.51264130               83.64233265                0.00010000                9.20578047                0.02994002              -23.11422374                1.92410822                3.47479561             -176.44492889
              53.34281038              -24.95120027               82.31259595                0.44412355               10.66972315               -0.47361629              -27.74585651                1.32711270                2.21736344             -208.83652946
              47.53622918               19.78058760               92.96765446                0.44793697               -0.44137364               -0.24303233                2.68455529               -0.04873331               -0.02593899               18.37399937
              48.53181545               15.36902724               91.47628042                0.00010000                0.15467222               -0.65936438                0.28539597                3.71355899               32.54264456              -13.88194765
              49.53932263               11.03058805               90.63529313                0.00010000                0.04421942               -0.47685342                1.42807958                7.20684449               63.55566126              -25.81333573
              50.53269984                6.69315311               89.74178582                0.00010000               -0.97762056                0.16071388                0.93971743                7.02982675               57.83845027              -38.63751289
              51.51977022                2.35425848               88.77721971                0.00010000               -1.16107346                0.97537988               -1.09641493                6.71457312               50.01270687              -52.90485673
              52.50947837               -1.98867592               87.72785777                0.00010000               -0.41858140                1.77847329               -4.57783774                6.21953269               40.72903901              -69.27114628
              53.51139859               -6.33946487               86.58468723                0.00010000                1.27909416                2.46802420               -9.38804752                5.51651636               30.65588237              -88.27878162
              54.53506025              -10.70310684               85.34338091                0.00010000                3.87954040                2.96725436              -15.34846647                4.56297228               20.56457624             -110.33606761
              55.58898940              -15.08586433               84.00548180                0.00010000                7.09806472                3.25038563              -22.11102448                3.25943361               11.46512725             -135.68785491
              56.67702155              -19.49409333               82.58055358                0.00010000               10.32862532                3.56804796              -29.02847746                1.52881806                4.49650990             -164.32123342
              57.79556190              -23.93096172               81.08744465                0.44432752               11.85403593                4.24037386              -35.10946335                1.17014068                2.67651109             -196.17083440
              51.94935294               20.77709445               92.67767283                0.44780246               -0.33592022               -0.43864691                2.61014200               -0.05286683                0.07538900               18.81298737
              52.94599374               16.36446691               91.02367127                0.00010000                0.04736755               -0.26160910               -0.33691681                3.77191460               40.58045646              -13.95930495
              53.95030029               12.02626440               90.17911469                0.00010000               -0.22955041               -0.29605835                0.95793372                7.38507386               79.10926002              -25.04141751
              54.94140273                7.69416634               89.27608365                0.00010000               -1.13188186                0.21058222                0.40470443                7.43943652               72.43068582              -36.42442707
              55.92766266                3.36359069               88.28930614                0.00010000               -1.14800140                1.07737122               -1.93685640                7.18390971               63.11616529              -48.91377081
              56.91844270               -0.97000689               87.19966426                0.00010000               -0.19716132                2.12104838               -5.96260434                6.64214798               51.90895065              -63.20358009
              57.92371943               -5.31171236               85.99409526                0.00010000                1.74123593                3.22090411              -11.54431455                5.79538711               39.61410676              -79.91112001
              58.95326742               -9.66718452               84.66614478                0.00010000                4.55752483                4.32550790              -18.47340274                4.62299564               27.19610588              -99.56189674
              60.01486993              -14.04214795               83.21726926                0.00010000                7.92597335                5.48400111              -26.35156890                3.12389067               15.80695392             -122.58454882
              61.11178689              -18.44128034               81.65832791                0.00010000               11.25400201                6.83054608              -34.48147329                1.44391943                6.66037460             -149.31576017
              62.23994997              -22.86639280               80.00998770                0.44485486               12.81630770                8.45347251              -41.83063671                1.07729170                3.76256285             -179.96601234
              56.36042691               21.77181466               92.38940344                0.44801847               -0.23431233               -0.59529236                2.54055809               -0.06141881                0.15680463               18.88877079
              57.35808379               17.36379506               90.57100754                0.00010000               -0.15511166                0.10756266               -0.95846390                3.48569599               49.45546243              -14.08160246
              58.35732468               13.02466688               89.73829974                0.00010000               -0.69607580                0.05143864                0.29674515                6.89067230               96.38740805              -23.75863207
              59.34416227                8.69736475               88.84395452                0.00010000               -1.48515164                0.58245004               -0.42466255                7.19736150               88.85641980              -33.18756305
              60.32762165                4.37580590               87.85540010                0.00010000               -1.32689479                1.54573027               -3.08418968                7.02371845               78.11264495              -43.36197762
              61.31762438                0.05374505               86.74782717                0.00010000               -0.15688397                2.79326919               -7.59448292                6.43816063               65.03847790              -55.09915458
              62.32448397               -4.27504679               85.50395632                0.00010000                2.01656919                4.23243502              -13.82635147                5.49726849               50.55143190              -69.06073068
              63.35795576               -8.61659668               84.11420200                0.00010000                5.05395324                5.83402725              -21.55091944                4.25005861               35.68599113              -85.85956545
              64.42556303              -12.97618431               82.57756601                0.00010000                8.60945088                7.63182727              -30.33391512                2.79346305               21.63515133             -106.11292892
              65.53014478              -17.35748241               80.90296930                0.00010000               12.08848059                9.70769404              -39.43516719                1.28632719                9.65104392             -130.41406452
              66.66733264              -21.76189227               79.10972882                0.44501710               13.71878650               12.11005255              -47.77902807                1.01629980                5.30173737             -159.22740931
              60.76416377               22.76518860               92.10025679                0.44750259               -0.13083272               -0.70248213                2.41425634               -0.06561896                0.20303194               18.62002155
              61.76285544               18.36661817               90.11695161                0.00010000               -0.48098598                0.43014627               -1.53509119                2.99884515               59.47427952              -14.28642486
              62.75454405               14.02729317               89.31916149                0.00010000               -1.43222503                0.56419790               -0.48456558                5.93002465              115.94004572              -21.76902407
              63.73421094                9.70581534               88.45841087                0.00010000               -2.13936593                1.26781167               -1.43103151                6.39942697              107.51695109              -28.53438987
              64.71175673                5.39450530               87.49381460                0.00010000               -1.80761685                2.35619171               -4.40129118                6.23440034               95.23654011              -35.93794323
              65.69805860                1.08585849               86.39479036                0.00010000               -0.38750996                3.75485008               -9.34182752                5.62589816               80.22278786              -44.74424776
              66.70400653               -3.22706366               85.14027137                0.00010000                2.06737587                5.43828640              -16.13007378                4.67720141               63.50197356              -55.53886424
              67.73940612               -7.55050398               83.71696735                0.00010000                5.38091891                7.38129512              -24.51690472                3.48594961               46.05295879              -68.94078160
              68.81162491              -11.88951141               82.11929395                0.00010000                9.19076329                9.59060529              -34.02486234                2.19547811               28.97064797              -85.72569121
              69.92322139              -16.24712646               80.35086042                0.00010000               12.87353855               12.11078641              -43.85578962                0.98201397               13.48928102             -106.86647626
              71.06909568              -20.62419174               78.42628456                0.44529564               14.58742931               15.01846191              -52.87478116                0.88896724                7.30265418             -133.23839596
              65.15625539               23.75776502               91.80714435                0.44680999               -0.02992760               -0.74053642                2.27992726               -0.05355172                0.34094665               18.30172878
              66.15595612               19.37239799               89.66034084                0.00010000               -0.97636998                0.68713752               -2.09619016                2.49352543               71.14548741              -14.89937452
              67.13672799               15.03595084               88.93014800                0.00010000               -2.55087176                1.33671946               -1.30550890                4.75402373              138.51041468              -18.35260681
              68.10493868               10.72272098               88.13591246                0.00010000               -3.22307464                2.29275199               -2.47660329                5.04534434              128.79158384              -21.81838576
              69.07226650                6.42292974               87.22482534                0.00010000               -2.66136950                3.41663993               -5.73360390                4.79583948              114.54810247              -26.28124353
              70.05171129                2.12884205               86.16368684                0.00010000               -0.89380178                4.89417073              -11.06880318                4.21829675               97.50131647              -31.98265141
              71.05439047               -2.16628106               84.92964403                0.00010000                1.92056051                6.72315167              -18.36001367                3.39195089               78.63058468              -39.27785159
              72.09012250               -6.46897078               83.50612334                0.00010000                5.58523047                8.87334832              -27.32971016                2.38994153               58.66540028              -48.67800037
              73.16609508              -10.78437221               81.88123855                0.00010000                9.71714457               11.31047929              -37.44073886                1.36785930               38.30465852              -60.97488374
              74.28446539              -15.11526668               80.04785378                0.00010000               13.65737374               14.02574642              -47.80082364                0.53693412               18.53802236              -77.64175871
              75.43924255              -19.46152303               78.00974926                0.44547781               15.47771559               17.09566569              -57.17897589                0.70078227               10.00261784             -100.92837151
              69.53382680               24.75037787               91.51255785                0.44701445                0.07133300               -0.71151202                2.14200591               -0.05604527               -0.36671680               15.74288386
              70.53454013               20.38036092               89.19415896                0.00010000               -1.72626379                0.87992585               -2.66166369                2.23305349               85.33348551              -13.79399695
              71.49930152               16.05402756               88.59073990                0.00010000               -4.32006002                2.68839810               -2.02095998                3.08538340              165.45776575              -11.42086711
              72.44813893               11.75167038               87.89939273                0.00010000               -4.88745341                3.45096570               -3.34013608                2.95758746              152.42790492              -12.28023662
              73.40155246                7.46283810               87.07054184                0.00010000               -3.82517990                4.53366552               -6.87194462                2.62909588              135.68308145              -14.17885628
              74.37163533                3.18374191               86.07726927                0.00010000               -1.59470387                6.01756191              -12.61056724                2.25805470              116.73775083              -16.87431238
              75.36965838               -1.09260062               84.89746820                0.00010000                1.68303842                7.91267050              -20.41252962                1.74061056               96.12882000              -20.50190011
              76.40529610               -5.37303701               83.51293100                0.00010000                5.78098059               10.17870119              -29.95919346                1.12197663               74.23541207              -25.34880147
              77.48527799               -9.66330182               81.90638370                0.00010000               10.29073951               12.74555570              -40.64834718                0.50888691               50.99072927              -31.94792308
              78.61111089              -13.96661153               80.05449903                0.00010000               14.51730160               15.52163099              -51.45856612                0.10705021               25.94374101              -41.48298377
              79.77562402              -18.28227843               77.92743315                0.44546307               16.45131322               18.47955428              -60.93115688                0.55585676               14.03361932              -58.48106609
              73.89516839               25.74353478               91.16907682                0.72364365                0.17991045               -0.68430910                1.88221883                0.78033180                7.08938109               13.26977435
              74.89696750               21.38999650               88.76043915                0.44227853               -3.40210981                0.96355855               -3.13201446                3.55193793              106.80636972              -12.25751799
              75.82712620               17.08971880               88.34771158                0.43945090               -7.08438017                3.56912408               -2.22140705                2.86965713              195.08000679               -6.18342168
              76.75527989               12.79174030               87.77579862                0.43865315               -6.71746512                4.00699157               -3.64356982                1.90830885              176.54479162               -6.63550375
              77.69277689                8.51360305               87.05263058                0.43883874               -5.14843944                5.07649494               -7.51117554                1.99509330              157.82635948               -7.49233245
              78.65231111                4.24919329               86.15533121                0.43862649               -2.33976483                6.54513785              -13.75024279                1.98604279              137.56212771               -8.75751400
              79.64598160               -0.00802765               85.06454735                0.43932476                1.54760644                8.45729747              -22.15172485                1.90281977              116.08406576              -10.44165109
              80.68326323               -4.26539676               83.76310328                0.43978857                6.19328684               10.76402547              -32.34660999                1.72504128               93.51992277              -12.70256762
              81.76984734               -8.52946109               82.23250556                0.44102957               11.11598871               13.38407291              -43.68456776                1.48506951               69.43591112              -15.87101370
              82.90558301              -12.80483406               80.44422477                0.44348227               15.59230716               16.17774760              -55.07996315                1.32366942               40.50672683              -20.60596734
              84.08169348              -17.09193194               78.31094472                0.72281492               17.61104695               19.03464896              -64.72764997                1.89715734               25.36844995              -32.64860122
              30.87114626               16.25366277               95.26573218                0.72468111               -0.71676178               -0.78584140                3.14824768               -0.19938440               -7.02480346                7.49054669
              31.86397864               11.73825979               94.28470393                0.44509423               -0.07354599               -0.65874415                2.11312775                0.34544198               -8.34587785               -6.20546884
              32.86967534                7.23448433               93.27411946                0.44123377                0.56460200               -0.24212802                1.41445388               -0.24794491               -6.71454344                0.08206504
              33.87527068                2.75038442               92.31127318                0.43950501                0.55572364                0.03065464                0.73653746               -0.24708737               -3.67455376               -0.38565936
              34.88078981               -1.72026936               91.35218096                0.43889148                0.55075397                0.33289372                0.10170990               -0.27562604               -3.15798093               -0.20614833
              35.88628576               -6.18335522               90.39504806                0.43905248                0.58290608                0.63875688               -0.54794258               -0.28890368               -3.20292001               -0.13576421
              36.89244794              -10.64418173               89.43471550                0.43941124                0.68682550                0.94564723               -1.23525012               -0.30067083               -3.88265851               -0.07847909
              37.90002227              -15.10686710               88.46697660                0.43998603                0.84735224                1.24574260               -1.96279422               -0.30694159               -5.08813732               -0.04916027
              38.90939498              -19.57477749               87.48778714                0.44373083                1.00691043                1.53513741               -2.71990676               -0.29009493               -6.94056617               -0.08048368
              39.92016048              -24.05149250               86.48960130                0.44738595                1.11714097                1.81835507               -3.43565307               -0.24566158               -7.80850736                0.47691048
              40.93173780              -28.54162712               85.50059073                0.72550378                1.15773188                2.09505751               -4.26613155                0.72769804               -7.77085222               -4.83641617
              35.38455540               17.24580436               94.87588383                0.44781959               -0.75331169               -0.01955354                2.75505040                0.69122418                6.31391554               13.14215762
              36.37702228               12.73167235               93.89277090                0.00010000               -1.17109110               -1.31644314                1.70597737                1.49535449               14.43324733              -11.46877665
              37.36113358                8.23206305               93.07128878                0.00010000               -1.34228145                0.78912039                0.62578612                3.69381823               20.25031861              -13.57953486
              38.35017665                3.75069097               92.21777737                0.00010000               -0.81151013                1.47736504               -0.61845820                4.62411768               18.30829857              -19.61936432
              39.34490337               -0.71694042               91.36721769                0.00010000               -0.24118701                1.74999995               -1.93430603                4.68289098               18.00949236              -27.33244030
              40.34535291               -5.17696765               90.51407249                0.00010000                0.31468958                1.71350901               -3.30699910                4.23647946               17.52352408              -36.93998464
              41.35119717               -9.63472526               89.65732071                0.00010000                0.84489105                1.38988414               -4.69154685                3.62305112               16.95943277              -48.62799268
              42.36225073              -14.09440968               88.79465433                0.00010000                1.38047819                0.72321300               -6.07608240                3.19032417               16.16980371              -62.50100831
              43.37880673              -18.55942611               87.92283946                0.00010000                1.94389751               -0.42203125               -7.41797190                3.33520194               15.18149637              -78.49514563
              44.40112868              -23.03330895               87.04102689                0.00010000                2.51713375               -2.20867699               -8.74654141                4.63145254               12.28879473              -96.34863243
              45.42914941              -27.52067655               86.11272482                0.44648148                2.80207206               -6.59523960               -9.83881103                9.26576208                9.85626992             -118.02592196
              39.91323476               18.25327170               94.59562782                0.44519343               -0.56077264                0.63005196                2.60974796                0.01969283               -0.93310867               18.04765859
              40.90762704               13.71193093               93.39511942                0.00010000                0.56491620               -1.81362816                1.27919956                4.14037179               19.12906605              -15.39178845
              41.92453309                9.25026674               92.59377122                0.00010000                0.45647348                0.77112642                1.90421260                9.60886498               37.76608952              -25.73514726
              42.91675651                4.77993172               91.73924032                0.00010000               -1.12134175                2.07246660                1.42912619                9.95925084               32.99883579              -37.96135361
              43.90210625                0.31473064               90.84013719                0.00010000               -1.39781579                2.53266458                0.04352323                9.86552785               28.39214376              -53.52710211
              44.88880019               -4.14908504               89.89831452                0.00010000               -0.98776374                2.44682329               -2.12087844                8.97882312               23.59645168              -72.63187819
              45.88235098               -8.61638405               88.91109796                0.00010000               -0.01352911                1.83923821               -5.00919928                7.73430850               18.45721201              -95.68749211
              46.88852961              -13.09240284               87.87637611                0.00010000                1.63236568                0.58730221               -8.59857587                6.59396600               13.15011763             -122.93320317
              47.91499829              -17.58321811               86.79358319                0.00010000                4.27551799               -1.55845092              -12.80074294                6.05464855                7.91302796             -154.34458655
              48.97403997              -22.09566604               85.66095382                0.00010000                8.83949750               -5.19712132              -17.25281194                4.86357691                2.73741687             -189.74115571
              50.09178824              -26.67353192               84.46727444                0.44163940               11.77482731              -10.86729811              -21.12691034                6.42305872                2.04611431             -228.04513880
              44.46763080               19.25840540               94.28841985                0.44499195               -0.47961262                0.33210957                2.53127399                0.00155098               -0.09762074               17.84867797
              45.46283468               14.69539978               92.93845340                0.00010000                0.88396398               -1.39441150                0.78111063                5.84355542               26.62986407              -14.00132693
              46.48531008               10.24748558               92.12153934                0.00010000                1.10315445               -0.59305457                2.47969796               11.47497802               52.19761408              -25.16964376
              47.48489777                5.79214030               91.24685155                0.00010000               -0.70396947                0.59089152                2.44375380               11.37529876               46.69063177              -37.85731938
              48.47123069                1.33371287               90.30210009                0.00010000               -1.44268503                1.37867994                0.89183181               11.23783377               39.61903332              -52.91403580
              49.45604407               -3.12803119               89.28177582                0.00010000               -1.10147801                1.81656568               -2.00062874               10.71937219               31.66046917              -70.96294390
              50.44920113               -7.59794049               88.18147307                0.00010000                0.24600253                1.87346834               -6.15367240                9.79625391               23.12582610              -92.45988814
              51.46096412              -12.08266363               86.99909583                0.00010000                2.69808820                1.42158652              -11.51522845                8.60637803               14.55425258             -117.72990175
              52.50316290              -16.59059513               85.73702052                0.00010000                6.38749552                0.26012060              -17.88663436                6.93168654                6.87286069             -146.88206381
              53.58871403              -21.13725137               84.40373127                0.00010000               10.50897174               -1.81823206              -24.69199021                4.17174607                1.76018318             -179.72890394
              54.71334233              -25.73802251               83.02223537                0.44190660               12.46283053               -2.99447656              -30.69990637                2.39321978                1.36593433             -215.13448331
              49.03927701               20.25991389               93.99373536                0.44544460               -0.38590465               -0.03313957                2.52230908               -0.02078118               -0.03887921               18.97760794
              50.03541796               15.68404270               92.47869425                0.00010000                0.90075636               -0.86502492                0.20080218                6.58144933               34.57593682              -14.39673648
              51.05729214               11.23840565               91.65474251                0.00010000                1.13086140               -0.94945594                2.54460520               12.79549763               67.48740953              -24.99700859
              52.05803519                6.79174955               90.75935179                0.00010000               -0.51288605               -0.30342992                2.68233656               12.55979025               60.70404163              -37.02239108
              53.04703442                2.34230424               89.77546433                0.00010000               -1.15970938                0.58254719                0.87217571               12.29097572               51.86736846              -50.94238506
              54.03484100               -2.11275373               88.69070021                0.00010000               -0.70629579                1.42203394               -2.69240704               11.73671224               41.55458195              -67.36800851
              55.03290850               -6.57891468               87.49719787                0.00010000                0.92354015                2.09196991               -7.91085598               10.72967590               30.38911632              -86.85078863
              56.05331181              -11.06397111               86.19218555                0.00010000                3.76556336                2.49263166              -14.69909086                9.13747051               19.25423258             -109.84324759
              57.10821977              -15.57801570               84.78057292                0.00010000                7.57952328                2.58212232              -22.79432005                6.76210927                9.53523873             -136.66355676
              58.20490227              -20.13203068               83.27882819                0.00010000               11.64875717                2.72301678              -31.50190004                3.41491982                2.94020918             -167.40078414
              59.34119491              -24.73342145               81.71695715                0.44227718               13.62926383                3.45769188              -39.56844211                2.09394201                1.89846477             -202.13548280
              53.61895757               21.25774261               93.70330092                0.44504465               -0.29856643               -0.36870735                2.51285328               -0.02831633                0.10194135               19.38696717
              54.61597191               16.67809929               92.02007433                0.00010000                0.72778056               -0.34908774               -0.38425181                6.55898098               43.03433777              -14.47617059
              55.63351318               12.22849646               91.19468125                0.00010000                0.81115357               -0.90079189                2.23749583               12.82699467               83.79472801              -24.63571553
              56.63219498                7.78607170               90.28937545                0.00010000               -0.59798474               -0.57145602                2.35659563               12.88504978               75.92607182              -35.40345253
              57.62155349                3.34536382               89.28016986                0.00010000               -1.00988723                0.31447972                0.22754131               12.60874421               65.51260883              -47.57336566
              58.61199723               -1.09959051               88.14935024                0.00010000               -0.32707274                1.45658381               -3.94833551               11.91491969               53.20281957              -61.84177274
              59.61501203               -5.55610110               86.88511559                0.00010000                1.54086555                2.67384087              -10.06400612               10.67609648               39.74095319              -78.86234609
              60.64281455              -10.03281100               85.48284178                0.00010000                4.57263097                3.90092669              -18.01648281                8.79001330               26.20809586              -99.22304175
              61.70646465              -14.53895268               83.94783047                0.00010000                8.48018135                5.22545490              -27.50398526                6.19559631               14.12186184             -123.43195840
              62.81241817              -19.08279104               82.29831673                0.00010000               12.57690269                6.87865066              -37.79572953                3.05636192                5.25045750             -151.91718035
              63.95800271              -23.66886867               80.56649968                0.44228661               14.55845342                9.06852939              -47.61234227                1.86183747                3.04609773             -184.94835684
              58.19799732               22.25253974               93.41459656                0.44509470               -0.21535960               -0.61563431                2.48375138               -0.02140114                0.17470489               19.38635183
              59.19584373               17.67706094               91.56145198                0.00010000                0.39311479                0.09297917               -0.94568994                6.00138241               52.17156659              -14.54497488
              60.20585962               13.22038981               90.74780787                0.00010000                0.15125530               -0.62397137                1.68674723               11.82284530              101.55866508              -23.70457684
              61.19886883                8.78032043               89.84956969                0.00010000               -1.04940544               -0.35663729                1.64684810               12.25887882               92.76111223              -32.70895439
              62.18487151                4.34859384               88.83527737                0.00010000               -1.21322608                0.60035319               -0.82686240               12.05425404               80.85875354              -42.59310526
              63.17460431               -0.08362205               87.68136464                0.00010000               -0.26102957                1.98372158               -5.54951916               11.23437915               66.62318589              -54.22798307
              64.17965092               -4.52543786               86.37180678                0.00010000                1.86796751                3.64095199              -12.41997551                9.82020674               50.90868922              -68.34057792
              65.21196366               -8.98595258               84.89903231                0.00010000                5.12304085                5.53939307              -21.32263961                7.83008663               34.86851496              -85.60903429
              66.28211173              -13.47350660               83.26623673                0.00010000                9.19909202                7.75617748              -31.92560302                5.35865478               20.06202379             -106.70857982
              67.39594550              -17.99445767               81.49014190                0.00010000               13.42375968               10.45461935              -43.45846879                2.61028344                8.29605947             -132.27227316
              68.55058693              -22.55205086               79.60204898                0.44272122               15.46414274               13.76366094              -54.59459864                1.68228628                4.60251752             -162.76307612
              62.76948716               23.24542992               93.12429793                0.44444230               -0.13376665               -0.74470931                2.38461186               -0.01623662                0.25591370               19.04613392
              63.76814949               18.67995887               91.10203015                0.00010000               -0.13882773                0.42714431               -1.44400510                5.14041292               62.33149132              -14.68549387
              64.76671060               14.21601703               90.32125300                0.00010000               -0.94904798               -0.12946520                0.99185682               10.12551238              121.34554483              -22.02143432
              65.74916853                9.77893895               89.45429125                0.00010000               -2.00647747                0.31848465                0.70938777               10.83877420              111.62841463              -28.53213345
              66.72658105                5.35737088               88.46066971                0.00010000               -1.92260063                1.40846858               -2.10879890               10.61520204               98.12987592              -35.67004543
              67.71071652                0.94008392               87.31070419                0.00010000               -0.64171801                2.95944649               -7.31817904                9.70659463               81.87815181              -44.30491057
              68.71374669               -3.48328206               85.98449011                0.00010000                1.83842489                4.91677359              -14.83200943                8.24392340               63.85296248              -55.10668068
              69.74748502               -7.92202314               84.47094884                0.00010000                5.41980732                7.25919200              -24.51775894                6.34190835               45.17197896              -68.75133785
              70.82214284              -12.38382913               82.76914237                0.00010000                9.78415423               10.02986538              -35.99707089                4.17639004               27.31191558              -86.03505971
              71.94316810              -16.87369865               80.89110839                0.00010000               14.23459891               13.33572609              -48.43144053                1.98444674               12.07195845             -107.90743388
              73.10683482              -21.39359545               78.86411143                0.44274957               16.36667166               17.32827194              -60.41805846                1.41919362                6.55999471             -135.18877028
              67.32861469               24.23764556               92.83008124                0.44449026               -0.05498204               -0.77638351                2.26362278               -0.03937201                0.36569140               18.69763269
              68.32806487               19.68560383               90.64017943                0.00010000               -0.96124533                0.65869084               -1.90129872                4.25118915               74.04913080              -15.26519821
              69.30938978               15.21780051               89.92436290                0.00010000               -2.68871993                0.74045669                0.24479225                8.11713407              143.99542091              -18.84551200
              70.27429047               10.78669012               89.12148839                0.00010000               -3.66796004                1.53587464               -0.29712932                8.59425699              132.93906209              -22.16825927
              71.23603058                6.37676321               88.17829564                0.00010000               -3.24506650                2.63948091               -3.44215934                8.20796493              117.37328676              -26.38976599
              72.20938914                1.97556688               87.06195770                0.00010000               -1.46970688                4.25117775               -9.10387110                7.29429966               98.95878480              -31.88245230
              73.20663644               -2.42710239               85.75076803                0.00010000                1.49798827                6.36220601              -17.20127404                5.98872333               78.67256990              -39.09075621
              74.23934890               -6.84076874               84.23065728                0.00010000                5.53393036                8.95120854              -27.57299747                4.38490469               57.41417350              -48.56435847
              75.31731505              -11.27290929               82.49503923                0.00010000               10.30259254               12.00452271              -39.76928962                2.68373069               36.29971040              -61.08295992
              76.44540076              -15.72774315               80.54626566                0.00010000               15.07246768               15.54801867              -52.83120266                1.17192728               16.90509228              -78.03224347
              77.61876440              -20.20548542               78.40185310                0.44332697               17.33636485               19.72622033              -65.23070394                1.07467344                9.13507506             -101.49730487
              71.87278318               25.22990225               92.53423994                0.44434681                0.02351460               -0.74332357                2.13325126               -0.05129791               -0.37706522               16.07294194
              72.87301832               20.69313269               90.16887978                0.00010000               -2.24080949                0.81258878               -2.33736098                3.74970495               88.30745308              -14.10386627
              73.82796699               16.23082617               89.57811971                0.00010000               -5.54636776                2.57549801               -0.39732496                5.25146994              170.99922055              -11.91294807
              74.76209097               11.80965645               88.87647811                0.00010000               -6.30516958                3.06799343               -1.12512459                5.11946230              156.46957392              -12.70124451
              75.70186360                7.41016050               88.01248725                0.00010000               -5.08114291                4.05230962               -4.60146824                4.58103040              138.15755384              -14.41338756
              76.66046811                3.02510748               86.95959168                0.00010000               -2.60034124                5.60943392              -10.74116177                3.96106027              117.63550529              -16.94066720
              77.64985677               -1.35603794               85.69704309                0.00010000                1.02609499                7.75779924              -19.44433262                3.12694133               95.46147843              -20.47375995
              78.68099001               -5.74299897               84.20957066                0.00010000                5.64675442               10.46349991              -30.50575916                2.13499524               72.20203209              -25.31577324
              79.76279186              -10.14373868               82.48591227                0.00010000               10.90963812               13.66071030              -43.39885916                1.12163553               48.25398954              -31.97829932
              80.89918277              -14.56273828               80.51370143                0.00010000               16.05104877               17.25444279              -56.99539101                0.36945056               23.84844424              -41.56101184
              82.08381284              -18.99907105               78.27946474                0.44287697               18.46300625               21.23581815              -69.45786338                0.78565075               12.91067915              -58.26948106
              76.40112785               26.22277909               92.18839653                0.72212015                0.10071919               -0.71231615                1.92341542                0.74211924                7.27846094               13.57178180
              77.40213505               21.70185560               89.73101831                0.44114106               -5.16162171                0.87229169               -2.69091781                5.23824126              110.20821795              -12.54760808
              78.29789542               17.26931047               89.33380573                0.43882559              -10.23948311                3.84842989               -0.44372357                4.30256261              200.87443785               -6.76553813
              79.19734538               12.84804999               88.75036190                0.43843047               -9.28476315                3.83935451               -1.32663784                2.95038821              180.19487760               -7.17355360
              80.11220016                8.45780940               87.98824370                0.43845312               -7.12683025                4.76489016               -5.23511027                3.01893427              159.47533210               -7.91122512
              81.05480878                4.08775555               87.02571568                0.43883343               -3.74592230                6.26480781              -11.99869198                2.94627647              137.36595181               -9.05708577
              82.03728171               -0.27194641               85.84549923                0.43885579                0.74703868                8.40915288              -21.43985365                2.77977929              114.17396488              -10.64761759
              83.06974955               -4.63149874               84.43387686                0.43927047                6.11026811               11.15002268              -33.30312779                2.48852022               90.17757770              -12.83693188
              84.15948707               -8.99969509               82.77886114                0.44010893               11.91862908               14.40435926              -47.01579703                2.11174383               65.40356499              -15.93073556
              85.30812213              -13.38265429               80.86359053                0.44161521               17.38279415               18.00839894              -61.37457476                1.84023763               37.38830609              -20.53692037
              86.50714296              -17.78076906               78.62118950                0.72163582               19.90208220               21.83019904              -74.05280412                2.52153531               23.48427570              -32.00188310
              31.78730161               16.72022913               96.29507947                0.72268742               -0.55003282               -0.60670924                2.70350732               -0.13475442               -6.97288612                7.43787461
              32.78180128               12.07021000               95.30443961                0.44225964                0.41549548               -0.64071885                1.82240233                0.77647774               -8.09825895               -6.19054177
              33.79561152                7.44180594               94.28773120                0.44060457                1.22328068               -0.16443033                1.30057189               -0.19754602               -6.09873985                0.01477158
              34.80626689                2.84667576               93.31900816                0.43917572                0.92979570                0.05354318                0.80453119               -0.17325780               -2.94081654               -0.40987693
              35.81420743               -1.72713910               92.35453500                0.43915987                0.67635500                0.31597750                0.36262895               -0.22251773               -2.39152934               -0.19765940
              36.81979399               -6.28980436               91.39189128                0.43926379                0.50358716                0.57383044               -0.09406178               -0.24887164               -2.48336324               -0.10839237
              37.82427917              -10.85009749               90.42565261                0.43900653                0.46117648                0.83366857               -0.58949745               -0.27168635               -3.24378178               -0.05563195
              38.82901752              -15.41437918               89.45151454                0.43974561                0.53272049                1.08774348               -1.13020228               -0.27819243               -4.52251317               -0.04016463
              39.83493358              -19.98708598               88.46578792                0.44133143                0.63996184                1.33265156               -1.68430595               -0.28518621               -6.39541642               -0.07241035
              40.84181676              -24.57181422               87.46153035                0.44404737                0.70789967                1.56282531               -2.19376327               -0.25094358               -7.32561751                0.43410847
              41.84909158              -29.17303492               86.46513049                0.72301749                0.72748185                1.77791550               -2.82425602                0.89692428               -7.35768221               -4.57923344
              36.43597319               17.71416204               95.90161909                0.44403876               -0.71955386                0.49158495                2.38437242                1.12561916                6.27709506               13.22919893
              37.42877765               13.06380281               94.90872414                0.00010000               -1.52850062               -1.69727877                1.48590082                2.51259868               14.34744921              -11.47505617
              38.40540318                8.44016163               94.07669380                0.00010000               -1.98854101                1.59546545                0.44386804                6.34474462               19.83853032              -12.40854673
              39.38900683                3.84721119               93.21106805                0.00010000               -1.25904340                2.41637954               -0.71611032                8.17313178               17.65700200              -17.64516150
              40.38022231               -0.72397932               92.34767125                0.00010000               -0.51111813                2.58572724               -1.95960736                8.62045059               17.24823704              -24.96116337
              41.37878447               -5.28406605               91.48127025                0.00010000                0.18137044                2.31616548               -3.23622508                8.19693935               16.71240436              -34.57175152
              42.38384972               -9.84176080               90.61098386                0.00010000                0.79726863                1.67105238               -4.53363283                7.33274304               16.15360864              -46.67489467
              43.39472984              -14.40350174               89.73484682                0.00010000                1.34747629                0.56988029               -5.82392115                6.48837832               15.40854150              -61.40224920
              44.41079925              -18.97375946               88.85011333                0.00010000                1.87759746               -1.21657554               -7.08897736                6.26873723               14.45444109              -78.67861469
              45.43228179              -23.55618597               87.95566873                0.00010000                2.42411326               -4.02026985               -8.31499714                7.61194020               11.67943472              -98.06369725
              46.45928151              -28.15525576               87.01690422                0.44345857                2.69997190              -10.94338973               -9.29379773               13.64758017                9.34926537             -120.92861950
              41.11053244               18.73006083               95.62018435                0.44262118               -0.44787829                1.33295368                2.30374345                0.08106882               -1.04980603               18.46328187
              42.10605366               14.03626443               94.40708665                0.00010000                1.42827970               -2.48749884                1.12201929                6.80387831               20.14004459              -15.66918322
              43.13909803                9.47371525               93.61537202                0.00010000                1.39084148                1.56378334                2.45942542               15.95895739               39.93911407              -23.24755847
              44.13387049                4.89500335               92.75787254                0.00010000               -1.06021742                3.32415106                2.33907052               16.97909403               34.42699109              -34.02055475
              45.11789369                0.32457545               91.84581353                0.00010000               -1.61781146                3.72272808                1.14165509               17.51459277               29.24969453              -48.93121778
              46.10151426               -4.24348105               90.88264357                0.00010000               -1.37619811                3.34225677               -0.91784325               16.70643747               23.93162253              -68.10789019
              47.09036972               -8.81667644               89.86621038                0.00010000               -0.53652544                2.26951468               -3.80200972               15.04022220               18.12944518              -91.97983617
              48.09078375              -13.40298157               88.79419505                0.00010000                1.13114174                0.32823281               -7.61381835               13.08376069               11.95670813             -120.86312190
              49.11299256              -18.01141749               87.66648847                0.00010000                4.23840563               -2.90136024              -12.41083102               11.57396236                5.90839713             -154.78445843
              50.17555186              -22.65221962               86.48504093                0.00010000               10.35951003               -8.44538925              -17.87011850                8.66674762                0.70065233             -193.39566812
              51.32018276              -27.39190271               85.24824097                0.43959009               14.46308975              -17.41584458              -22.87368973                9.72365901                0.99199590             -235.97100175
              45.82518737               19.74082111               95.31256245                0.44252637               -0.39865713                0.75989294                2.30137252                0.07324116               -0.13176302               18.40874738
              46.82120080               15.01405284               93.94566403                0.00010000                2.03280158               -1.83964188                0.66111521                9.34447826               28.56620772              -14.49254810
              47.86584341               10.47143730               93.15102261                0.00010000                2.82638558               -0.81046426                3.46374193               18.44783084               56.12325511              -23.34896853
              48.87772851                5.91369421               92.27872577                0.00010000                0.15775788                0.75890197                3.96259385               18.56131455               49.70572013              -34.74715068
              49.86899856                1.35047524               91.31962320                0.00010000               -1.17817045                1.63827798                2.64280319               18.84801789               41.89182266              -49.24503347
              50.85416511               -3.21722092               90.27045557                0.00010000               -1.24219384                1.99352680               -0.17771423               18.52382349               33.18990600              -67.32930561
              51.84415469               -7.79637051               89.12749389                0.00010000               -0.15095001                1.82766364               -4.45354980               17.38048411               23.67542844              -89.47253919
              52.85114611              -12.39693709               87.88857442                0.00010000                2.36809286                0.96319116              -10.31948719               15.52849734               13.86228759             -116.07731527
              53.89151654              -17.03178667               86.55746224                0.00010000                6.74779303               -0.92639649              -17.80129441               12.59511491                5.09250418             -147.34425598
              54.98610197              -21.72509376               85.14849285                0.00010000               12.08021620               -4.22374271              -26.38282687                7.60518233                0.03288788             -183.28481611
              56.13312087              -26.50357265               83.69859782                0.44009680               14.70189020               -6.30164846              -34.48551994                4.00663675                0.43060419             -223.09509639
              50.56553381               20.74525869               95.01810064                0.44205490               -0.32067802                0.15757340                2.36373917                0.05416916               -0.02393905               19.58240808
              51.56232703               15.99947159               93.48029646                0.00010000                2.14397319               -1.09335339                0.11420985               10.31733171               37.22961323              -14.98907227
              52.60841328               11.45750596               92.68618523                0.00010000                3.18659039               -1.54762901                3.77184634               20.08800641               72.74229627              -23.78871875
              53.62605884                6.91018139               91.79543255                0.00010000                0.86779472               -0.89074088                4.52781818               19.82710466               64.87888644              -34.73323959
              54.62576917                2.35734101               90.79466322                0.00010000               -0.36111841                0.09175547                2.94988676               19.75747887               55.23644359              -48.12942597
              55.61883647               -2.20361051               89.67400963                0.00010000               -0.40367994                0.98570705               -0.60363354               19.29620388               44.11018194              -64.51018472
              56.61769557               -6.78012317               88.42647011                0.00010000                0.89666904                1.64011566               -6.07826506               18.03925116               31.85355901              -84.44798344
              57.63676985              -11.38371775               87.04939909                0.00010000                3.76779769                1.92224820              -13.61742254               15.68730523               19.33416715             -108.49295445
              58.69305153              -16.02994542               85.54959540                0.00010000                8.13358196                1.76678661              -23.22995708               11.86694701                8.40054840             -137.12631478
              59.79944149              -20.73669448               83.95051557                0.00010000               13.21108789                1.70780505              -34.31219982                6.20173048                1.63988583             -170.66058951
              60.95727328              -25.51793568               82.29607581                0.44025285               15.78317917                2.65604465              -45.34203023                3.44513820                1.18436312             -209.47849823
              55.31784496               21.74397258               94.72792989                0.44191810               -0.25447918               -0.33569979                2.41946722                0.05513689                0.14306922               19.93164542
              56.31530016               16.99218577               93.01598623                0.00010000                1.95243896               -0.42659246               -0.43618468               10.12444585               46.18385231              -15.04563915
              57.35689374               12.44048472               92.22386461                0.00010000                2.95676995               -1.67511817                3.60540922               19.78303086               89.95652731              -23.93258896
              58.37443556                7.89587939               91.32321556                0.00010000                1.05231526               -1.59557632                4.36794447               19.88409032               80.89613269              -33.84907485
              59.37794004                3.35231035               90.29385697                0.00010000                0.15588960               -0.69485315                2.45055060               19.69232130               69.63869787              -45.52400883
              60.37755336               -1.19750678               89.12069755                0.00010000                0.35534521                0.57209699               -1.77767645               18.94218303               56.49421270              -59.64390495
              61.38504695               -5.76356819               87.79281514                0.00010000                1.85805526                1.94451521               -8.27161795               17.31545794               41.89808944              -76.91968969
              62.41471446              -10.35849212               86.30581513                0.00010000                4.83926336                3.34166628              -17.18249019               14.56217601               26.90955263              -98.04858919
              63.48183221              -14.99645093               84.66718956                0.00010000                9.17061876                4.91388054              -28.50825201               10.50984286               13.48660740             -123.68730709
              64.59812684              -19.69093766               82.90241332                0.00010000               14.13369131                7.04874751              -41.64169127                5.34057007                4.24988578             -154.44026039
              65.76450604              -24.45045176               81.05774085                0.44026936               16.63792021               10.15850701              -55.06642726                2.96336711                2.47180124             -190.70138825
              60.07021017               22.73854469               94.43907847                0.44262451               -0.19063633               -0.66729896                2.40318380                0.03813657                0.22011407               19.80477403
              61.06830381               17.99093974               92.55209374                0.00010000                1.50850490                0.09975373               -0.92367593                9.13444680               55.59830052              -15.01347761
              62.10038027               13.42400360               91.77203468                0.00010000                2.18056058               -1.50876347                3.15226754               17.98151167              108.23409364              -23.40758888
              63.11191502                8.87826986               90.87689148                0.00010000                0.63107484               -1.63127103                3.75300529               18.61836504               98.18944095              -31.79907116
              64.11300177                4.34344394               89.83886286                0.00010000                0.08218271               -0.71121156                1.46671043               18.47814134               85.41826772              -41.22323023
              65.11355868               -0.19216857               88.63683679                0.00010000                0.59941542                0.83369973               -3.36166130               17.47855370               70.32017817              -52.61265506
              66.12499008               -4.74123286               87.25555681                0.00010000                2.36687189                2.77048382              -10.70964912               15.55291719               53.42716143              -66.78525816
              67.16089611               -9.31688442               85.68774921                0.00010000                5.53519207                5.06682072              -20.73262238               12.65220178               35.86768190              -84.52072803
              68.23569392              -13.93166781               83.93905395                0.00010000                9.96788027                7.87179153              -33.41162518                8.85181744               19.63851809             -106.59505492
              69.36025372              -18.59571953               82.03379992                0.00010000               14.99374581               11.47693747              -48.10738708                4.42334665                7.40074193             -133.72040448
              70.53556883              -23.31476554               80.01783685                0.44079192               17.53151151               16.13402414              -63.24828584                2.58457175                4.06682135             -166.36790907
              64.81381759               23.73062660               94.14794903                0.44238953               -0.12873979               -0.83845176                2.30480198                0.01355794                0.30094758               19.32730150
              65.81253020               18.99418084               92.08807151                0.00010000                0.76881270                0.46523267               -1.32239535                7.70180540               65.85244450              -15.02537893
              66.82919385               14.41030945               91.33899863                0.00010000                0.74161620               -1.09148574                2.54853835               15.20101528              128.19743481              -22.07868714
              67.82736252                9.86325397               90.47259863                0.00010000               -0.56262733               -1.05504604                2.88773602               16.28244156              117.22444590              -28.19814771
              68.81794130                5.33808612               89.45163862                0.00010000               -0.77806425               -0.00635337                0.23319722               16.10872018              102.82637893              -34.91855806
              69.81180124                0.81916722               88.24842678                0.00010000                0.14399184                1.72370450               -5.12428769               14.93056424               85.65085493              -43.23670516
              70.82082114               -3.70815852               86.84363118                0.00010000                2.31961031                4.02918551              -13.19226364               12.89146415               66.37227213              -53.93495179
              71.85819344               -8.25715571               85.22661217                0.00010000                5.84412632                6.90023244              -24.11705524               10.11910380               46.10872361              -67.77068145
              72.93770366              -12.83901510               83.39935253                0.00010000               10.57490298               10.44332527              -37.83126698                6.82718919               26.79450057              -85.57618975
              74.06969150              -17.46139891               81.38223160                0.00010000               15.82929177               14.86074695              -53.61446017                3.33717393               11.10043623             -108.28017367
              75.25428950              -22.12777128               79.21792339                0.44101855               18.45979995               20.39715512              -69.79198015                2.12277993                5.96679021             -136.63364835
              69.54337285               24.72177566               93.85241681                0.44179986               -0.07157787               -0.85525905                2.16184922                0.00628490                0.40865681               18.89492191
              70.54265707               20.00024439               91.62231486                0.00010000               -0.40226989                0.66319323               -1.64358662                6.23387246               77.53815982              -15.50814664
              71.53532745               15.40217388               90.93504384                0.00010000               -1.64349395               -0.19918403                1.89538920               11.97091533              150.78744000              -19.21146914
              72.50978719               10.85716894               90.12996988                0.00010000               -2.80322608                0.27590061                1.94178711               12.84716704              138.47354952              -22.31091870
              73.47926293                6.34331687               89.15598215                0.00010000               -2.56862967                1.32680875               -1.06697052               12.43926180              121.92739513              -26.17037819
              74.45841460                1.84230552               87.98160942                0.00010000               -1.00603213                3.10016832               -6.91799512               11.20111700              102.46052422              -31.32378007
              75.45914228               -2.66064915               86.58561855                0.00010000                1.78600898                5.56757533              -15.63551597                9.34512698               80.80025958              -38.33788415
              76.49413477               -7.17887977               84.95466339                0.00010000                5.86693081                8.72918237              -27.33894988                7.00609828               57.88940108              -47.81262557
              77.57648090              -11.72280130               83.08585276                0.00010000               11.08092974               12.61626950              -41.87628824                4.44492648               35.35089806              -60.51075785
              78.71575337              -16.29850459               80.99122973                0.00010000               16.71441360               17.31211323              -58.37425822                2.04073354               15.66294725              -77.70259354
              79.91076917              -20.90682244               78.70513518                0.44095720               19.50158030               23.03834121              -74.99592469                1.56928923                8.37937163             -101.26027198
              74.25700582               25.71352142               93.55522287                0.44227749               -0.01964008               -0.75592067                2.00198799               -0.00161113               -0.36293662               16.23642121
              75.25680942               21.00744471               91.14741174                0.00010000               -2.26591066                0.72614431               -1.90977025                5.29349675               91.75820630              -14.28942412
              76.21168761               16.40632577               90.58279341                0.00010000               -5.68232754                2.04310582                1.34619625                7.56355965              177.66568898              -12.34945035
              77.14316287               11.86877198               89.87689024                0.00010000               -6.50488238                2.16663504                1.16604586                7.66244070              161.77105217              -13.05564545
              78.08158996                7.36462229               88.97851247                0.00010000               -5.16866333                3.02743898               -2.22266348                7.00327136              142.22891174              -14.49791469
              79.03978960                2.88117058               87.86244603                0.00010000               -2.63404958                4.67490242               -8.61209974                6.12653570              120.42991948              -16.77027791
              80.02890897               -1.59680701               86.50858155                0.00010000                1.03389768                7.13784369              -18.01456387                4.92073930               96.71116114              -20.13849210
              81.06046756               -6.08257206               84.90281582                0.00010000                5.86590197               10.40659824              -30.50606664                3.47176992               71.70679325              -24.92364921
              82.14622701              -10.58668971               83.03840651                0.00010000               11.70298748               14.44138809              -45.84752449                1.95697406               46.38697863              -31.60361275
              83.29452731              -15.11515664               80.91459121                0.00010000               17.80419886               19.15769557              -62.94902149                0.74763296               22.02343244              -41.16350935
              84.50231099              -19.66700445               78.53827588                0.44138387               20.77836792               24.57016530              -79.56150198                1.08581304               11.82362762              -57.37573556
              78.95549405               26.70665724               93.20754513                0.72113912                0.02286052               -0.68641757                1.83011990                0.65982610                7.39025466               13.74292229
              79.95572265               22.01476728               90.70662079                0.43984213               -6.51113406                0.73225709               -2.12218416                6.71026094              113.97380131              -12.72726766
              80.82527137               17.44303600               90.33883711                0.43846640              -12.54915845                3.67102285                1.46169474                5.64509387              207.73309480               -7.46084861
              81.70473948               12.90050164               89.74926586                0.43861367              -10.91708053                3.17296567                1.05587547                4.19914409              184.92796670               -7.79881460
              82.60692976                8.40386565               88.94792838                0.43860334               -8.11824352                3.92433635               -2.87153483                4.29907572              162.48467816               -8.36382739
              83.54237461                3.93580357               87.91535737                0.43869818               -4.28150205                5.46329823              -10.00699925                4.17060429              138.80419559               -9.34267877
              84.52129971               -0.51789228               86.63575028                0.43873217                0.55391313                7.89147331              -20.27541832                3.91150583              113.89813022              -10.80654474
              85.55345288               -4.97074781               85.09704072                0.43816993                6.34526247               11.18242518              -33.71175543                3.49446880               88.05220474              -12.89684266
              86.64820496               -9.43397354               83.29218962                0.43905203               12.87839460               15.27161733              -50.04564876                2.96765219               61.86699506              -15.87434514
              87.81102077              -13.91535067               81.21673328                0.43999965               19.39880454               19.98059664              -68.11104737                2.57706659               34.19598284              -20.26995766
              89.03618105              -18.41541913               78.82988864                0.72057823               22.51602873               25.15853213              -84.97890808                3.38016137               21.33794651              -30.88058162
              32.71296827               17.18934103               97.31980233                0.72122805               -0.36065272               -0.40575757                2.22370009               -0.05422310               -6.89039665                7.34867463
              33.70936174               12.40587988               96.32115198                0.44022206                1.00818609               -0.63556978                1.50915779                1.32915820               -7.80653113               -6.14376291
              34.73313199                7.65685456               95.30013089                0.43866764                2.01444041               -0.06032700                1.17737419               -0.14781035               -5.42464927               -0.07032437
              35.74965055                2.95806710               94.32736380                0.43869792                1.34720570                0.08562572                0.86219400               -0.09861224               -2.14811623               -0.41558321
              36.76007611               -1.71049506               93.35943354                0.43900178                0.79251671                0.30528394                0.60021882               -0.15842373               -1.58123533               -0.17615106
              37.76550089               -6.36428100               92.39316682                0.43904204                0.39364676                0.51260251                0.32317987               -0.19433989               -1.73200041               -0.07215370
              38.76794904              -11.01595687               91.42292555                0.43925136                0.19679067                0.71759442                0.01179560               -0.22832462               -2.56983857               -0.02163715
              39.76943670              -15.67433495               90.44437256                0.43942055                0.17608993                0.91997830               -0.33461910               -0.26044276               -3.91105093               -0.00415638
              40.77147084              -20.34487651               89.45410102                0.43981037                0.24344325                1.11775637               -0.69498485               -0.27732605               -5.79528939               -0.06760168
              41.77430556              -25.03108708               88.44572604                0.44165978                0.29565244                1.29936099               -0.99841408               -0.23204414               -6.76388832                0.38136302
              42.77738389              -29.73675925               87.44410561                0.72161672                0.30783246                1.43998323               -1.41418222                1.06076626               -6.83249575               -4.27415102
              37.49588719               18.18528346               96.92357128                0.44087612               -0.69906306                1.11264718                2.00693583                1.69736172                6.20612023               13.27932452
              38.48889656               13.39952418               95.92248891                0.00010000               -2.01634561               -2.21362529                1.27099595                3.84231773               14.15422588              -11.46254425
              39.45556028                8.65625129               95.08016614                0.00010000               -2.82786613                2.70660967                0.24714798                9.93983326               19.27517868              -10.82021541
              40.43233924                3.95892336               94.20345517                0.00010000               -1.79471796                3.68979010               -0.80200815               13.07553821               16.86730897              -15.05029718
              41.41966592               -0.70744222               93.32802555                0.00010000               -0.80254219                3.73247004               -1.95009415               14.20873353               16.34636525              -21.86270108
              42.41628839               -5.35915498               92.44934799                0.00010000                0.05134246                3.19264145               -3.10924089               14.00980953               15.77607777              -31.40858913
              43.42069277              -10.00878093               91.56664805                0.00010000                0.75018498                2.17330356               -4.27837784               12.97295895               15.20497646              -43.89920761
              44.43129209              -14.66513516               90.67817591                0.00010000                1.31904374                0.54710343               -5.45795860               11.65154834               14.45356527              -59.56333844
              45.44707364              -19.33369895               89.78105992                0.00010000                1.83171993               -2.06898353               -6.64952193               10.89456073               13.53200696              -78.41643870
              46.46792649              -24.01809347               88.87472695                0.00010000                2.32950432               -6.26582249               -7.80412234               12.16672386               10.92314646              -99.89347805
              47.49366373              -28.72235942               87.92684887                0.44110186                2.57372375              -16.89431492               -8.64797048               19.96561353                8.71101612             -124.60633046
              42.31843405               19.21159398               96.64170269                0.44005416               -0.31937897                2.16903003                2.00405899                0.14659958               -1.18655563               18.89240794
              43.31524026               14.36160737               95.41755981                0.00010000                2.70477151               -3.35925865                0.98103060               10.30974461               21.42890332              -16.02209722
              44.37252948                9.71098676               94.64295973                0.00010000                2.98072807                2.67208554                3.08187685               24.47043478               42.79393426              -19.94819652
              45.37485482                5.03186290               93.78602174                0.00010000               -0.51001861                5.03569584                3.26068202               26.56199698               36.56524924              -28.91805033
              46.36232911                0.36415435               92.86297029                0.00010000               -1.39095189                5.37023618                2.23374575               28.26901780               31.07260227              -42.97996653
              47.34703579               -4.30042817               91.87995766                0.00010000               -1.44703504                4.65858073                0.38375480               27.95189783               25.52911126              -62.08740487
              48.33338841               -8.97249080               90.83505777                0.00010000               -0.98250477                3.05649625               -2.28022363               26.04666911               19.16315827              -86.70064920
              49.32738569              -13.66339288               89.72409974                0.00010000                0.44659731                0.28605894               -6.09129913               23.15920204               11.85080881             -117.35738076
              50.34232036              -18.38625619               88.54536657                0.00010000                3.94574106               -4.34441142              -11.44664641               20.25051299                4.33813253             -154.32475008
              51.40630051              -23.15640352               87.30355145                0.00010000               12.14538581              -12.51644403              -18.24370372               14.59601721               -1.54618570             -197.29333341
              52.58522807              -28.07464555               86.00980064                0.43843863               17.89275598              -26.26999293              -25.02859485               14.57983473               -0.35240824             -246.24324941
              47.19879238               20.22866406               96.33444730                0.44012240               -0.30937116                1.23003193                2.08481875                0.16612196               -0.16135660               18.98485268
              48.19569867               15.33233901               94.95167571                0.00010000                3.79605309               -2.38341618                0.54646259               13.88571613               31.02893429              -15.09635286
              49.27471345               10.70969300               94.19081418                0.00010000                5.73564573               -1.05987388                4.47645458               27.58853802               61.25414009              -20.98862563
              50.31041159                6.05963727               93.32610343                0.00010000                2.13119515                1.03660321                5.38416993               28.12748029               54.04795406              -30.77840886
              51.31733735                1.39996251               92.35495615                0.00010000                0.07799537                2.06638016                4.23041239               29.26182284               45.95475465              -44.53827310
              52.31197149               -3.26598336               91.27822153                0.00010000               -0.63732457                2.36143822                1.61264876               29.52942322               37.03330417              -62.51866231
              53.30459086               -7.94765100               90.09240207                0.00010000               -0.18649872                1.96476008               -2.47283950               28.38855916               26.75773033              -85.22417126
              54.30824152              -12.65941399               88.79270609                0.00010000                2.02518456                0.61609841               -8.52537790               25.82739960               15.35536570             -113.24478956
              55.34509455              -17.42058718               87.38099464                0.00010000                6.99973415               -2.20065640              -17.09355201               21.18927696                4.61403442             -147.05575385
              56.44823620              -22.26842235               85.87607473                0.00010000               13.83249648               -7.13797072              -27.99656035               12.88734800               -1.28613138             -187.12441677
              57.62174448              -27.24775928               84.33252497                0.43802581               17.35082753              -10.37444459              -39.30335784                6.49298790               -0.45256337             -233.36991515
              52.11440659               21.23619461               96.04101014                0.43984985               -0.24809462                0.33668153                2.22732108                0.12013823                0.00678718               20.17114723
              53.11192564               16.31393905               94.48097845                0.00010000                4.12976962               -1.34748904                0.01473775               15.08051139               40.54815751              -15.67817542
              54.19700198               11.68978928               93.73017943                0.00010000                6.76046429               -2.28488858                4.94733709               29.46784337               79.49299986              -22.21565113
              55.24713492                7.05259497               92.84990815                0.00010000                3.80921122               -1.60030038                6.12707338               29.27031777               70.74075594              -31.79975324
              56.27318620                2.40548195               91.83446207                0.00010000                1.90514169               -0.46392495                4.68487805               29.68568663               60.90587716              -44.46559200
              57.28523776               -2.25319941               90.67862753                0.00010000                1.07020075                0.53437991                1.28659183               29.61371412               49.64402202              -60.62572893
              58.29459022               -6.93319560               89.37563257                0.00010000                1.58160512                1.20347041               -4.09089306               28.26969442               36.61235986              -80.89941766
              59.31686986              -11.65107091               87.91983710                0.00010000                4.02620189                1.36405439              -12.03538973               25.06579712               22.37002890             -106.02358018
              60.37511425              -16.43026931               86.31597377                0.00010000                8.71748557                0.92148979              -23.17720739               19.32060158                9.25704405             -136.79622115
              61.49121957              -21.29916294               84.59258420                0.00010000               14.93237217                0.67708756              -37.33328291               10.33816292                1.20061576             -173.97248342
              62.67376170              -26.28213444               82.81011655                0.43888666               18.25421259                2.15509031              -52.78809163                5.45480890                0.78200454             -218.51403951
              57.04570628               22.23539769               95.75169027                0.43995226               -0.19920384               -0.37892630                2.31786616                0.09727809                0.18547683               20.38354637
              58.04371424               17.30538923               94.01135063                0.00010000                3.98540614               -0.46164710               -0.49019713               14.57627132               50.03691303              -15.65067028
              59.12541440               12.66399523               93.26678944                0.00010000                6.82055175               -2.63426313                4.84087208               28.54919029               97.72223648              -22.94601545
              60.18012527                8.02763127               92.37673433                0.00010000                4.57155288               -2.88195119                6.01076324               28.76916640               87.70932479              -31.75801422
              61.21684546                3.39068401               91.32918087                0.00010000                3.13990255               -1.95671833                4.20374995               28.85891636               76.31196093              -42.70193288
              62.24292332               -1.25529576               90.11379671                0.00010000                2.55053970               -0.52024851                0.08694465               28.24052796               63.09624339              -56.45702432
              63.26785625               -5.92358159               88.71968324                0.00010000                3.18539276                1.06182649               -6.40902876               26.29271844               47.73725865              -73.82635971
              64.30663118              -10.63213290               87.13919198                0.00010000                5.58711800                2.69533666              -15.92770289               22.51872512               30.96546716              -95.68720301
              65.37959861              -15.40215738               85.37766543                0.00010000               10.01167072                4.63493198              -29.13830262               16.54847162               15.18837949             -122.95483543
              66.50686459              -20.25488059               83.46548291                0.00010000               15.85925282                7.52394484              -45.90853065                8.57288913                4.31927215             -156.54813388
              67.69678367              -25.20465747               81.46517113                0.43876671               18.99190734               12.12714315              -64.57648454                4.52670233                2.32030958             -197.08437346
              61.97636906               23.22861609               95.46266024                0.44042270               -0.15155424               -0.83800403                2.28996031                0.08674533                0.28038754               20.04050008
              62.97485352               18.30470611               93.54297846                0.00010000                3.46873405                0.19204681               -0.89175587               12.94612357               59.70322136              -15.43198792
              64.04574375               13.63710402               92.81085322                0.00010000                6.04879767               -2.62805507                4.43741620               25.54838096              116.48105487              -22.85084089
              65.09582948                8.99495594               91.92462979                0.00010000                4.37739068               -3.28668326                5.42769303               26.50678749              105.47267742              -30.39979094
              66.13329156                4.36634758               90.86461158                0.00010000                3.42422218               -2.44017934                3.24527313               26.59373528               92.58739988              -39.12064556
              67.16431392               -0.26360438               89.61413141                0.00010000                3.19950810               -0.70635271               -1.49721524               25.52555437               77.42730046              -50.02865914
              68.19728172               -4.91195907               88.15761380                0.00010000                4.07531176                1.57693806               -8.92386035               23.07953476               59.74571427              -64.07085376
              69.24582015               -9.59716418               86.48437986                0.00010000                6.57748315                4.38909734              -19.70863268               19.08476752               40.33621067              -82.17719622
              70.32883138              -14.33757067               84.59800423                0.00010000               10.96786455                8.00028247              -34.52386797               13.56474685               21.63681306             -105.28767327
              71.46517745              -19.14868404               82.52799416                0.00010000               16.75090599               12.90743325              -53.21289532                6.88602315                7.60712169             -134.25449618
              72.66384950              -24.03959158               80.33708326                0.43917845               19.86720584               19.55453610              -74.03097340                3.80941519                3.96418018             -169.56208646
              66.89526114               24.21863761               95.17039397                0.43942485               -0.11123589               -1.01729670                2.16578711                0.09038857                0.37692857               19.39316320
              67.89414878               19.30923017               93.07558224                0.00010000                2.54355215                0.56972774               -1.17103535               10.70720155               69.97315410              -15.26119409
              68.94613218               14.61143413               92.37222376                0.00010000                4.34343369               -2.36638344                3.91635271               21.22036284              136.49289348              -21.88214911
              69.98101746                9.96189760               91.51204597                0.00010000                3.05741490               -2.93879016                4.63381574               22.87199828              124.59445782              -27.42625237
              71.00728048                5.34188042               90.46533365                0.00010000                2.53618023               -1.99328939                2.08777764               22.91634818              110.08355323              -33.50524554
              72.03174106                0.73057718               89.20821844                0.00010000                2.78631316               -0.06618033               -3.19432909               21.53630280               92.79678950              -41.27991222
              73.06300674               -3.89204283               87.72064484                0.00010000                4.10985373                2.65743103              -11.39210255               18.86889025               72.65273498              -51.68066456
              74.11393813               -8.54435095               85.98860773                0.00010000                6.97033336                6.19696367              -23.18041267               15.04868303               50.46877575              -65.57406893
              75.20241341              -13.24215173               84.01251703                0.00010000               11.63339144               10.76961202              -39.18049494               10.32771594               28.64597285              -83.84933838
              76.34660596              -17.99673193               81.81881919                0.00010000               17.61868172               16.72647120              -59.13511825                5.13924093               11.18222533             -107.42130548
              77.55478705              -22.81356675               79.46827182                0.43909109               20.81810832               24.42741171              -81.14738499                3.05108917                5.77161627             -136.94892559
              71.79699172               25.20827015               94.87331822                0.43988166               -0.07906889               -0.95676287                1.97111149                0.07732904                0.45518923               18.86153839
              72.79620103               20.31610066               92.60730769                0.00010000                1.02459232                0.69040554               -1.33301416                8.39846636               81.50466971              -15.60300259
              73.81748357               15.58977635               91.96227069                0.00010000                1.33110593               -1.56951177                3.38186471               16.28747843              158.83378627              -19.36803725
              74.82282315               10.93618014               91.16032413                0.00010000                0.27276878               -1.63250239                3.78697032               17.87404696              145.64167035              -22.12617655
              75.82293894                6.32648179               90.15695623                0.00010000                0.30700395               -0.68122197                0.89015954               17.62487135              128.93546545              -25.44269298
              76.82896323                1.73507202               88.92359780                0.00010000                1.33243593                1.26883942               -4.89502744               16.09820608              109.22771338              -30.06449615
              77.84958766               -2.85881045               87.43805771                0.00010000                3.39697448                4.15516635              -13.77994684               13.62032719               86.56985042              -36.71771752
              78.89690272               -7.47322490               85.68387828                0.00010000                6.90895107                8.02508361              -26.41388884               10.39973957               61.66150640              -46.06136885
              79.98776668              -12.12217843               83.65751347                0.00010000               12.12372822               13.00019702              -43.31753297                6.77064604               36.65674750              -58.83109714
              81.13937728              -16.81415462               81.37878050                0.00010000               18.53871255               19.26099563              -64.04098553                3.21555899               15.40178964              -76.14696347
              82.35854093              -21.55104335               78.90193461                0.43930786               21.91636503               27.11137652              -86.48062336                2.21757714                7.97296064              -99.61479257
              76.68114670               26.19950235               94.57427970                0.43988868               -0.05347855               -0.76385725                1.73253636                0.04308837               -0.33460635               16.17567790
              77.68061192               21.32303828               92.13068437                0.00010000               -1.46722129                0.63957461               -1.38505566                6.73298047               95.53687535              -14.29889673
              78.65180228               16.58004389               91.60504364                0.00010000               -3.94094847                0.91148686                2.94872308                9.93189794              185.33701730              -12.67486671
              79.60179295               11.92924755               90.89979902                0.00010000               -4.54581220                0.55711539                3.09667465               10.61011958              168.54462911              -13.26136330
              80.56088603                7.32825598               89.96803398                0.00010000               -3.13977623                1.26096229               -0.20555214                9.97848458              148.60438053              -14.31175719
              81.53899742                2.75595397               88.78734968                0.00010000               -0.85879119                3.00036498               -6.55940561                8.84560388              126.33238014              -16.20637820
              82.54371021               -1.80893950               87.33675181                0.00010000                2.31517447                5.81978450              -16.17492910                7.20850246              101.42928804              -19.30844055
              83.58530091               -6.38384928               85.59944932                0.00010000                6.75229196                9.76697538              -29.65942293                5.21216502               74.31569838              -23.95398131
              84.67875605              -10.98214779               83.56896178                0.00010000               12.72405725               14.87151169              -47.43792428                3.08525016               46.58236743              -30.56561701
              85.83978206              -15.61151202               81.25472100                0.00010000               19.70799989               21.09085187              -68.79368128                1.28870301               21.05752571              -39.97443418
              87.07291605              -20.27133922               78.68823470                0.43933395               23.31339886               28.47185671              -91.09261960                1.46979094               11.00440161              -55.37922432
              81.55078163               27.19299301               94.22499892                0.71985603               -0.04625388               -0.65093402                1.58437780                0.55340785                7.42262878               13.71992502
              82.55031909               22.32889216               91.68857463                0.43840606               -7.04346938                0.58538801               -1.43358232                7.72137157              117.90492542              -12.73573514
              83.40991225               17.60800608               91.36303963                0.43795400              -13.17528214                2.79621895                3.21424832                6.73251160              215.46576421               -8.26977074
              84.28681345               12.94732245               90.77147941                0.43847007              -10.70550156                1.80748937                3.04538416                5.68679834              190.91168264               -8.48104376
              85.19580221                8.35170104               89.93081300                0.43889717               -7.18713301                2.34450574               -0.90274474                5.87946170              167.54428920               -8.79889076
              86.14307079                3.79507932               88.82557569                0.43849904               -3.11206279                3.91253440               -8.10267359                5.70154715              143.10193311               -9.55138098
              87.13356096               -0.74241476               87.43999086                0.43839552                1.56417574                6.65247475              -18.67226729                5.33683950              116.83959232              -10.85399196
              88.17435431               -5.27788540               85.75964175                0.43798992                7.17867316               10.59638826              -33.19648530                4.78866742               88.73217942              -12.82007882
              89.27713442               -9.82474820               83.77794816                0.43765332               13.99942313               15.73995945              -52.10366841                4.11522823               59.99594531              -15.63200696
              90.45434277              -14.39233758               81.50136959                0.43858417               21.52283688               21.91744357              -74.62584378                3.61317062               31.45252028              -19.69903990
              91.70759116              -18.98160621               78.92161134                0.71975947               25.32483903               28.97330089              -97.21164236                4.54064832               19.06156783              -29.05828594
              33.64679438               17.65966471               98.33955348                0.72001876               -0.14522855               -0.18165414                1.71065892                0.04621168               -6.77091046                7.22204993
              34.64534209               12.74466087               97.33462276                0.43927854                1.70561657               -0.65167737                1.17504086                2.02573492               -7.46558497               -6.06161197
              35.68090671                7.88032896               96.31127868                0.43821799                2.93299153                0.05995334                1.03330924               -0.02059609               -4.70400122               -0.17940266
              36.70400192                3.08618136               95.33625204                0.43881307                1.79364967                0.13659490                0.89051663                0.04041384               -1.37513692               -0.40632344
              37.71677970               -1.66784613               94.36653937                0.43907123                0.88300286                0.30760307                0.78193785               -0.04184754               -0.81610127               -0.14822307
              38.72166198               -6.40360977               93.39835488                0.43901806                0.24484851                0.45810978                0.65930754               -0.10430153               -1.01928938               -0.03229001
              39.72167667              -11.13797524               92.42588852                0.43867372               -0.10204754                0.60980667                0.51574064               -0.17849602               -1.90649635                0.02933101
              40.71962103              -15.88206901               91.44482216                0.43840948               -0.20011787                0.75733124                0.35154593               -0.24220243               -3.27883707                0.04553483
              41.71767431              -20.64235580               90.45188822                0.43790563               -0.15433129                0.90020182                0.18007235               -0.28458565               -5.13580524               -0.03461961
              42.71653440              -25.42218879               89.44156207                0.43878849               -0.09959007                1.03078418                0.09210025               -0.24029566               -6.11464945                0.34365309
              43.71568251              -30.22400445               88.43684684                0.72003145               -0.08518893                1.09270487               -0.11305946                1.17598156               -6.20395393               -3.88409582
              38.56226034               18.65784817               97.94175781                0.43881561               -0.69930197                1.86841283                1.64093425                2.44422774                6.09091809               13.27362487
              39.55526732               13.73814410               96.93414406                0.00010000               -2.61599174               -2.90125914                1.07225618                5.55564581               13.82771597              -11.43767768
              40.50994050                8.88092849               96.08163676                0.00010000               -3.83868553                4.18871584                0.08086294               14.75056505               18.49254396               -8.78924752
              41.47849361                4.08754731               95.19502789                0.00010000               -2.43418550                5.39063601               -0.86473106               19.77321936               15.93468477              -11.88394475
              42.46125679               -0.66477010               94.30866937                0.00010000               -1.14050431                5.29458208               -1.86877827               22.10270632               15.32290625              -18.15842870
              43.45568352               -5.39902867               93.41908543                0.00010000               -0.10677290                4.47535411               -2.86884220               22.56199775               14.73227793              -27.56091275
              44.45912133              -10.13187718               92.52541630                0.00010000                0.68528820                3.07658992               -3.90050262               21.61735518               14.13043562              -40.29608350
              45.46938928              -14.87449570               91.62568765                0.00010000                1.28835062                0.87048226               -4.97151161               19.81967435               13.35249760              -56.82496716
              46.48488835              -19.63335378               90.71712289                0.00010000                1.77832429               -2.77457036               -6.07270264               18.26219712               12.43295031              -77.48969039
              47.50495577              -24.41188094               89.79958628                0.00010000                2.21848233               -8.86226440               -7.17272202               19.19680271                9.99624794             -101.79386311
              48.52925799              -29.21307740               88.84394481                0.43858101                2.43022226              -24.92196743               -7.89508370               29.12803896                7.93470118             -129.40101029
              43.53508708               19.69703297               97.66026553                0.43839144               -0.17123967                3.16812708                1.71233152                0.22242658               -1.34331466               19.28949078
              44.53337468               14.68663569               96.42670726                0.00010000                4.57138565               -4.47184765                0.86491574               14.86078038               23.00651545              -16.46964114
              45.62651479                9.96410328               95.67700956                0.00010000                5.58951094                4.17582933                3.71781817               35.69581933               46.43680939              -15.82454413
              46.64516490                5.19399408               94.82308618                0.00010000                0.94475076                7.33461513                3.96873411               39.49971258               39.64235031              -22.78851934
              47.64540981                0.43804551               93.89048844                0.00010000               -0.25779466                7.64940501                2.97127514               43.33109958               34.46372476              -35.91074577
              48.64000901               -4.31410269               92.89031867                0.00010000               -0.79595026                6.63823139                1.45527727               44.36063959               29.41413098              -54.75297546
              49.62949080               -9.07644344               91.82060591                0.00010000               -1.12589432                4.52242217               -0.59612253               42.75733620               22.93341902              -79.79567674
              50.61749112              -13.86465936               90.67236906                0.00010000               -0.45936505                0.84627332               -3.88349547               38.94339035               14.26059863             -112.03770901
              51.62030350              -18.69784721               89.43755554                0.00010000                3.13514751               -5.50775823               -9.48635741               34.03827668                4.25603372             -152.44764516
              52.68019407              -23.59943407               88.12016685                0.00010000               14.01663514              -17.23669479              -17.96786597               23.96483234               -3.64135922             -201.21533359
              53.90063621              -28.72244380               86.74766907                0.43685827               22.04421320              -37.91047284              -27.62071096               21.79458436               -2.01239415             -259.77300861
              48.58750343               20.72121071               97.35425883                0.43798646               -0.20908155                1.72028505                1.88904721                0.28193621               -0.17689996               19.54970578
              49.58541262               15.64870714               95.95659328                0.00010000                6.44975306               -3.02012660                0.43797255               19.69902868               34.00867038              -15.85524329
              50.71649849               10.96444508               95.24055170                0.00010000               10.45665041               -1.34427993                5.34306904               39.41806219               67.68708729              -18.18466673
              51.79454562                6.23423961               94.38640917                0.00010000                5.97385293                1.47806652                6.23109717               40.75996705               60.08234069              -26.13936052
              52.83597555                1.48821800               93.40423144                0.00010000                3.14198215                2.78794676                4.97935153               43.46269351               52.76082214              -39.01581128
              53.85738527               -3.26626404               92.30270855                0.00010000                1.44245932                3.12012090                2.71941613               45.04453374               44.81904020              -56.66256598
              54.86482474               -8.04142873               91.07803710                0.00010000                0.61377946                2.55253798               -0.60991903               44.39681071               34.54454534              -79.64472106
              55.86966086              -12.85757023               89.71806686                0.00010000                1.78019254                0.69920606               -6.10850896               41.21289425               21.33890305             -108.91687385
              56.90042859              -17.74350895               88.21559120                0.00010000                6.95940748               -3.23467147              -15.35094165               34.30485991                7.27824921             -145.54982148
              58.00884901              -22.75661484               86.58856164                0.00010000               15.53702698              -10.30591235              -29.15333276               21.06695268               -1.28015307             -190.97947289
              59.21116913              -27.97128686               84.91253066                0.43680743               20.23201221              -14.92094163              -45.47176359               10.39342181               -0.94574160             -246.61132564
              53.68573294               21.73143867               97.06264706                0.43808618               -0.16120542                0.43913474                2.09150289                0.21596485                0.04603473               20.67900990
              54.68412089               16.62623316               95.48059122                0.00010000                7.18053115               -1.57673981               -0.08832973               21.06528246               44.46891674              -16.46996697
              55.82934357               11.93721768               94.78513197                0.00010000               12.62352173               -3.17772294                5.77082210               41.33892656               87.76921452              -20.39726107
              56.93659132                7.22355541               93.91797401                0.00010000                9.29118841               -2.41210731                6.81352765               41.41358860               78.66623828              -28.37101698
              58.01516733                2.49380445               92.88836078                0.00010000                6.69775465               -1.00479086                5.19901005               42.79428280               69.95632907              -40.04177019
              59.07054642               -2.25170027               91.69974147                0.00010000                4.67829365                0.20564510                2.14823313               43.61967293               60.01168770              -55.67203148
              60.10873321               -7.02539268               90.34465225                0.00010000                3.66414037                0.96760535               -2.48914282               42.52985658               47.14190663              -75.96431779
              61.14382922              -11.85067524               88.80869130                0.00010000                4.83560504                1.03956425              -10.03056941               38.46163989               31.01430920             -101.96745766
              62.20544531              -16.76254064               87.08605125                0.00010000                9.27409060                0.29654266              -22.29971680               30.20016047               14.29237080             -135.04532767
              63.32931104              -21.80555232               85.20384992                0.00010000               16.62016843               -0.03477263              -40.26796229               16.49177923                2.79262133             -176.77424873
              64.53784868              -27.02086263               83.24031398                0.43738186               20.85376411                2.60904576              -62.40306548                8.48730203                1.19438348             -229.16265130
              58.80223376               22.72999341               96.77428721                0.43802833               -0.12945015               -0.53938376                2.20046607                0.19032070                0.26217357               20.66483943
              59.80093926               17.61717235               95.00618229                0.00010000                7.18605042               -0.40823913               -0.55406155               20.04757894               54.46828192              -16.26510246
              60.94595477               12.90089062               94.32068205                0.00010000               13.26456862               -3.78326135                5.55570782               39.39157953              107.00397561              -21.76782907
              62.06623063                8.18599747               93.44343083                0.00010000               11.05810607               -4.42965018                6.51585784               39.91252274               96.68507040              -29.18738693
              63.16711689                3.46812218               92.37793197                0.00010000                9.13726138               -3.44631008                4.53624926               40.59661039               86.58427734              -39.05387979
              64.24897586               -1.26215114               91.12243645                0.00010000                7.36399792               -1.77316101                0.77444697               40.41786167               74.85157241              -52.07012708
              65.31439685               -6.02207663               89.66463456                0.00010000                6.35328758                0.08905704               -5.02941903               38.31474476               59.73227281              -69.17668659
              66.37604161              -10.83677895               87.98726107                0.00010000                7.24560143                2.04155740              -14.31710040               33.39496046               41.04015574              -91.51476555
              67.45930887              -15.73757809               86.08442350                0.00010000               11.04824873                4.51338828              -29.02389306               24.94196158               21.43180628             -120.42251646
              68.59700658              -20.75731029               83.98424271                0.00010000               17.61134569                8.57032970              -50.24350466               13.12391176                6.63061356             -157.35621044
              69.81153579              -25.91910594               81.76621116                0.43758014               21.45292055               15.58773345              -76.52523130                6.76171261                3.10350012             -203.29097693
              63.91518148               23.72065100               96.48487767                0.43793476               -0.10062243               -1.10807629                2.15056114                0.17903051                0.38380168               20.07789733
              64.91417525               18.61806837               94.53425862                0.00010000                6.65842793                0.37276918               -0.86391729               17.50628408               64.29947544              -15.80056799
              66.04835004               13.86155245               93.86078301                0.00010000               12.67174821               -3.98208091                5.10068374               34.67636324              126.10674556              -22.04957516
              67.16761022                9.13496241               92.98544534                0.00010000               11.34490568               -5.34814403                5.86966304               36.16184759              114.84975312              -28.46468781
              68.27524815                4.42487824               91.90376832                0.00010000               10.07461205               -4.62428164                3.56133346               36.70985552              103.32750187              -36.11484816
              69.36910246               -0.28716349               90.60689248                0.00010000                8.72038802               -2.68731375               -0.79436729               35.74800971               89.67704298              -46.15881416
              70.44965591               -5.02361154               89.07707960                0.00010000                7.90637223               -0.00695486               -7.55840795               32.82045468               72.21804370              -59.71124999
              71.52722990               -9.80984410               87.29357656                0.00010000                8.75799876                3.43217204              -18.23073979               27.54969141               50.82082805              -77.89848447
              72.62481589              -14.67227287               85.24857659                0.00010000               12.30436076                8.10334910              -34.77174086               19.84005806               28.15163851             -101.91357587
              73.77331712              -19.63414573               82.96954202                0.00010000               18.59291720               14.83494670              -58.25288810               10.18697729                9.99891615             -132.84932987
              74.99667423              -24.70910796               80.53721738                0.43768824               22.33571109               24.37524030              -87.06036036                5.46781476                4.75193256             -171.19798592
              69.01097961               24.70783188               96.19126477                0.43811699               -0.08161313               -1.27651519                1.98227249                0.14539547                0.45281811               19.19385682
              70.01016348               19.62462773               94.06465081                0.00010000                5.58041912                0.75069193               -1.01466897               14.15199324               74.45696924              -15.36158701
              71.12258799               14.82124900               93.41732568                0.00010000               10.79891534               -3.97795935                4.63876465               28.25217776              145.96785345              -21.37453458
              72.22614179               10.07903459               92.56527494                0.00010000               10.04259502               -5.40350276                5.15734774               30.73561915              133.90389395              -26.08222534
              73.32343989                5.37563655               91.49339417                0.00010000                9.31420257               -4.65577783                2.54996049               31.22592092              120.76892536              -31.18847880
              74.41242584                0.68410259               90.18454019                0.00010000                8.50233267               -2.54760806               -2.30484028               29.74563234              104.93058640              -38.08211354
              75.49348655               -4.02221572               88.61578913                0.00010000                8.16354632                0.62505368               -9.84964235               26.41824033               84.92031583              -47.87042513
              76.57569676               -8.76813551               86.76300391                0.00010000                9.34625591                4.94476767              -21.58763951               21.36919281               60.67688612              -61.54485752
              77.68041167              -13.57551111               84.61574263                0.00010000               13.09422258               10.82024399              -39.42018910               14.87109484               34.85234439              -80.08024775
              78.83758122              -18.46061136               82.19952924                0.00010000               19.52024431               18.84000293              -64.29223980                7.49804397               13.32342041             -104.40237502
              80.07081655              -23.43160114               79.59497569                0.43771708               23.32353354               29.50133990              -94.35620778                4.26331898                6.38850185             -135.05167075
              74.08449769               25.69512069               95.89183904                0.43819882               -0.06996929               -1.12388027                1.68280470                0.12238892                0.49956380               18.46946608
              75.08379800               20.63308221               93.59565458                0.00010000                3.72445231                0.77860555               -0.98103344               10.67460421               85.67861780              -15.45364872
              76.15898674               15.78199327               93.00268114                0.00010000                7.20685290               -3.45947523                4.25356932               21.02677270              167.80462551              -19.21283317
              77.22793505               11.02689235               92.20570928                0.00010000                6.78559175               -4.33225719                4.48896889               23.73463722              154.55618774              -21.43225721
              78.29469857                6.33176269               91.17378534                0.00010000                6.69661622               -3.55530860                1.58702126               23.88395069              139.19676587              -23.94665583
              79.36186738                1.66188435               89.88370887                0.00010000                6.77801191               -1.45187312               -3.73953799               22.12101915              120.79225464              -27.77520301
              80.43025881               -3.01111047               88.31001961                0.00010000                7.30208858                1.86533777              -11.97396266               18.95377239               98.12446845              -33.83232349
              81.50790915               -7.71094874               86.42638562                0.00010000                9.22274131                6.53601747              -24.58445033               14.70586318               71.08550567              -42.82896003
              82.61471363              -12.45586799               84.21950210                0.00010000               13.57294356               12.85371815              -43.35293252                9.78970448               42.15324530              -55.46034900
              83.77936802              -17.25734567               81.71041001                0.00010000               20.46032654               21.16884728              -68.99232084                4.78052570               17.09942973              -72.66250434
              85.02392017              -22.11908116               78.97552271                0.43771545               24.45521441               31.86677329              -99.39137373                3.05420372                8.31665997              -95.72503340
              79.13750435               26.68535428               95.58987360                0.43776116               -0.07213584               -0.77516966                1.32549575                0.09943307               -0.27676448               15.79504548
              80.13678299               21.64019984               93.11971063                0.00010000                0.59044779                0.55949303               -0.78565898                7.93438427               99.32530335              -14.05474924
              81.14931330               16.75205950               92.64176787                0.00010000                0.71410587               -1.01723287                3.98223667               12.24423673              193.61150063              -12.79568277
              82.15106511               11.99238944               91.93882373                0.00010000                0.84068029               -1.96861789                3.96363620               13.98677941              176.86891246              -13.17837184
              83.16612691                7.30453038               90.97440143                0.00010000                2.33271356               -1.47164421                0.67314814               13.58481804              158.05373232              -13.66609881
              84.19771938                2.65506512               89.73125792                0.00010000                3.96340893                0.32197855               -5.21378875               12.19643455              136.85389570              -15.02750507
              85.24539509               -1.98490897               88.18508297                0.00010000                5.84260860                3.48301249              -14.17988450               10.06432069              111.75240630              -17.73455562
              86.31457155               -6.63741516               86.30962736                0.00010000                8.86037957                8.17072488              -27.64656925                7.43511127               82.39596766              -22.12489784
              87.42260268              -11.31843675               84.08964803                0.00010000               14.09166750               14.56407734              -47.29547477                4.59315734               50.79933889              -28.53635563
              88.59640490              -16.03723441               81.53871758                0.00010000               21.63844681               22.73585105              -73.52532188                2.06055267               21.96086177              -37.59194446
              89.85537162              -20.79426567               78.71642349                0.43778642               25.89667158               32.78715155             -103.59443483                1.94731099               10.87418758              -51.77245509
              84.17679522               27.67961730               95.23923269                0.71895108               -0.10147608               -0.57369784                1.16533321                0.39456447                7.30248250               13.45228545
              85.17578046               22.64427207               92.67794914                0.43735492               -6.25566756                0.40722302               -0.63635015                8.00131229              121.58201291              -12.52834985
              86.05168187               17.76164861               92.40312208                0.43778759              -11.02903478                0.95891084                4.36555559                7.39925257              223.58504526               -9.15202879
              86.95519976               12.98752000               91.81017354                0.43881015               -7.39813083               -0.48694471                3.92344322                7.44752532              198.17924161               -9.14215933
              87.90371925                8.30232980               90.92987348                0.43838790               -2.99821740               -0.22005746               -0.09855622                7.79943039              175.43229051               -9.11409487
              88.89523541                3.66832392               89.75330389                0.43826182                1.01531252                1.32587994               -6.87977583                7.56260237              151.83020424               -9.57603291
              89.92402550               -0.94145022               88.26230493                0.43788431                4.74518718                4.34587470              -16.81098818                7.07013290              125.23474939              -10.69358916
              90.99013916               -5.54753424               86.43311102                0.43739447                9.11852675                8.98809117              -31.31150230                6.39994943               94.69888819              -12.52953834
              92.10639604              -10.16458645               84.25011625                0.43719429               15.31344183               15.38503040              -52.11142985                5.62461553               61.82017991              -15.13787871
              93.29640800              -14.80262865               81.72421640                0.43673027               23.52664321               23.46057653              -79.64083754                5.06272507               30.15404249              -18.73329656
              94.57692890              -19.46333813               78.88565579                0.71881337               28.05209060               33.09275378             -110.00981450                6.08477988               16.98292043              -26.28322694
              34.58741148               18.12937337               99.35401551                0.71902937                0.09133560                0.06705267                1.15774229                0.17532258               -6.59356579                7.03673126
              35.58832484               13.08560504               98.34465279                0.43631248                2.50056036               -0.69189103                0.82645643                2.88355827               -7.07271770               -5.93475986
              36.63742269                8.11255036               97.32079708                0.43683540                3.92811395                0.21851071                0.89370300                0.04965914               -3.99783434               -0.23401729
              37.66688712                3.23238894               96.34517413                0.43834304                2.21142753                0.20213871                0.86651766                0.19782676               -0.72832495               -0.36308176
              38.68165124               -1.59771951               95.37507230                0.43881521                0.94394153                0.31596511                0.86013304                0.10268416               -0.22656236               -0.10109987
              39.68576595               -6.40638790               94.40635297                0.43893324                0.08502963                0.40508807                0.85167901                0.00679185               -0.45377996                0.01718364
              40.68335183              -11.21442581               93.43324036                0.43807209               -0.39528469                0.50058272                0.85088910               -0.10362319               -1.32375125                0.07752433
              41.67786026              -16.03515522               92.45140347                0.43715249               -0.56685063                0.59738119                0.85304396               -0.20310161               -2.66042113                0.09904703
              42.67201482              -20.87603825               91.45770247                0.43655835               -0.54031503                0.68781723                0.86579790               -0.27344088               -4.43357602                0.01195494
              43.66705396              -25.74026243               90.44756804                0.43677666               -0.46397768                0.76869215                0.98412484               -0.23238481               -5.38574885                0.28984153
              44.66273527              -30.62863710               89.44184442                0.71938983               -0.43186869                0.74352438                0.97955990                1.25307541               -5.46552804               -3.44506483
              39.63293304               19.13004390               98.95638997                0.43668372               -0.73611076                2.77547007                1.30020290                3.42786445                5.91037596               13.16397711
              40.62557193               14.07868613               97.94393404                0.00010000               -3.42028515               -3.79198549                0.92210368                7.74966362               13.37099464              -11.41563665
              41.56452733                9.11473546               97.08178340                0.00010000               -5.07858053                6.15152850               -0.05083843               21.15941281               17.51897136               -6.32282335
              42.52400032                4.23441033               96.18616055                0.00010000               -3.12304159                7.61611471               -0.86488905               28.90202530               14.87640856               -8.36943716
              43.50206650               -0.59455986               95.29064998                0.00010000               -1.49066499                7.40484335               -1.65324624               33.29862643               14.21382700              -14.27649108
              44.49418702               -5.40233702               94.39197115                0.00010000               -0.26836191                6.36385510               -2.46846349               35.22874302               13.56756608              -23.45951194
              45.49669926              -10.20941999               93.48863800                0.00010000                0.62242183                4.67003420               -3.35064288               34.99050839               12.90620363              -36.07969705
              46.50663546              -15.02918141               92.57874568                0.00010000                1.25673755                1.93144757               -4.31354531               32.90238469               12.08879910              -53.04763037
              47.52183402              -19.86916007               91.65960586                0.00010000                1.71970395               -2.88195737               -5.32384826               30.21171624               11.13522360              -75.49339425
              48.54102953              -24.73257551               90.73127251                0.00010000                2.09033401              -11.47115661               -6.37813956               30.21320261                8.87536142             -103.50794797
              49.56364070              -29.62120186               89.76894720                0.43667544                2.26111606              -35.50272387               -7.00350682               42.49938875                6.98125281             -135.72790388
              44.75868430               20.18488277               98.67594932                0.43677070               -0.00577559                4.36163737                1.43382668                0.37087784               -1.49989600               19.62835407
              45.75862655               15.00976533               97.43485812                0.00010000                7.31012258               -5.86679716                0.79670172               20.73527141               24.84516441              -17.08392044
              46.90488675               10.23558093               96.71731609                0.00010000                9.77982000                6.15708968                4.27327973               50.45289357               50.88594575              -10.99982438
              47.95422295                5.38471123               95.86539642                0.00010000                3.97421807               10.37759514                3.97311342               56.95873871               44.05507278              -16.11863159
              48.98437111                0.55037736               94.92239580                0.00010000                2.54889952               10.81668991                2.63200834               64.51829418               40.38675582              -28.49468649
              50.00520094               -4.27911080               93.90906320                0.00010000                1.28176398                9.68397694                1.55334706               68.44785697               37.30119895              -46.78825277
              51.01000639               -9.12102513               92.82313532                0.00010000               -0.47764498                7.24141144                0.71018239               68.30043570               31.75446737              -71.50702992
              51.99564804              -13.99652627               91.64642983                0.00010000               -1.51815765                2.75538562               -1.08752679               63.90888813               21.91153956             -104.46878376
              52.97964324              -18.93367739               90.35563942                0.00010000                1.38558773               -5.54596230               -5.96257028               56.25857229                8.02759084             -148.14148875
              54.02335979              -23.96968556               88.94419413                0.00010000               15.51662516              -21.95596809              -16.21517228               38.98249777               -4.50209593             -204.29172544
              55.28997574              -29.33869158               87.45738642                0.43597500               26.66159532              -52.57144208              -30.70769251               32.66194378               -3.88847543             -277.61631573
              49.99058547               21.21727664               98.37222825                0.43669863               -0.10062680                2.24318271                1.69424097                0.44508791               -0.17911608               20.06579799
              50.98957920               15.96135019               96.96043516                0.00010000               10.40269168               -3.74073129                0.34242436               27.03965660               37.38348101              -16.81362655
              52.19863931               11.23787726               96.29767556                0.00010000               17.93997291               -1.69336075                5.72233211               54.53643787               75.40188985              -15.17370140
              53.34837866                6.44196223               95.45072537                0.00010000               12.88075557                2.17208686                5.54607581               57.34523067               68.37074030              -21.27645552
              54.45625442                1.62177394               94.45454318                0.00010000                9.30839911                4.02843311                3.60521594               62.77772529               63.82183216              -33.14768497
              55.53454664               -3.20865748               93.33260985                0.00010000                6.19345179                4.63714304                1.87941318               66.88067097               59.10438580              -50.07898945
              56.58012345               -8.06459176               92.08020369                0.00010000                3.14594192                4.09728563                0.13787911               67.65279526               50.45764167              -72.69157966
              57.59746548              -12.97407370               90.67053591                0.00010000                2.00206484                1.84559989               -3.50155073               64.23107220               35.82466230             -102.52660406
              58.62016475              -17.98007932               89.07397580                0.00010000                6.41140968               -3.31653903              -12.18821836               54.42693218               16.72860853             -141.77496830
              59.72569368              -23.17169487               87.29300808                0.00010000               16.73634293              -13.03217082              -29.14863962               33.84490482                2.16826407             -193.77988137
              60.95489161              -28.67263070               85.42308970                0.43611810               22.91979315              -19.01881949              -53.58877135               16.64369182               -0.21682375             -262.98119073
              55.27943897               22.22974642               98.08284020                0.43605606               -0.06199047                0.45936110                1.93424002                0.34913441                0.12774379               21.10360921
              56.27881907               16.93495071               96.47921185                0.00010000               11.77822504               -1.74652052               -0.19132575               28.45365607               48.73359376              -17.40290561
              57.51500347               12.20171371               95.84559588                0.00010000               21.92059053               -4.24448203                5.68312679               56.14041647               97.33443753              -18.60597667
              58.71723088                7.42815297               94.98617871                0.00010000               18.77709291               -3.27750136                5.36100498               56.87152041               89.17237659              -24.71751139
              59.89054533                2.63094602               93.93844227                0.00010000               15.59745878               -1.37875300                3.01422951               59.93750302               83.94939054              -34.99122949
              61.02918005               -2.18636794               92.72159220                0.00010000               11.89665944                0.24040820                0.57147062               62.43400503               77.86375641              -49.55591628
              62.12847852               -7.03907942               91.32584971                0.00010000                8.32884957                1.25245374               -2.38683152               62.21536471               66.99505139              -69.20154927
              63.19575704              -11.95961427               89.71922571                0.00010000                6.86622681                1.33801169               -8.12011244               57.46255552               49.46790078              -95.40274874
              64.26580305              -17.00000817               87.86997944                0.00010000                9.85261123                0.34731298              -20.28333990               46.01868236               27.39795606             -130.45992217
              65.39280927              -22.23032898               85.78722495                0.00010000               17.94590938                0.19989829              -42.49530384               25.64678676                8.73951300             -177.41965857
              66.62472124              -27.71906797               83.56205524                0.43621661               23.19119743                5.26251430              -74.83333102               13.12735837                3.46300854             -240.08466433
              60.58715960               23.22646387               97.79569959                0.43698746               -0.04745575               -0.82749731                2.06044937                0.28780310                0.35902813               20.80816317
              61.58668504               17.92641978               96.00026940                0.00010000               12.05428871               -0.23622364               -0.63063531               26.63211917               59.10312801              -16.92721082
              62.82824537               13.15298762               95.37790359                0.00010000               23.49458609               -5.11224145                5.06275853               52.58404427              117.37040169              -20.56522409
              64.05657676                8.37641220               94.50705149                0.00010000               22.06400062               -6.21674481                4.60043688               53.69098059              108.16463295              -26.21086967
              65.26952538                3.59419888               93.41990585                0.00010000               19.83377091               -5.11788022                1.98789939               55.37938055              101.80793862              -34.44681692
              66.45325218               -1.20384932               92.12928565                0.00010000               16.40758499               -3.12582353               -1.06004962               56.08109407               94.13792422              -46.11450528
              67.59767708               -6.03954268               90.61909486                0.00010000               12.71965853               -0.91296083               -5.14881395               54.15079260               81.14795205              -62.27694964
              68.70764535              -10.94731347               88.85284997                0.00010000               10.67880076                1.43687820              -12.72378124               48.06961516               61.06301653              -84.38591240
              69.81125310              -15.97313306               86.79718757                0.00010000               12.50219282                4.64234272              -27.64583328               36.48561018               35.87168584             -114.42232026
              70.95768921              -21.16769690               84.46061282                0.00010000               19.18318298               10.46859014              -53.74420617               19.47291813               13.31805599             -154.75528400
              72.19491676              -26.56738041               81.93466650                0.43657166               23.72275519               21.33760688              -91.06544306                9.97245824                5.73321009             -206.92106909
              65.88528321               24.21319648               97.50567146                0.43684414               -0.03455077               -1.54552439                2.00099309                0.22226729                0.50656197               19.86887371
              66.88493770               18.93022623               95.52570012                0.00010000               11.57043634                0.70913436               -0.86597201               22.84073095               68.93837414              -16.09217317
              68.11669193               14.09946888               94.91286690                0.00010000               23.24507626               -5.54711550                4.42088291               45.51057925              136.52203351              -21.08203175
              69.34983922                9.30381807               94.04202306                0.00010000               23.08512619               -7.82115243                3.82414945               47.77848071              126.48335754              -25.93361932
              70.57839446                4.52858841               92.93583824                0.00010000               21.73521349               -7.30525298                1.04017525               49.05829354              118.73163054              -31.96095251
              71.78454349               -0.24888441               91.59824406                0.00010000               18.82820306               -5.20160811               -2.48550423               48.43893044              109.12009865              -40.57347683
              72.95495852               -5.05733863               90.00644564                0.00010000               15.30981150               -2.14243312               -7.49046346               45.16399784               93.77108700              -53.02714049
              74.09073972               -9.93087671               88.11976507                0.00010000               13.04700881                1.96281511              -16.47802827               38.50271574               70.93483230              -70.64346932
              75.21589870              -14.90716132               85.90256941                0.00010000               14.28876298                7.92254326              -33.34994541               28.08007055               42.55523157              -94.97475960
              76.37651498              -20.02095717               83.36293639                0.00010000               20.38193661               17.10247365              -61.90462524               14.54987962               16.49974582             -127.54267729
              77.62353743              -25.29231583               80.59587605                0.43630091               24.70224437               30.72374572             -101.88158128                7.70150530                7.22457109             -168.88968661
              71.15754543               25.19555338               97.21003942                0.43639071               -0.03181775               -1.70729152                1.76872517                0.20834420                0.54020635               18.64450173
              72.15722726               19.94060247               95.05528886                0.00010000               10.36598414                1.08708158               -0.88253355               18.02427582               78.82158249              -15.27120572
              73.36486512               15.04204531               94.46499906                0.00010000               21.28997932               -5.91956920                3.97503397               36.31080618              155.94257372              -20.51446209
              74.58302684               10.21998915               93.61519292                0.00010000               21.92643098               -8.49159323                3.24972222               39.95259932              145.18963832              -23.98857760
              75.80339374                5.44809382               92.51633286                0.00010000               21.24654964               -8.10234961                0.32082936               41.13047916              135.77487419              -27.65958288
              77.00795784                0.69211852               91.16212163                0.00010000               18.97778034               -5.91326823               -3.61125595               39.67726975              123.84993208              -33.22990771
              78.18294934               -4.08239134               89.52365199                0.00010000               15.97822579               -2.37060629               -9.36192827               35.71330395              105.85806523              -41.94407283
              79.32752235               -8.90805716               87.55685494                0.00010000               13.99928153                2.72245779              -19.40532812               29.30498852               80.13783048              -54.89077910
              80.46293497              -13.81468219               85.22411325                0.00010000               15.31594798               10.09352548              -37.57075920               20.66591145               48.61701531              -73.16592980
              81.63384131              -18.82564743               82.53297439                0.00010000               21.43646025               20.71820632              -67.50138545               10.53034888               19.32851056              -97.79573505
              82.89166418              -23.95290550               79.58114767                0.43633348               25.78228675               35.26620107             -108.59576402                5.82975874                8.54396125             -129.21641907
              76.39935192               26.17905065               96.90697432                0.43643298               -0.04206280               -1.37718840                1.34836765                0.21131747                0.57672792               17.65832783
              77.39893129               20.95196786               94.58768702                0.00010000                8.20847272                0.95231306               -0.64964469               13.00116541               89.56260933              -15.01505540
              78.56352137               15.98107750               94.04734207                0.00010000               17.19557043               -5.91780032                3.79863124               26.10362090              176.97035761              -18.58936744
              79.74284270               11.13398621               93.25010351                0.00010000               18.26766507               -7.93866473                2.92069767               30.44873589              165.16393870              -19.96322921
              80.92887467                6.36654142               92.18869666                0.00010000               18.28656780               -7.46239754               -0.18193839               31.24983834              153.45018793              -21.34095677
              82.10857405                1.63285023               90.84880704                0.00010000               17.02628052               -5.31548373               -4.53577126               29.30718907              138.76703834              -24.08563272
              83.26940028               -3.10475076               89.19857846                0.00010000               15.02781460               -1.67622953              -10.96090986               25.40808849              117.98931396              -29.25902712
              84.40913034               -7.87642755               87.19218928                0.00010000               13.87034542                3.74922640              -21.85450862               20.02964014               89.45276544              -37.58677394
              85.54680719              -12.70529081               84.79045482                0.00010000               15.81074605               11.55965688              -40.91564009               13.62760704               54.96817092              -49.71790230
              86.72534527              -17.60659305               81.99893408                0.00010000               22.39207748               22.42450687              -71.53989301                6.83407612               22.52353574              -66.41510651
              87.99464874              -22.58699181               78.91410713                0.43664717               26.93034747               36.79920464             -112.80934118                4.12631424               10.12257395              -88.65290694
              81.61593735               27.16800961               96.60078962                0.43646196               -0.07136344               -0.78650555                0.81704902                0.16623459               -0.21255992               14.98656039
              82.61522371               21.95964873               94.11497119                0.00010000                4.44909205                0.49401330               -0.17387588                8.74091832              102.57882089              -13.46129147
              83.70491919               16.92368930               93.68468837                0.00010000                9.56569601               -3.94102054                3.79509990               14.37172564              201.71646194              -12.55014204
              84.80653764               12.06121586               92.97907175                0.00010000               11.23036468               -5.61032896                2.75514038               17.79803763              186.63151808              -12.56820532
              85.92952648                7.29884587               91.98149694                0.00010000               12.94280810               -5.40331945               -0.67756457               17.85179959              171.23499636              -12.29154351
              87.06539380                2.58580885               90.68307391                0.00010000               13.54312051               -3.66917571               -5.56797786               16.19537864              153.52294758              -12.97485053
              88.20038889               -2.11591593               89.05315412                0.00010000               13.16307037               -0.29898548              -12.70430231               13.50835302              130.17201265              -15.15598594
              89.32865520               -6.83307264               87.04651794                0.00010000               13.26318563                5.04920411              -24.39669719               10.19086428               99.25699104              -19.14837144
              90.46565261              -11.58348906               84.62305228                0.00010000               16.17843142               12.84242958              -44.25318712                6.57703950               62.22945248              -25.19275687
              91.65222383              -16.37715729               81.78421456                0.00010000               23.46676899               23.42959482              -75.36695021                3.15532311               26.57507610              -33.65090536
              92.93498799              -21.21692141               78.61634600                0.43674786               28.27641536               37.06282228             -116.09751216                2.50969088               12.22323035              -46.14368344
              86.81939837               28.16332054               96.24830559                0.71821590               -0.13284095               -0.46890723                0.59067017                0.19886185                6.96506478               12.75661435
              87.81806996               22.96184813               93.67584762                0.43663108               -3.50048113                0.21994048                0.20874549                7.23145243              124.29918080              -11.93819029
              88.74938875               17.90225709               93.45035074                0.43715202               -4.72115426               -2.14322125                4.26353045                7.44353105              231.19786676              -10.01389149
              89.72364688               13.02177963               92.84994827                0.43826307                0.59644614               -3.94362280                2.71388994                9.52182178              206.58597179               -9.61743310
              90.76131767                8.25847503               91.92884187                0.43903767                6.17982745               -4.03708353               -1.48114659               10.06347322              186.85316552               -9.12741884
              91.84724343                3.55946671               90.68798018                0.43872716                9.85655749               -2.63421335               -7.24300914                9.72468808              166.62161348               -9.27212311
              92.95844882               -1.11073047               89.10377109                0.43813238               11.66386617                0.51854668              -15.25342423                9.06048373              141.74915858              -10.21148726
              94.08052075               -5.77544347               87.13341171                0.43710537               13.19919066                5.76291628              -27.82535917                8.30096725              109.51424024              -11.95333810
              95.22243264              -10.44844222               84.73571957                0.43622402               17.06816623               13.50468390              -48.64868462                7.55011912               70.81027723              -14.40151228
              96.42188408              -15.13800115               81.90855284                0.43610569               25.09690736               23.91561410              -80.93978115                7.10136704               32.31214632              -17.40562679
              97.72437078              -19.84573536               78.72141505                0.71809387               30.24867081               37.11860418             -121.94789597                8.16485853               15.89652010              -22.52756914
              35.53364848               18.59565041              100.36270832                0.71761092                0.34576797                0.35434900                0.53971745                0.34840050               -6.29431612                6.71771909
              36.53710616               13.42740319               99.35115189                0.43543337                3.33900983               -0.77771529                0.49151315                3.92003975               -6.56131076               -5.70911066
              37.60042868                8.35367598               98.32915274                0.43688387                4.90270194                0.42770391                0.74184504                0.24365979               -3.44433364               -0.25018295
              38.63516020                3.39694690               97.35358239                0.43782686                2.53204656                0.29893804                0.73149210                0.46452549               -0.45774909               -0.29387592
              39.65106961               -1.50102349               96.38374203                0.43873326                0.96290572                0.34000720                0.77013453                0.29284430               -0.00976770               -0.05928743
              40.65441832               -6.37450244               95.41538846                0.43840100               -0.04592327                0.35733042                0.84631613                0.15302314               -0.18178777                0.05031343
              41.65015115              -11.24722004               94.44290630                0.43829656               -0.62339112                0.38539626                0.95375463                0.01847125               -0.93346547                0.12136497
              42.64195050              -16.13477247               93.46188304                0.43709889               -0.86564612                0.42978097                1.08494433               -0.11048232               -2.13097277                0.13944951
              43.63283822              -21.04592349               92.46920418                0.43591885               -0.86365125                0.47648730                1.25205301               -0.22864447               -3.71860845                0.06688564
              44.62467747              -25.98380089               91.46124457                0.43552178               -0.75095172                0.51348952                1.55385734               -0.21497015               -4.57257402                0.24859497
              45.61781919              -30.94711129               90.45643804                0.71801280               -0.68582798                0.39338103                1.71680613                1.24040789               -4.59329993               -2.91227086
              40.70537972               19.59919390               99.96776186                0.43480515               -0.80859370                3.90556790                0.99252841                4.72436600                5.61750893               12.84936081
              41.69729378               14.41962603               98.95258614                0.00010000               -4.36431484               -4.94735151                0.86980219               10.52820740               12.67026068              -11.39597128
              42.61809342                9.35795302               98.08061999                0.00010000               -6.50692931                8.72693260               -0.10503913               29.67884926               16.31933128               -3.47434206
              43.56715519                4.39993628               97.17773011                0.00010000               -3.91853461               10.50548617               -0.67891036               41.52250043               13.74942567               -5.15592870
              44.53972273               -0.49762342               96.27560445                0.00010000               -1.90541862               10.26410374               -1.23265843               49.37715529               13.00215302              -11.24683220
              45.52904682               -5.37092914               95.36971616                0.00010000               -0.46259256                9.19979969               -1.88737490               54.25662487               12.24056601              -20.13240823
              46.53047088              -10.24336607               94.45840345                0.00010000                0.55752898                7.45351517               -2.61109703               55.87584221               11.47769333              -31.94853983
              47.54019740              -15.13047466               93.53941674                0.00010000                1.22975545                4.44736010               -3.43139868               54.17373841               10.60388869              -48.34699516
              48.55506599              -20.04115862               92.61064593                0.00010000                1.64621330               -1.45617143               -4.32591198               50.10307363                9.61799575              -71.83267611
              49.57312167              -24.97866599               91.67202349                0.00010000                1.92338439              -13.16016331               -5.32374265               48.08544113                7.54036324             -104.34439856
              50.59353367              -29.94317748               90.70387467                0.43526319                2.04120067              -49.09006624               -5.88684200               62.48199693                5.82005979             -144.14156657
              45.98727154               20.67376177               99.68894207                0.43507405                0.16396544                5.82209444                1.12785492                0.57581681               -1.65418742               19.83241171
              46.98891120               15.32845616               98.44264130                0.00010000               11.32119352               -7.57725741                0.81661551               28.23970016               26.81857897              -17.91697438
              48.21369542               10.52821463               97.76247515                0.00010000               16.61377253                8.73691248                4.56956510               69.73765660               56.70384660               -5.66294550
              49.32118665                5.60705663               96.90254845                0.00010000                9.78913621               14.39959645                2.09684087               80.69907828               50.64295347              -10.03912034
              50.40947814                0.70425858               95.94312861                0.00010000                8.20534094               15.34206245               -0.33243350               94.66209526               51.35070509              -22.20771267
              51.48529347               -4.19050645               94.92138561                0.00010000                5.88676904               14.52781555               -0.54521841              104.11786670               52.19229001              -39.54651853
              52.52721352               -9.09814973               93.83480956                0.00010000                1.89621707               12.26956782                0.31505139              107.51309064               49.34268749              -62.51671630
              53.52321781              -14.04582527               92.65061853                0.00010000               -2.20612486                7.47882380                1.15316545              103.76437003               39.69615945              -94.14029722
              54.48309102              -19.07504692               91.31830413                0.00010000               -1.74063293               -2.60948550               -0.71845662               92.81418622               21.21667531             -139.35739740
              55.48840515              -24.24700415               89.79586341                0.00010000               15.66955420              -24.82886491              -11.29172920               63.80565166               -0.78469577             -203.84213808
              56.79648211              -29.92891261               88.13351522                0.43517612               30.80769556              -69.62010025              -34.42281683               49.46594067               -4.90372218             -300.09864272
              51.40750728               21.71563579               99.38814365                0.43544948                0.01276411                2.81388713                1.40189030                0.65815758               -0.15009435               20.49722926
              52.40763493               16.26808089               97.96344177                0.00010000               16.33693982               -4.50576783                0.31561361               36.20906804               40.78119138              -18.00715050
              53.73424608               11.53269127               97.35499835                0.00010000               29.87289411               -2.16722596                4.76658917               73.76086872               84.62781350              -12.57797349
              55.00509281                6.68792821               96.49733069                0.00010000               24.81408137                3.29112171                1.18621141               79.12661860               80.36250767              -16.88631997
              56.23052771                1.80921783               95.47633576                0.00010000               20.43598317                6.21793008               -2.08062214               89.04812385               82.55154825              -27.62481791
              57.41381247               -3.08037282               94.34029681                0.00010000               15.27619038                7.55060304               -2.70536135               97.39640455               83.88081727              -43.17270237
              58.53605152               -7.99797472               93.08079468                0.00010000                8.92847597                7.49174501               -2.21527358              101.16309198               79.24578055              -64.22930207
              59.59238199              -12.98089819               91.64803584                0.00010000                3.82385370                5.23904949               -2.57462064               98.52330443               65.05511798              -92.99974853
              60.61252859              -18.09334833               89.97182683                0.00010000                5.53592010               -0.99519640               -8.08718549               85.39845326               40.18907843             -133.34262884
              61.70310039              -23.47524329               88.00558885                0.00010000               16.70704113              -13.72730395              -27.00050203               54.06945963               14.04841929             -192.47799835
              62.94666941              -29.33557948               85.84075524                0.43527585               24.35690200              -20.26100549              -64.70116995               27.01468892                4.53024140             -280.62829351
              56.89554451               22.73003951               99.10133186                0.43542645                0.04925755                0.38448067                1.70702367                0.46849876                0.23930423               21.41536237
              57.89603709               17.23834080               97.47676470                0.00010000               18.67604755               -1.79705098               -0.28562474               37.39967410               52.68787206              -18.46254188
              59.26906546               12.48487011               96.89879451                0.00010000               36.55776874               -5.51880744                3.38868910               74.34364467              108.10966209              -17.17860662
              60.62719246                7.67287906               96.02519411                0.00010000               34.48380971               -4.09962438               -0.45795050               76.30876462              103.49936613              -20.94882690
              61.95874166                2.82861718               94.94864538                0.00010000               30.66108226               -1.37139787               -3.95072114               81.90701740              105.92871194              -29.13629635
              63.24041411               -2.03949439               93.71117088                0.00010000               24.61295340                0.96398561               -5.09114960               87.09004252              106.61131112              -41.76250408
              64.45100072               -6.94831483               92.29691562                0.00010000               17.43217029                2.48815835               -5.61097161               88.80950741              100.27454351              -59.56013686
              65.58905751              -11.94104428               90.64628905                0.00010000               11.72022322                2.79308184               -7.97626360               84.00956072               83.34720363              -84.34071869
              66.68540519              -17.09495085               88.68038445                0.00010000               11.14839929                1.73669300              -17.37551273               68.79726047               55.30852063             -119.67518353
              67.81202550              -22.52155023               86.35394384                0.00010000               18.60215445                2.35579368              -42.83643409               39.18032516               23.72760215             -171.33233346
              69.05744828              -28.33413272               83.74364736                0.43550450               24.54227796               12.21156719              -90.58669528               20.31291066               10.13554534             -246.07803307
              62.40027469               23.72332541               98.81549620                0.43529406                0.05231226               -1.31754366                1.87295463                0.36699093                0.48889329               20.80321534
              63.40079781               18.23213987               96.99356958                0.00010000               19.31530116                0.14323248               -0.71539298               34.43499633               63.11157166              -17.62486513
              64.78658071               13.42231512               96.42193722                0.00010000               39.33616079               -6.60268789                2.10868259               68.35990836              128.25010232              -19.57468785
              66.18752103                8.60593573               95.53543957                0.00010000               39.72303963               -8.23652348               -1.73477356               70.32941570              122.81382994              -22.71737369
              67.58104150                3.78178987               94.41768996                0.00010000               37.25121557               -6.96924997               -5.18149971               73.39446284              124.13152695              -28.52945025
              68.93254534               -1.06109311               93.10123545                0.00010000               31.63750284               -4.59873127               -6.71642146               75.52407528              123.33699822              -37.97479834
              70.21379156               -5.94821155               91.56165828                0.00010000               24.33319417               -2.01983292               -8.18692803               74.43062429              115.02877413              -52.08402390
              71.41920922              -10.92503655               89.73278544                0.00010000               17.75940933                0.71629162              -12.28781065               67.51711762               95.63942203              -72.45851307
              72.56897975              -16.05861447               87.53150684                0.00010000               15.33397739                4.81285535              -24.51208990               52.21265693               64.29650748             -101.86030095
              73.72588877              -21.42812741               84.90935858                0.00010000               20.45564325               13.20946917              -54.13808282               28.26231119               28.32211313             -144.26515626
              74.97809261              -27.09134814               81.94490230                0.43570903               25.22038430               30.03749335             -107.12546366               14.56983027               12.33095450             -202.25459691
              67.88525541               24.70368864               98.52489754                0.43534544                0.04918919               -2.19531718                1.85677308                0.30218856                0.64317337               19.44751591
              68.88574730               19.24120545               96.51693918                0.00010000               18.86061796                1.25384212               -0.92151645               28.99826947               72.74723792              -16.33107921
              70.26246777               14.35281635               95.94920066                0.00010000               39.42793606               -7.29152662                1.14766103               58.09489209              146.94855472              -20.02447811
              71.67430602                9.50814859               95.06192833                0.00010000               41.55959918              -10.73765728               -2.55844392               61.37477759              140.70560701              -22.60051767
              73.09365975                4.68923218               93.92457182                0.00010000               40.32955058              -10.61016940               -5.89593534               63.56747794              140.38726264              -26.31142842
              74.48089703               -0.13146901               92.55718240                0.00010000               35.49484486               -8.49827146               -7.75892412               63.58081680              137.52147642              -32.79092335
              75.80355665               -4.98871149               90.92727033                0.00010000               28.44528752               -5.25092230              -10.01264285               60.34367730              126.88372022              -43.26930953
              77.04980278               -9.92671845               88.96401599                0.00010000               21.45962705               -0.66693727              -15.38784608               52.44003225              104.81631948              -59.08708555
              78.23274919              -14.99869374               86.58157769                0.00010000               18.01013035                6.59496768              -29.40902797               38.85051886               70.27488960              -82.20006431
              79.41000539              -20.25736085               83.73144951                0.00010000               22.12685719               18.78018341              -61.27490550               20.32695636               30.81206322             -114.95583737
              80.67528633              -25.73338286               80.49958575                0.43596264               26.52809427               37.85937709             -116.47743734               10.76062952               13.36348523             -158.31282115
              73.33128484               25.67941906               98.22663927                0.43575280                0.03506460               -2.30757964                1.59260525                0.24733575                0.65716718               17.77368546
              74.33163549               20.25721671               96.04700013                0.00010000               17.51252837                1.59466623               -0.84309948               22.30003237               82.20746937              -15.00782660
              75.68153541               15.27648459               95.49682636                0.00010000               37.34826292               -8.11498749                0.71196204               45.37377535              165.51844867              -19.26053236
              77.07860075               10.39118258               94.63026939                0.00010000               40.52366281              -12.21998233               -2.80731463               50.43275618              158.55385103              -20.86935677
              78.49200867                5.56958648               93.49981076                0.00010000               40.17523015              -12.47263554               -6.07158562               52.45489632              156.25815700              -22.60057096
              79.88210535                0.76894146               92.11231508                0.00010000               36.19529399              -10.46557828               -8.28047589               51.18064130              150.89172212              -26.39579694
              81.21591455               -4.05323000               90.42855056                0.00010000               29.79433840               -6.85408219              -11.21233537               46.78947230              137.60160661              -33.47169729
              82.47799212               -8.93837530               88.37489735                0.00010000               23.03589878               -1.28143844              -17.52663001               39.09000997              112.75796256              -44.85094470
              83.67663252              -13.92671512               85.86432745                0.00010000               19.45624462                7.47643351              -32.65959557               28.02173041               75.23297217              -61.76745477
              84.86711701              -19.05252375               82.84950153                0.00010000               23.43583505               21.02364392              -65.62605466               14.43677736               32.85370520              -85.61044543
              86.14534922              -24.33416060               79.42306041                0.43558472               27.82322122               40.30226101             -121.52001420                7.87327515               14.20657469             -116.94568079
              78.73460683               26.65753705               97.91880639                0.43537971                0.00755935               -1.78324249                1.07950184                0.23643019                0.66315044               16.36242921
              79.73468242               21.27309877               95.58266169                0.00010000               15.06852856                1.27983533               -0.45611825               15.29023598               92.33078264              -14.22860299
              81.03597740               16.19051660               95.07865376                0.00010000               32.75884116               -8.92182947                0.85302664               31.43283766              185.38309013              -17.29895057
              82.38985925               11.26374895               94.26412324                0.00010000               36.45106992              -12.50010025               -2.48447693               37.87745101              177.36222998              -17.32708057
              83.76499880                6.43977947               93.17014658                0.00010000               36.87335457              -12.55160966               -5.79543036               39.51432440              172.46771038              -17.28524827
              85.12732634                1.65921942               91.79299345                0.00010000               34.08320246              -10.62732427               -8.46690952               37.44215991              164.13348418              -18.73628908
              86.44666285               -3.12579314               90.09080142                0.00010000               28.88808821               -6.99956610              -12.07525809               32.89550620              148.04943688              -22.76912837
              87.70508810               -7.95234722               87.98929545                0.00010000               23.03346986               -1.16148596              -19.16783067               26.42245749              120.52437654              -29.98055147
              88.90733225              -12.84916507               85.40118930                0.00010000               20.05491579                7.95792403              -35.06410280               18.41609180               80.30856590              -40.99025308
              90.10618642              -17.83688797               82.27961215                0.00010000               24.43466464               21.63262369              -68.55112569                9.46615656               35.23530767              -56.57820558
              91.39602554              -22.92733764               78.71933589                0.43572977               28.98391209               40.48566715             -124.36294030                5.46623914               15.27669140              -77.50214056
              84.10488999               27.64375421               97.60621458                0.43502583               -0.04293412               -0.89097042                0.30878855                0.22620105               -0.12079750               13.62729301
              85.10446065               22.28281341               95.11623311                0.00010000               10.73259982                0.53283174                0.32337937                8.96651423              104.49334321              -12.41299405
              86.31954199               17.09804800               94.71766986                0.00010000               24.12131217               -8.02352793                1.38204066               16.19641568              208.67726919              -11.64615617
              87.58688690               12.14118058               93.99392654                0.00010000               28.36413429              -10.51653307               -1.85763364               21.95375540              197.59843818              -11.04460490
              88.88682468                7.31855429               92.96085014                0.00010000               30.48171301              -10.73439535               -5.46133783               22.64831257              188.60849917               -9.88825203
              90.19652116                2.55639497               91.61989837                0.00010000               29.92833177               -9.30752519               -8.77546516               20.68182582              177.08042267               -9.84406551
              91.48539131               -2.19322132               89.93099692                0.00010000               26.66460240               -6.05603920              -13.10290728               17.44571529              158.44781383              -11.44882994
              92.72981320               -6.96160502               87.82169342                0.00010000               22.20518975               -0.40206630              -20.89752383               13.45260355              128.65616257              -14.88798360
              93.92949511              -11.76755664               85.20458429                0.00010000               20.23997502                8.56069091              -37.41666331                9.09309752               86.10708432              -20.32276173
              95.13461271              -16.61987127               82.03137858                0.00010000               25.30391170               21.87351192              -71.26865312                4.69391996               38.53925282              -27.99139639
              96.43557334              -21.52444726               78.39447324                0.43574784               30.09606358               40.16550127             -126.62721750                3.19786832               17.05682597              -38.72733670
              89.46101245               28.63971764               97.25104609                0.71744900               -0.12935213               -0.40365725               -0.03926185                0.01602211                6.32796324               11.51931934
              90.45971893               23.28375541               94.68212405                0.43527033                2.02630540                0.09419939                0.95204131                5.04224742              125.11390175              -10.86180658
              91.50153855               18.03004604               94.48839269                0.43687524                7.43545685               -6.80019516                2.01911663                6.68280016              237.19995473              -10.63771438
              92.60842806               13.05341828               93.86445134                0.43794519               15.06060504               -8.77622914               -1.68494949               11.90639264              215.92978889               -9.55725111
              93.80275066                8.22509157               92.90025055                0.43869225               22.21552009               -9.34627233               -6.03181685               12.57512962              202.27017355               -8.62076512
              95.05273846                3.47306892               91.60844371                0.43855155               25.54132446               -8.33260531              -10.19445528               12.02145642              188.29660645               -8.46573827
              96.31357714               -1.24691392               89.95723645                0.43793192               24.78685139               -5.36926006              -15.22721503               11.14571002              168.34042094               -9.34934803
              97.54847549               -5.96038855               87.87660383                0.43676565               21.69416545                0.12164714              -23.58512418               10.31436194              137.27041105              -11.11010261
              98.74746045              -10.67795125               85.27714256                0.43579547               20.42399727                8.96053818              -40.66685831                9.84507539               92.76792997              -13.52568600
              99.95695544              -15.39941773               82.10542078                0.43538517               26.08372091               22.04535424              -75.15172251                9.93045537               42.19927098              -16.24331733
             101.26913487              -20.12402761               78.44669787                0.71763155               31.21794346               40.04196442             -130.53816173               10.89516499               18.37172308              -18.33233726
              36.48463802               19.05362067              101.36480986                0.71776377                0.60161880                0.71767013               -0.09964267                0.59303244               -5.62032308                6.00244120
              37.49065421               13.76855434              100.35448306                0.43489058                4.07337492               -0.92770367                0.24396203                5.09605803               -5.89755366               -5.13894064
              38.56610552                8.60461220               99.33563398                0.43537844                5.62443176                0.73140076                0.37357518                0.44953018               -3.55591673               -0.04907913
              39.60314284                3.57821599               98.35980398                0.43695850                2.67721524                0.41097039                0.34473303                0.72403925               -0.93941765               -0.24250135
              40.61964982               -1.38263008               97.39047499                0.43839765                0.99115411                0.37470029                0.46844254                0.43471750               -0.40965651               -0.04449216
              41.62296592               -6.31403703               96.42327930                0.43797918               -0.07309379                0.30546971                0.62898269                0.30520571               -0.41774926                0.06498626
              42.61818795              -11.24299280               95.45231545                0.43723672               -0.70115008                0.26987592                0.80602137                0.16663023               -0.97161991                0.15873938
              43.60894292              -16.18743364               94.47310236                0.43633915               -0.99534121                0.25768315                0.99528581                0.02322113               -1.91121216                0.19434053
              44.59828112              -21.15758402               93.48274353                0.43562738               -1.02871540                0.26704784                1.22118966               -0.14013068               -3.14493869                0.13263456
              45.58836861              -26.15684837               92.47864519                0.43446595               -0.88993984                0.27660529                1.62009075               -0.18464383               -3.75130989                0.21848170
              46.58048233              -31.18175578               91.47618055                0.71726035               -0.78862895                0.06454102                1.88297389                1.09497850               -3.60029908               -2.28070557
              41.77563467               20.06079737              100.97624054                0.43481636               -0.95156495                5.37642787                0.60745815                6.52619737                4.96368744               12.00437837
              42.76611902               14.75927730               99.96133008                0.00010000               -5.49323393               -6.39920642                0.99109378               14.09698364               11.52696079              -11.22071663
              43.66576999                9.61192621               99.07968261                0.00010000               -8.10573226               12.16657285                0.23833759               41.79997071               15.05218937               -0.45195488
              44.60400438                4.58232570               98.17258234                0.00010000               -4.78232406               14.30561250               -0.07011500               59.62382160               12.48077044               -4.01561702
              45.57012351               -0.37888308               97.26599681                0.00010000               -2.39025179               14.40609338               -0.57985233               73.97950997               11.48330795              -11.29777726
              46.55619934               -5.31098233               96.35422365                0.00010000               -0.67854795               13.67076058               -1.16045296               83.64944515               10.59362266              -19.34594151
              47.55655255              -10.24029404               95.43641606                0.00010000                0.51357043               12.46210537               -1.77903910               88.77824049                9.85337845              -29.52385131
              48.56647075              -15.18485680               94.51011770                0.00010000                1.25173152                9.97411571               -2.41191971               89.12571108                9.02878415              -43.86741489
              49.58158718              -20.15491355               93.57308762                0.00010000                1.60686533                3.77888907               -3.09215933               84.56126183                8.04751195              -66.18166932
              50.59860805              -25.15408231               92.62479766                0.00010000                1.73761712              -11.16226583               -3.92134499               78.89446730                6.13393111             -102.62749148
              51.61633952              -30.18111037               91.65121036                0.43485648                1.77314690              -64.78946079               -4.43146662               94.10296149                4.51691344             -155.49080753
              47.21820210               21.16114922              100.69850641                0.43502069                0.32629442                7.70170328                0.29939623                1.00973207               -1.85638587               20.05469644
              48.22146504               15.64057021               99.45119043                0.00010000               18.04272200               -9.60967652                1.31134882               37.95118726               28.51855422              -19.26823731
              49.57905654               10.84794366               98.80870739                0.00010000               28.24817601               11.90361127                2.72339258               95.76473512               63.35448393               -1.01537713
              50.78642856                5.86432824               97.90733323                0.00010000               20.67457593               19.96322312               -6.43657824              114.39175771               66.49412856               -6.97613178
              51.99254805                0.90549179               96.91574713                0.00010000               18.54686136               22.13219464               -7.80363259              139.46228424               74.49770847              -20.04057707
              53.15736579               -4.04062182               95.89815883                0.00010000               13.75395862               22.45427673               -6.91283142              157.61311283               80.56205016              -35.23878501
              54.26762723               -8.99375069               94.82943635                0.00010000                7.43554331               21.45050914               -4.67025062              167.67089881               81.67488990              -54.51856503
              55.30607665              -13.98795132               93.66949314                0.00010000               -0.44476785               17.75588054               -1.30980565              167.64046954               75.59325281              -81.50234095
              56.25873187              -19.08200624               92.34127029                0.00010000               -5.68109339                7.29506662                2.08217159              154.63318835               55.84452756             -123.28906879
              57.19245479              -24.38009368               90.71835955                0.00010000               12.89328989              -21.26264772               -2.04082771              107.17934239               19.59823266             -192.84848653
              58.51659767              -30.47754500               88.76893009                0.43483655               32.41428819              -85.71091672              -37.62105980               78.19607585                0.32757951             -326.85390130
              52.83698734               22.21483143              100.40026605                0.43470223                0.13609964                3.47759470                0.79722348                0.98309803               -0.04391366               21.30669626
              53.83834833               16.56708377               98.96674743                0.00010000               26.01596622               -5.24990771                0.46853737               47.44079121               43.06972702              -19.84190517
              55.35730666               11.84999843               98.39300734                0.00010000               49.79715339               -2.83704768               -1.98922859               98.21085777               96.78425122              -10.35446359
              56.83429140                6.98159016               97.47444960                0.00010000               45.35062997                5.33696539              -11.87483181              108.23505764              105.24966201              -12.96630884
              58.26431926                2.06376081               96.41293074                0.00010000               38.67063361               10.06870552              -13.79601749              124.35538935              117.81281021              -21.86365559
              59.60770407               -2.86189680               95.27850263                0.00010000               29.64903852               12.90325777              -12.87858307              139.03627887              126.19249151              -34.78849131
              60.85730003               -7.81128385               94.03589822                0.00010000               19.99158105               14.13024672              -10.63383699              148.16907989              126.93243112              -52.24367116
              62.00753569              -12.82973919               92.61904350                0.00010000               10.45466409               12.83865363               -8.08166967              148.77136350              117.10327141              -76.75075232
              63.06639331              -18.00901221               90.91223209                0.00010000                6.50989816                6.44071955               -7.98351097              132.79953668               90.49687456             -113.30198017
              64.13773366              -23.57933527               88.75299804                0.00010000               15.43851772               -9.03258469              -22.77471304               86.26635627               48.24299379             -175.01846982
              65.37516367              -29.89532870               86.12906630                0.43473410               23.74300098              -13.36153488              -79.51114382               44.97202856               20.74069794             -287.24460986
              58.53335938               23.23070112              100.11698067                0.43477645                0.17544869                0.20655337                1.35754897                0.67726222                0.37790353               22.09295444
              59.53511386               17.53557206               98.47349936                0.00010000               29.77039625               -1.66678866               -0.34029368               48.23143543               54.68369446              -20.06079756
              61.12876730               12.79120270               97.91336966                0.00010000               60.11267335               -6.94553656               -4.79245116               96.47831359              119.40859311              -16.16583126
              62.73736733                7.97106755               96.97701970                0.00010000               59.71877500               -4.81298256              -14.37561376               99.92362095              127.73671072              -16.48873897
              64.32314280                3.10686590               95.85942785                0.00010000               53.78843516               -0.80386946              -16.00114451              108.42082795              140.70881919              -21.60294018
              65.81313603               -1.78255666               94.61976921                0.00010000               43.78542083                2.62700004              -15.18170031              117.51540478              148.83999517              -31.10776961
              67.19885122               -6.71114575               93.21363028                0.00010000               33.30481241                4.98529883              -13.46683602              123.03904811              148.32405851              -45.17568828
              68.47923228              -11.73117825               91.55970044                0.00010000               23.27337303                5.77642632              -12.39054127              120.05017223              136.01399807              -65.52272719
              69.66431868              -16.95319185               89.52246918                0.00010000               16.24330600                4.87399493              -15.91943676              101.23248351              106.21401476              -96.45432605
              70.80409840              -22.56074538               86.93049627                0.00010000               19.18532158                7.44147849              -37.90789153               59.07092548               57.68149138             -147.36626653
              72.04802511              -28.74477569               83.75032133                0.43504757               24.39267084               26.34589794             -105.59644570               31.36120579               26.44817852             -232.27984515
              64.24079070               24.21896250               99.83315868                0.43459779                0.16847537               -1.98486961                1.68157021                0.51375043                0.65435885               21.07514917
              65.24247545               18.53374800               97.98596154                0.00010000               30.52933675                0.73010207               -0.85030435               43.62953339               64.84650084              -18.74642142
              66.85137744               13.71108770               97.42007724                0.00010000               63.73125852               -8.35562618               -6.80132851               86.67445431              138.60417969              -18.28741331
              68.51710062                8.88533051               96.47235602                0.00010000               66.74912995              -10.70448263              -15.69257052               89.39042990              145.42712295              -18.00385052
              70.18636003                4.04768343               95.31627586                0.00010000               62.94615973               -9.33134272              -17.04594065               93.65277679              156.82257650              -20.58849222
              71.77602382               -0.80935680               93.99495722                0.00010000               54.01712710               -6.66129160              -16.36704101               97.99385874              163.42839226              -26.95512371
              73.26670258               -5.71157788               92.45535629                0.00010000               43.72807077               -3.92356735              -15.26786555               99.10471209              161.23657225              -37.50820010
              74.65058523              -10.71421067               90.60709376                0.00010000               32.69537672               -1.17760394              -15.48447578               92.67860213              146.83175158              -53.62685708
              75.92061011              -15.91153231               88.30694577                0.00010000               23.00753863                3.46043188              -21.34954095               73.66746285              113.90145702              -78.40034287
              77.11073601              -21.43050570               85.37785116                0.00010000               22.49191515               15.02642542              -46.79527919               40.68856741               60.84980900             -117.75394067
              78.37044841              -27.36841075               81.79215723                0.43522528               25.97124065               40.40226641             -118.11359418               21.53497210               27.67761374             -178.39860174
              69.91406339               25.19100372               99.54280692                0.43492587                0.15159425               -3.09221350                1.77777704                0.37585516                0.77121608               19.19452208
              70.91557933               19.55017410               97.50726979                0.00010000               29.83052446                2.04877141               -1.09266378               36.09002789               74.08649882              -16.88523163
              72.51067388               14.62409018               96.93582012                0.00010000               63.65004374               -9.18530713               -7.82623079               72.36956026              156.10918534              -18.37578762
              74.18858020                9.75697790               95.99085418                0.00010000               69.01058846              -14.24617002              -16.01988729               76.50838512              161.41812099              -17.87402741
              75.89088565                4.92023904               94.81791954                0.00010000               67.18471539              -14.85878894              -17.23638329               79.36953783              170.60568125              -18.77460014
              77.53227451                0.08421750               93.44306558                0.00010000               59.74568412              -13.11258348              -16.81694327               80.55862572              175.04689483              -22.66021654
              79.08579933               -4.78961710               91.80619279                0.00010000               50.02421245              -10.18892470              -16.30644009               78.33743958              170.81843534              -30.15889621
              80.53275876               -9.75473033               89.81200814                0.00010000               38.40818199               -5.80724226              -17.45534502               70.09766839              154.15794146              -42.34409265
              81.85396297              -14.88398321               87.31438885                0.00010000               27.09947098                2.09447070              -24.60823274               53.34467921              118.41359377              -61.25072931
              83.07474818              -20.26021687               84.13743828                0.00010000               25.02858391               17.22433584              -51.46439681               28.43496461               62.30148040              -90.33158408
              84.35453465              -25.93673037               80.26632731                0.43485116               27.97864652               42.84207492             -123.79108461               15.26012518               28.09303394             -133.09127879
              75.52996706               26.15711823               99.24189152                0.43434698                0.12225002               -3.21398985                1.57127786                0.30256730                0.80225068               16.90183759
              76.53118956               20.57472343               97.03842687                0.00010000               28.09988906                2.39943645               -1.01277025               27.01917848               83.11008904              -14.88950476
              78.09196484               15.52738156               96.47923830                0.00010000               60.99649532              -10.49175990               -7.92658777               55.23657132              173.32506916              -17.17197332
              79.75111946               10.60040711               95.55904663                0.00010000               67.72731742              -16.65952264              -15.37684214               61.65701825              177.08194838              -16.24176091
              81.44651119                5.75050765               94.39490115                0.00010000               67.29665071              -18.02209811              -16.66184926               64.32287238              183.76627764              -15.78674813
              83.09705248                0.92839153               92.99651212                0.00010000               61.29440065              -16.68381744              -16.66602131               63.62251831              185.66445982              -17.70659486
              84.67239920               -3.91535637               91.29940529                0.00010000               52.49261186              -13.64812922              -16.77035208               59.47703241              179.10888173              -22.60634573
              86.14690471               -8.83035551               89.20632234                0.00010000               41.02955186               -8.40521625              -18.63427733               51.10923518              160.12511205              -31.24906829
              87.49299024              -13.86964290               86.57092134                0.00010000               29.26388677                0.93152530              -26.51905434               37.65176808              121.88453033              -44.84422982
              88.73218245              -19.08601898               83.22045330                0.00010000               26.78438364               17.00913318              -53.90848225               19.76151512               63.40854538              -65.39098561
              90.02867791              -24.51156925               79.15074738                0.43498026               29.64954592               41.41414568             -126.17759083               10.75499638               28.36527752              -94.98912777
              81.08490434               27.12672393               98.92856435                0.43411525                0.07952313               -2.44012301                1.04673419                0.31975371                0.79058847               14.79946738
              82.08569957               21.59816283               96.57856466                0.00010000               25.24086406                1.86015248               -0.57367085               17.49883951               92.66421382              -13.30591877
              83.58972162               16.41425498               96.06440261                0.00010000               55.64474557              -12.31771535               -7.07837586               36.72154666              191.64724399              -14.89838750
              85.19859448               11.42378745               95.20041397                0.00010000               62.98185254              -18.02057274              -13.80242722               45.48743813              193.39664211              -13.11805773
              86.84935867                6.55979708               94.07278805                0.00010000               63.59972078              -18.97653961              -15.41411692               47.79835799              197.02012711              -11.61241201
              88.47058890                1.75054116               92.67946885                0.00010000               59.23641747              -17.74571307              -16.09187080               45.87131110              195.97349422              -11.97791535
              90.03408702               -3.06257969               90.95707330                0.00010000               51.93205482              -14.79855958              -16.90843680               41.08875548              186.97358291              -14.72020341
              91.50922999               -7.92283465               88.80883266                0.00010000               41.42873898               -9.38925918              -19.42689170               33.92566772              165.75606111              -20.23249439
              92.86266180              -12.86535271               86.08917276                0.00010000               30.13374181                0.18726751              -27.82664323               24.39596726              125.33468962              -29.05726965
              94.11190483              -17.92003421               82.62791157                0.00010000               27.90366521               16.16125696              -55.44525857               12.89213687               64.80768700              -42.25614405
              95.42073510              -23.10844745               78.42684833                0.43480666               30.88302742               39.63695607             -127.28044731                7.22153858               28.86755061              -61.32383631
              86.59348433               28.10831577               98.60696539                0.43391573                0.01509610               -1.13400153                0.05764375                0.30593955                0.04172814               11.74255700
              87.59363529               22.61192648               96.12143878                0.00010000               20.36434091                0.73336450                0.43507958                8.50066588              103.93609351              -10.93301748
              89.00077115               17.28102725               95.71232918                0.00010000               46.08454168              -13.30989129               -5.44030346               17.47040577              213.11626729               -9.59363545
              90.51532613               12.23999565               94.94191907                0.00010000               53.74767436              -16.71012268              -11.48939354               26.08699572              211.08266715               -8.23455586
              92.07572464                7.37097685               93.87227019                0.00010000               56.07646696              -17.62690889              -13.92416172               27.34258605              210.18932755               -6.27031215
              93.63685547                2.57347727               92.50756460                0.00010000               54.59127396              -16.87399506              -15.57383069               25.16481733              206.05988368               -5.81539487
              95.16755012               -2.21132756               90.79109597                0.00010000               49.56678126              -14.38083967              -17.19120483               21.56960673              194.91935517               -6.91397303
              96.62819109               -7.01814070               88.62856746                0.00010000               40.52795091               -9.23158512              -20.29284442               17.11114408              171.85024026               -9.65512344
              97.97810914              -11.86589755               85.87471902                0.00010000               30.24644198                0.06401133              -29.15074647               12.08296731              129.50984728              -14.10236390
              99.23311993              -16.76279384               82.35884150                0.00010000               28.59130193               15.45411533              -56.90133084                6.57383875               66.93593815              -20.53093400
             100.54993517              -21.71883013               78.08380165                0.43438531               31.68152426               39.58080416             -128.48507640                3.82216925               29.83371320              -30.06556572
              92.08380172               29.10404390               98.24752035                0.71722332               -0.08003106               -0.42718726               -0.46969757               -0.08963964                5.29996977                9.61366633
              93.08300141               23.61283012               95.69488845                0.43516227               11.36294205                0.09036403                1.27607510                1.13727415              122.80818444               -9.17072964
              94.31106056               18.14805716               95.49073307                0.43669761               27.36916938              -13.29700963               -3.81945623                4.86668449              240.73392837              -10.28650091
              95.63038479               13.08958499               94.81624928                0.43792166               37.58341095              -15.04106611              -10.05851141               14.46595398              227.19758954               -8.75383687
              97.06272878                8.20725890               93.80820554                0.43859937               46.29024343              -16.37179518              -13.66476122               14.87422686              221.39432884               -7.25503007
              98.55618966                3.41306125               92.48409107                0.43839837               49.71841724              -16.04160161              -16.31575916               14.06065044              215.27072755               -7.12504994
             100.05709712               -1.35019648               90.79922679                0.43781717               47.49166001              -13.88689159              -18.52182683               12.92831991              203.43993079               -8.17505320
             101.50602286               -6.10746635               88.66170922                0.43678941               39.59385862               -8.93256592              -21.78118658               12.08937694              179.49672295              -10.26904826
             102.84897429              -10.86407248               85.92238240                0.43549328               29.51456590                0.18250689              -30.60206228               11.91223860              135.22892203              -12.85256489
             104.09631418              -15.61095190               82.40551839                0.43463986               28.01383809               15.18419439              -58.50325029               13.68148053               69.90015332              -15.53941373
             105.40925106              -20.31683137               78.11065182                0.71737862               31.29368752               40.19987572             -129.88665560               15.34364116               30.94367292              -18.13882267
              37.44189562               19.49283787              102.36071547                0.71682141                0.64353478                1.27470368               -0.44974757                1.06712083               -3.76628529                4.04365413
              38.44833097               14.11093033              101.35603113                0.43477167                4.10469043               -1.24260017                0.06407726                6.19395757               -4.61834409               -3.53972044
              39.52398943                8.86459712              100.33662424                0.43577603                5.65999371                1.12433828               -0.55446291                1.17004363               -4.18503661               -0.03125240
              40.56153084                3.76654015               99.36047705                0.43667589                2.77058662                0.55545325               -0.26949040                1.01485101               -1.77430187               -0.21757005
              41.57940116               -1.25295698               98.39311088                0.43618752                1.13460138                0.41058776                0.00732035                0.75306280               -1.08452542               -0.06762228
              42.58422287               -6.23509142               97.42796811                0.43690064                0.07472627                0.23639165                0.26428489                0.66324166               -0.95885037                0.06797600
              43.58089569              -11.21224646               96.45902673                0.43603780               -0.54623472                0.12824705                0.45683706                0.58362426               -1.27529510                0.14591828
              44.57329817              -16.20491635               95.48178875                0.43542480               -0.82495318                0.07026038                0.61010414                0.49470786               -1.85166594                0.18549784
              45.56439662              -21.22395899               94.49362797                0.43508014               -0.85419596                0.06402268                0.75666802                0.35297336               -2.52966174                0.15042193
              46.55621426              -26.27173618               93.49364638                0.43474888               -0.68270631                0.08060062                1.04309724                0.20502899               -2.65664652                0.13279148
              47.55074250              -31.34278502               92.49409752                0.71728253               -0.54717596               -0.29581522                1.27700257                0.92552083               -2.29225088               -1.52327653
              42.83447438               20.50558491              101.97991103                0.43463228               -1.00834588                7.89961546               -0.09705876                9.43594969                3.38623318                9.36297284
              43.82439092               15.09850432              100.97240801                0.00010000               -6.32947130               -8.66281333                1.39148439               18.55029681                9.27302739               -9.66821380
              44.70788495                9.87584051              100.08538674                0.00010000               -9.69672562               16.49926179                1.62276783               58.71216135               12.44852200               -0.35300521
              45.63045641                4.77209469               99.17632781                0.00010000               -6.00686879               19.95632904                0.90779133               92.89035152                9.74249222              -10.98046738
              46.58774758               -0.24885111               98.26400740                0.00010000               -2.99781894               20.47350488                0.17198916              116.21916798                8.58681879              -17.40557382
              47.57050003               -5.23272750               97.34650710                0.00010000               -0.80515911               20.77651480               -0.49709382              131.82547481                7.85789371              -24.07562518
              48.57164439              -10.21096399               96.42282266                0.00010000                0.68007457               21.21216348               -1.08124941              141.84975416                7.38949615              -32.23353722
              49.58410152              -15.20421374               95.49117835                0.00010000                1.48459400               21.00592321               -1.54320376              146.87979873                6.90866881              -43.78039977
              50.60133627              -20.22331877               94.54880274                0.00010000                1.67880201               17.19931138               -1.91955091              146.00010586                6.19418222              -62.20779580
              51.61767756              -25.27093018               93.59359659                0.00010000                1.48551344                1.97809593               -2.32335103              138.70356726                4.60680366              -96.84947354
              52.63104654              -30.34574317               92.61524534                0.43396855                1.33689832              -80.05307818               -2.49931025              150.07620630                3.14186364             -169.44228729
              48.44477579               21.65083018              101.69492999                0.43379042                0.43055190               10.88552754               -1.98328828                0.64398133               -1.46043915               17.90398119
              49.44908131               15.93767406              100.46886827                0.00010000               28.99332526              -12.47852320                2.84844191               49.78247182               27.41026989              -18.13428439
              51.02464229               11.19458236               99.81694300                0.00010000               54.74740887               17.25496103              -24.01610379              134.11683322              117.19212179                6.00871565
              52.54402948                6.16566673               98.77381688                0.00010000               44.19822077               29.34104447              -24.31850579              171.08185000              131.21167288               -7.74197455
              53.90860671                1.15651311               97.78705596                0.00010000               31.94078847               33.85575504              -23.49006267              210.48777245              146.34322467              -17.51289078
              55.18284525               -3.81956112               96.78312898                0.00010000               24.03851506               36.74872408              -22.41826511              239.98392409              153.13680016              -27.62310707
              56.38937701               -8.78800319               95.74140455                0.00010000               17.02018341               39.19609600              -21.35742581              259.86390581              156.87738724              -39.68570161
              57.52324892              -13.78479788               94.62442241                0.00010000                8.08690804               39.90466074              -19.37165360              269.10212278              156.78024842              -56.47126869
              58.55111517              -18.87997277               93.35994756                0.00010000               -3.52694585               34.13659691              -15.05178627              261.98994437              145.73954789              -83.55183240
              59.45271001              -24.23217426               91.75504685                0.00010000                7.53887210                4.15903839               -9.22019209              188.47873438              101.66470408             -133.34187031
              60.70189261              -30.94384658               89.38109403                0.43438825               24.91826076              -85.80598765              -29.96143383              127.74778338               55.21409725             -290.21599712
              54.27366625               22.72329546              101.40408812                0.43354938                0.26219245                4.40878960               -0.15726170               -0.17168925                0.15315848               19.83216220
              55.27628818               16.84893386               99.97281252                0.00010000               44.42813437               -5.98816613                0.82859932               62.09424732               39.10768119              -19.33595230
              57.16222894               12.22093973               99.31521377                0.00010000               90.69372369               -3.00493895              -30.23808383              131.95282019              137.26130800               -8.80561046
              59.09016265                7.35891557               98.25983405                0.00010000               81.02509706                8.97655626              -29.86379430              144.95816334              159.91916094               -7.92116845
              60.78273088                2.42826400               97.20041541                0.00010000               61.22660834               16.83500715              -27.82514929              168.24466128              178.72289761              -13.64265770
              62.31469482               -2.49775302               96.08272515                0.00010000               47.57141938               22.07283778              -25.60149297              191.24301278              187.59834597              -21.54525000
              63.73415927               -7.42704207               94.86811794                0.00010000               37.17093635               25.83582605              -23.51289120              208.99030717              191.09867897              -32.12894833
              65.05811355              -12.40612053               93.48640245                0.00010000               27.71761354               27.26243971              -21.00783642              218.18524450              188.11881711              -47.18832873
              66.28851154              -17.54058683               91.81215661                0.00010000               19.65062588               23.06108572              -18.58127988              205.30728008              170.02535341              -70.36626100
              67.45112606              -23.18774941               89.55009459                0.00010000               16.04176538                6.92227898              -20.87991960              138.19085380              121.02768182             -114.30854485
              68.60934685              -30.06186292               86.25053236                0.43451762               15.82207848               15.05130115              -76.17638596               74.83210391               79.76606752             -224.13725419
              60.19006521               23.73900598              101.12848284                0.43426677                0.32567797               -0.21466634                0.85170847               -0.40502970                0.44282727               20.28434700
              61.19332199               17.81791074               99.46995883                0.00010000               48.18258872               -1.27464268               -0.30881582               61.49993458               50.27675176              -19.22901858
              63.15371698               13.13448358               98.80294548                0.00010000              102.12732483               -9.34116690              -33.59498679              121.86640054              154.35614170              -12.37286625
              65.23586848                8.34519786               97.73768184                0.00010000               98.82257743               -6.34456693              -32.42544590              123.42159480              175.02020023               -9.30473850
              67.13016853                3.49321326               96.62862248                0.00010000               81.35715475               -0.83678298              -29.79065580              134.44293639              193.73207249              -11.06230058
              68.86301158               -1.37810437               95.40753687                0.00010000               67.36910652                3.71305287              -27.06400072              149.14189989              202.30059674              -16.16211600
              70.47755066               -6.27128667               94.02757890                0.00010000               56.87434939                6.80520062              -24.81055312              161.53912365              205.01677200              -24.02748107
              72.00049857              -11.23954909               92.39847823                0.00010000               48.06694947                7.81195643              -22.94326683              164.93384253              200.23646026              -35.65310187
              73.43888965              -16.41875105               90.36199571                0.00010000               36.86523050                6.10229174              -22.55378153              146.67801766              179.85200761              -54.35756057
              74.73780318              -22.09372868               87.59578601                0.00010000               25.39360363                9.88005827              -31.02636811               89.12389606              125.63287060              -88.37718626
              75.94676172              -28.64282056               83.63171844                0.43457777               20.89585464               44.32683872              -92.23395302               49.77510723               82.28033794             -162.59321017
              66.10775614               24.71900214              100.84912761                0.43391778                0.30531256               -3.00798670                1.49168855               -0.47167321                0.67766269               18.89705692
              67.11080926               18.82344101               98.97656350                0.00010000               48.22568455                1.65623748               -1.04940749               54.81281743               59.99737422              -17.60490415
              69.07226983               14.03411639               98.28591065                0.00010000              104.45278039              -10.41720176              -34.35491901              107.79666661              168.32467037              -13.86227314
              71.19986487                9.23202424               97.22158816                0.00010000              106.13110040              -14.06102119              -33.17492359              108.10562416              187.00539332              -10.38673446
              73.19489184                4.41152834               96.07677114                0.00010000               93.10839382              -12.90491846              -30.37485294              113.39386196              203.57278247              -10.51659441
              75.06203275               -0.42349196               94.77389463                0.00010000               81.57473136              -10.40619361              -27.66677327              121.40418523              210.99055107              -13.43987090
              76.82638646               -5.29093806               93.25630097                0.00010000               72.11110131               -8.23258671              -25.64741238              127.35213473              212.65755259              -19.00676905
              78.50425477              -10.24988140               91.42309593                0.00010000               62.49325118               -6.66398969              -24.39307987              124.83320251              206.69234184              -27.92418148
              80.07625149              -15.41854099               89.10451602                0.00010000               47.67093590               -3.44664214              -25.41783589              104.82172164              184.43260310              -42.44700012
              81.45767349              -20.99014824               85.97345300                0.00010000               31.33906281                9.35670087              -35.74963321               60.47541040              127.33809018              -67.45668574
              82.70303274              -27.17532615               81.58263042                0.43426577               24.53592518               44.45109872              -97.74502121               33.11257147               82.89736636             -116.42502958
              71.97175400               25.67884624              100.56045308                0.43367675                0.27100794               -4.36518757                1.75793933               -0.45592499                0.76683225               16.76788930
              72.97446408               19.85103549               98.49508590                0.00010000               46.46565413                3.23453672               -1.41038977               44.64872667               69.10080938              -15.47957359
              74.90106708               14.92613955               97.79267605                0.00010000              102.30524700              -11.48268802              -33.42224174               88.40445791              181.18097168              -13.53291965
              77.02056902               10.06397744               96.74153059                0.00010000              107.62474429              -18.76183340              -32.51988176               90.68436660              197.66006301              -10.20582387
              79.05356197                5.23511489               95.57984416                0.00010000               98.64963300              -20.62726629              -30.01770167               94.23856099              211.88427483               -9.46921334
              80.99356168                0.41377176               94.22084353                0.00010000               89.87104112              -19.90508701              -27.68157587               97.89021836              217.74152041              -10.96931226
              82.85098279               -4.43593841               92.60114153                0.00010000               81.56019341              -18.26496818              -26.09863624               98.76474247              218.18356863              -14.75941890
              84.62476555               -9.37282888               90.61490909                0.00010000               71.23040664              -15.51498898              -25.40071828               92.64890228              210.94259599              -21.37595947
              86.27559093              -14.48768389               88.08941303                0.00010000               53.96654958               -8.99213157              -27.06831752               74.50874500              187.05367027              -32.24834590
              87.70409654              -19.90659467               84.70216157                0.00010000               35.18890209                6.96657500              -37.79223152               41.58368451              128.03020250              -50.17972625
              88.97936897              -25.75379859               80.02376406                0.43429118               27.52724261               39.04309873              -99.07277739               22.73130095               82.74593429              -83.39299445
              77.75425915               26.63169838              100.25806483                0.43433953                0.22313428               -4.51968560                1.68533406               -0.42346508                0.80427314               14.23317859
              78.75649049               20.88813174               98.02674473                0.00010000               43.65789443                3.64665028               -1.42246412               32.52143053               78.09709361              -13.14090600
              80.62741704               15.80446263               97.33829461                0.00010000               97.40431845              -13.33407897              -31.17375406               65.73308565              193.84901429              -12.38812555
              82.70457686               10.85678757               96.32273254                0.00010000              105.12258472              -22.27310440              -30.65498005               71.16790041              208.00901653               -8.98590618
              84.72986873                5.99898301               95.16657377                0.00010000               99.31567751              -25.24763455              -28.79325696               74.72016116              219.70483276               -7.69013365
              86.69089041                1.17840630               93.77899465                0.00010000               92.92066122              -25.25815657              -27.14230989               75.68644275              223.82757751               -8.23480147
              88.58828196               -3.65623743               92.09314352                0.00010000               85.90439475              -23.79747407              -26.15569151               73.36002119              222.84759331              -10.66813359
              90.40897831               -8.56018118               90.00221180                0.00010000               75.59551069              -20.32066722              -25.94935332               66.05990568              214.26567013              -15.35815477
              92.10019217              -13.59838363               87.33394636                0.00010000               57.32417833              -12.32121254              -27.93568345               51.43603229              188.91960889              -23.12695132
              93.55546187              -18.85081674               83.77133189                0.00010000               37.59372148                4.30978079              -38.57237774               28.22437503              128.49412119              -35.62333333
              94.85206660              -24.39446418               78.89950860                0.43447481               29.66047272               33.34649769              -98.93773113               15.44195998               82.60892506              -57.95733016
              83.45041799               27.58845253               99.93974108                0.43372201                0.17104590               -3.60245150                1.24754622               -0.32247285                0.80882220               11.72802292
              84.45212845               21.92396849               97.57118827                0.00010000               39.83274915                2.98487677               -1.04471637               19.61668357               87.65622820              -10.97224302
              86.24707297               16.65945797               96.93708625                0.00010000               89.86391015              -16.23089029              -27.63256763               41.42584309              207.40778298              -10.51851328
              88.24940665               11.61851535               95.98807469                0.00010000               98.96367481              -24.80667100              -27.64778019               50.73633030              218.69856164               -6.63911796
              90.22634647                6.73016220               94.86186424                0.00010000               95.65521612              -27.06262266              -26.85124988               54.25951228              227.51691692               -5.17545451
              92.16251097                1.90860863               93.47115603                0.00010000               91.52121133              -27.14707226              -26.18364980               53.29762738              229.62917727               -5.09148070
              94.05677069               -2.91188789               91.75263268                0.00010000               86.27994460              -25.87084246              -25.95678966               49.33213727              227.13461712               -6.51506894
              95.88810986               -7.77924223               89.60075761                0.00010000               76.90882204              -22.37014328              -26.24291306               42.59982007              217.24918737               -9.59361510
              97.59494713              -12.73410815               86.84465643                0.00010000               58.82773642              -14.22149641              -28.44174744               32.40345110              190.62794858              -14.74278194
              99.06466459              -17.82039905               83.17070698                0.00010000               39.02779493                2.13599867              -38.95810652               17.80132375              129.04392049              -22.73125766
             100.37550303              -23.08686863               78.17372694                0.43411784               31.08384402               29.24510588              -98.57689837                9.86607681               82.66590599              -36.91493954
              89.07677777               28.55964935               99.60736745                0.43353165                0.10409579               -1.87857463                0.25207093               -0.08912481                0.29967325                8.51154002
              90.07781873               22.94782928               97.12493470                0.00010000               34.23046378                1.47364945               -0.04099559                7.03684594               98.73246968               -8.14633196
              91.76138704               17.47984482               96.60886380                0.00010000               78.53902551              -19.59748568              -22.49292824               18.03040953              223.19777815               -6.48806469
              93.64859924               12.36065415               95.76413867                0.00010000               88.17893264              -24.44171082              -23.77540933               28.16932348              230.50734447               -3.76131226
              95.52496570                7.45773056               94.68236690                0.00010000               87.51469045              -26.10209665              -24.49320748               30.56298387              235.10937508               -2.34984505
              97.39889305                2.63546485               93.30842175                0.00010000               86.89049307              -26.55468220              -25.20667110               28.66179774              235.25869525               -2.05538521
              99.26277556               -2.17365427               91.58717282                0.00010000               84.21509590              -25.73943693              -25.84162165               25.24690099              231.45958172               -2.68974113
             101.08319496               -7.00758405               89.41583653                0.00010000               76.33212284              -22.64054031              -26.56169791               20.89926008              220.35361437               -4.37532522
             102.78941802              -11.88281355               86.62156936                0.00010000               59.05269353              -14.81105852              -28.94270388               15.63849379              192.76581043               -7.11030437
             104.26424883              -16.80809677               82.89335196                0.00010000               39.64546412                0.84196369              -39.36927023                8.76379956              130.03283884              -10.98954357
             105.58232730              -21.80956206               77.82477172                0.43435420               31.80784635               27.31821198              -98.60911536                4.96539294               82.86064044              -18.16909954
              94.67227565               29.55088104               99.24165214                0.71704927                0.03942480               -0.87683169               -0.36225936               -0.19416779                3.48538827                6.43691901
              95.67266990               23.95344148               96.70764556                0.43541655               26.12903209                0.56122046                0.79280931               -4.68352231              115.54644676               -6.25367903
              97.19485629               18.26750825               96.41200356                0.43652466               58.11187454              -21.23365707              -17.05372509                2.15890699              246.32001715              -10.23042185
              98.83490739               13.12968113               95.66328111                0.43706149               68.39695763              -23.09730174              -19.80643567               15.66141549              241.85661080               -6.45712599
             100.56279544                8.20812026               94.62695533                0.43746734               76.61121861              -24.96102927              -22.89791729               16.17466713              242.21264949               -5.65618510
             102.36713176                3.37751498               93.28212853                0.43754706               82.09810840              -25.79498662              -25.04310741               15.08402663              241.39344519               -5.94981849
             104.20475761               -1.42667663               91.58679991                0.43706589               82.40612933              -25.30223536              -26.36247731               13.71980417              237.77100502               -7.35091489
             106.01525434               -6.23205303               89.44098010                0.43688758               75.17360617              -22.44689883              -26.96249108               13.02330372              226.58354196               -9.97434483
             107.70822973              -11.03032932               86.66510131                0.43577878               57.57173714              -14.75157622              -28.68298155               13.30583463              197.33105981              -13.98517426
             109.16668909              -15.80355978               82.93535577                0.43464460               38.47558675                0.45369924              -39.32672927               14.73527154              132.31889706              -15.77992668
             110.47774147              -20.54050439               77.84896476                0.71734632               31.10523802               26.90576659              -98.61635658               15.84695554               84.26568824              -19.53464279
              38.41868098               19.89610263              103.35581490                1.00000000                0.36975681                1.77396704               -0.49005644                0.85879210               -2.32649384                2.17492125
              39.42237855               14.46500617              102.35576460                1.00000000                2.96389409               -1.19302839               -0.02665312                2.89050700               -4.15875081               -1.25289879
              40.47795886                9.10646216              101.32454472                1.00000000                4.43958061                1.80851824               -1.20795218               -2.85597666               -4.67057813                2.94582838
              41.51117016                3.94216309              100.35441417                1.00000000                2.62546953                0.72134337               -0.60628867               -0.70554591               -1.73223418                1.19469340
              42.53046825               -1.12577555               99.39062139                1.00000000                1.33514540                0.48359273               -0.24894897               -0.47469501               -1.18574919                0.59966282
              43.53787307               -6.14975548               98.42856500                1.00000000                0.41965742                0.20997795                0.05968822               -0.42764927               -1.09343995                0.10527137
              44.53886140              -11.16766630               97.46145219                1.00000000               -0.02823550                0.03236982                0.24254616               -0.55638618               -1.36645588               -0.20809526
              45.53730836              -16.20250286               96.48530444                1.00000000               -0.15155727               -0.05955994                0.35156889               -0.72737251               -1.77774657               -0.36373270
              46.53583026              -21.26492512               95.49787689                1.00000000               -0.12711104               -0.04639332                0.42489153               -0.85727192               -2.14650189               -0.41464070
              47.53476614              -26.35409295               94.49950713                1.00000000               -0.10476098                0.16206940                0.58607504               -0.52605290               -1.95262616               -0.35332642
              48.53373504              -31.45451695               93.50172060                1.00000000               -0.10311019               -0.24356711                0.76230788                0.17202496               -1.47939947               -1.22283806
              43.85836536               20.91384230              102.97429936                1.00000000               -1.22615058                9.94745641               -0.56116661               15.04514711                3.87513928                5.97702612
              44.84610386               15.45307589              101.98915977                1.00000000               -7.37723619               -9.37630768                1.67517558               21.79919572                9.06322430               -6.92311017
              45.71082064               10.12454734              101.11213797                1.00000000              -11.29351480               31.59143881                2.67512318              131.81460671               10.37248851              -24.93728696
              46.62023356                4.94937652              100.19073816                1.00000000               -6.95700230               34.19097096                1.44103583              184.19459669                6.84264664              -28.94436861
              47.57168059               -0.12093963               99.26943659                1.00000000               -3.28458057               37.23007558                0.54291961              214.12999823                6.07048216              -34.44262824
              48.55454195               -5.14765570               98.34428177                1.00000000               -0.60046815               41.02267378               -0.22253264              234.07385799                5.67191601              -40.43139331
              49.55967123              -10.16734260               97.41479107                1.00000000                1.20610491               46.74531487               -0.80315923              248.47886902                5.55127633              -48.59607853
              50.57866405              -15.20309846               96.47925363                1.00000000                2.16906765               54.49510296               -1.19247173              259.38918947                5.45152966              -60.05069009
              51.60305258              -20.26538905               95.53469661                1.00000000                2.28187408               62.42641788               -1.41061338              267.88471693                5.12548127              -77.08914472
              52.62430153              -25.35247225               94.57833063                1.00000000                1.64133559               67.53319277               -1.52659540              273.91363455                3.98877420             -106.43177916
              53.63587929              -30.45695262               93.60122415                1.00000000                1.15777654              -23.13175026               -1.40211893              281.30447404                2.77262683             -177.72190454
              49.64111675               22.09505176              102.65884065                1.00000000                0.65406737               13.20397627               -3.60893426               10.45464286                4.56595852               15.56323030
              50.64765742               16.27748002              101.50815927                1.00000000               98.84168058              -13.69008587                3.92909998               75.32558090                3.33484496              -16.31142168
              53.61795036               11.73829093              100.32838532                1.00000000              139.64458203               28.16682020              -48.85576896              222.65965704              154.97099915              -11.82375792
              55.44054906                6.62598251               99.42096312                1.00000000               64.60750432               45.49626558              -35.28537628              270.38872213              195.52998591              -19.64664515
              56.91010045                1.61882596               98.44594587                1.00000000               41.26020681               53.51403801              -34.11100834              324.44605017              201.59089460              -24.41915792
              58.26575320               -3.32930201               97.44979353                1.00000000               32.68905448               61.52230062              -33.33354484              364.29202795              206.10789240              -29.86453879
              59.56388154               -8.23276000               96.40228783                1.00000000               27.86927016               71.36527136              -33.91167177              396.63131428              209.06377966              -36.93321407
              60.82313860              -13.11260080               95.28206007                1.00000000               23.95084261               82.77684402              -34.23623436              423.17862776              211.88630489              -46.79863465
              62.04289839              -18.01639676               94.04023456                1.00000000               19.07318998               92.35017335              -31.97130002              445.46636835              211.77310358              -63.34690498
              63.20460240              -23.00342909               92.53395570                1.00000000               16.29434358               82.31134650              -22.10911472              379.74274084              181.66258222              -89.27203223
              64.36878526              -29.91715196               90.16970141                1.00000000               16.41828578               -8.58727911              -21.13926153              305.31422246              130.26383558             -247.11481607
              55.70260170               23.17792183              102.39712082                1.00000000                0.67745974                4.81484044               -0.69672966               11.04259437                1.51340457               19.22134584
              56.70937630               17.17927417              100.98331942                1.00000000              105.64547937               -6.51196551                1.05068999               86.42453766               12.86505420              -19.00778063
              59.81551129               12.68788374               99.78824566                1.00000000              171.90483415               -8.26212165              -52.69681098              150.51222147              160.02094928               -7.65136804
              62.14747298                7.85930184               98.87717371                1.00000000              110.01874131                9.86180843              -38.26603403              161.65013285              209.14013721               -4.58399092
              64.01588611                2.94934113               97.85642775                1.00000000               77.22477415               19.52190983              -34.39876610              192.06586196              217.78047605               -7.00884336
              65.69196846               -1.91720969               96.76647277                1.00000000               62.98550965               26.61667696              -31.62523807              225.25300271              223.18799673              -10.51088417
              67.27559631               -6.74003717               95.56564040                1.00000000               56.69524508               32.64407958              -30.24775442              255.70059416              225.76440370              -15.54294027
              68.82587336              -11.54756158               94.19888677                1.00000000               56.38059667               36.58335180              -28.75156830              282.40288247              225.52428693              -23.20535339
              70.40320824              -16.41838558               92.54060650                1.00000000               64.70190891               34.18471442              -27.15501146              293.12344568              218.29531385              -36.22192607
              72.11991154              -21.70624532               90.33539964                1.00000000               58.32006185               12.58907897              -21.46949451              231.60590289              170.12515220              -63.04893129
              73.56960948              -28.62869821               86.60553858                1.00000000               44.96979341               29.42070021              -64.49937801              170.40379841              123.04015638             -169.88648519
              61.85926395               24.19134857              102.13401484                1.00000000                0.69223086               -0.64942105                0.55319968               10.43273777                0.25069418               18.52784069
              62.86618626               18.14724071              100.46732304                1.00000000              104.44515883               -1.13756642               -0.26357888               83.89817658               22.65918110              -17.98430413
              65.94816713               13.57304850               99.24146992                1.00000000              177.29540378              -12.18860353              -56.14755620              141.66564332              172.50440127               -8.90684801
              68.41209433                8.82321868               98.32851078                1.00000000              128.98810449               -9.27773804              -40.91710594              137.75453349              218.72982541               -5.61372620
              70.52792922                4.00926415               97.26361473                1.00000000              102.40486124               -3.16056343              -36.50077532              153.47179719              227.27498901               -5.77735794
              72.46019156               -0.79696847               96.07848919                1.00000000               89.01580458                1.28744101              -32.90476835              176.75969951              232.40822206               -8.12896090
              74.30824531               -5.57987841               94.71741922                1.00000000               84.46765548                3.73806370              -31.01596797              200.55453660              234.18676004              -12.02079070
              76.14954467              -10.38093376               93.10083510                1.00000000               87.79028703                2.92182086              -29.76431248              217.87597963              232.60332691              -18.12119772
              78.06405105              -15.33270247               91.07139355                1.00000000               94.87442080               -3.47520250              -29.06021616              214.24915578              222.97282999              -28.49601399
              80.04703308              -20.75164751               88.30996891                1.00000000               77.88579745               -8.98848284              -28.58171014              153.17181943              172.63542655              -49.41894023
              81.62176700              -27.32873795               83.90564227                1.00000000               57.47339132               26.98706261              -72.60761736              104.31252724              127.06786370             -107.00582800
              67.99947217               25.16493340              101.86299245                1.00000000                0.61677199               -3.69621406                1.38648453                9.20246512               -0.63030211               16.79067043
              69.00563989               19.15652284               99.96497339                1.00000000               98.66870046                2.15803428               -1.15901019               73.91822790               32.98238368              -16.10486891
              71.97284618               14.44411167               98.73297886                1.00000000              173.03540519              -13.60003349              -55.29317863              122.84528679              182.25184316               -7.70520347
              74.46634800                9.67374707               97.80885755                1.00000000              136.63315109              -18.57508213              -41.27306069              119.22686056              225.43830944               -5.23042803
              76.70550920                4.88612986               96.70877880                1.00000000              117.49785080              -18.41060047              -36.79923434              127.80605171              232.69994699               -4.84230849
              78.81630501                0.10853913               95.44162175                1.00000000              108.25715642              -17.16501429              -33.22728822              142.71051136              237.10868894               -6.24964710
              80.87065233               -4.66527590               93.94240805                1.00000000              105.99560047              -17.08848107              -31.38929233              157.47477722              238.30710743               -9.09374113
              82.93621702               -9.48912516               92.11923216                1.00000000              109.41263847              -19.02158136              -30.38637670              164.55903878              236.00527534              -13.76644210
              85.05890510              -14.48788963               89.79858906                1.00000000              112.15831952              -21.28390011              -30.59269628              152.34215118              225.44667819              -21.85341670
              87.17938341              -19.88601498               86.66285850                1.00000000               87.55679017              -15.50213847              -31.05945034              102.64503986              174.10437970              -36.00543632
              88.81004091              -26.08895695               81.83725681                1.00000000               63.06574927               20.36347602              -74.53736090               66.92987057              128.14064742              -72.40160601
              74.06013438               26.11742429              101.57796571                1.00000000                0.52381681               -5.12198014                1.75126339                7.75873823               -1.05233428               14.48809191
              75.06537255               20.19040139               99.47906199                1.00000000               91.38571253                3.96400504               -1.60239114               59.54426539               43.56132510              -13.81319942
              77.88784863               15.30104783               98.26737528                1.00000000              164.46204043              -15.44514122              -52.53007637               98.07133846              191.74788183               -6.36995382
              80.35461335               10.45171704               97.34045654                1.00000000              138.07047842              -24.98010985              -40.10740432               97.83384697              230.91394431               -4.37156600
              82.64925820                5.64105214               96.21756550                1.00000000              125.55970958              -28.57224860              -36.22786529              104.34253701              237.01849876               -3.89341381
              84.86580755                0.85973124               94.88943407                1.00000000              120.30734720              -29.75780624              -33.14094652              113.40145492              240.55731427               -4.80184318
              87.05540514               -3.92164803               93.28422006                1.00000000              119.87658178              -30.74671480              -31.69214704              120.71924706              241.17022046               -6.87679152
              89.26333918               -8.76136539               91.30399378                1.00000000              122.61893744              -31.71209836              -31.09153111              120.92329030              238.29748504              -10.44849519
              91.50778389              -13.75838047               88.77302250                1.00000000              121.88310097              -29.97678475              -31.63905323              107.15161704              227.09929008              -16.38872725
              93.70100120              -19.06169028               85.38159365                1.00000000               92.92322341              -19.05080391              -32.05679204               69.70156336              175.28292891              -26.20219904
              95.36624836              -24.92146843               80.28487176                1.00000000               66.52471567               13.41391122              -73.88923026               44.74528903              129.01574949              -50.03018707
              80.00869272               27.06249380              101.27559820                1.00000000                0.42089318               -5.27212611                1.75333712                6.23351510               -1.11870361               11.85702015
              81.01290166               21.23580294               99.00997759                1.00000000               83.21322933                4.50632994               -1.67671371               42.44107336               54.64936705              -11.30246284
              83.67295731               16.13520885               97.85576322                1.00000000              153.50594845              -18.38661531              -48.25313879               68.57420806              201.35249903               -4.70657944
              86.08302062               11.17414488               96.94594703                1.00000000              135.56942129              -30.10590346              -37.67855143               73.63252047              236.00801607               -2.91417778
              88.38434574                6.31468489               95.81903601                1.00000000              128.20068300              -35.02786407              -34.75377626               80.32978006              240.83364482               -2.51993449
              90.64703428                1.51338300               94.45366592                1.00000000              126.08940875              -37.02234028              -32.53287307               85.58506855              243.47715950               -3.18423995
              92.90613391               -3.28021019               92.77629146                1.00000000              127.21904956              -38.26311714              -31.68520621               87.75112545              243.46866317               -4.71140444
              95.19141528               -8.12336713               90.68733527                1.00000000              129.80642111              -38.34831448              -31.48765303               84.58178345              240.03950761               -7.31956367
              97.50226233              -13.08742533               88.01220767                1.00000000              127.25436821              -34.47254341              -32.17386903               72.69117906              228.29053971              -11.53840470
              99.73650264              -18.26703106               84.44900574                1.00000000               96.11203294              -21.74945763              -32.23261425               46.47290652              176.09333124              -18.26364228
             101.42450299              -23.82067873               79.17199276                1.00000000               68.80003519                7.47295353              -72.75158336               29.72348036              129.54234100              -34.09952533
              85.83818640               28.01198176              100.95351528                1.00000000                0.32925659               -4.29291483                1.37742017                4.63715152               -0.80765340                9.17335350
              86.84147896               22.28052799               98.55767033                1.00000000               74.14022277                3.83698037               -1.35179358               23.76102262               66.84685069               -8.81198613
              89.32099085               16.93331553               97.51175126                1.00000000              140.31543782              -22.94301041              -42.53349904               36.08182085              211.88119015               -2.27887405
              91.64778772               11.84959897               96.64745837                1.00000000              129.78124091              -34.22909445              -34.06163260               48.80643115              241.03869693               -0.86844518
              93.91661567                6.94049486               95.53576305                1.00000000              126.23081401              -37.78980133              -32.61011883               55.94843951              244.44379482               -0.79823219
              96.17240400                2.11928444               94.15579585                1.00000000              126.52810542              -39.59929675              -31.53601784               58.13919657              246.09802573               -1.44415570
              98.44717778               -2.68691037               92.43793751                1.00000000              129.48929932              -40.95397121              -31.46951735               56.77884708              245.44963627               -2.60364400
             100.76218999               -7.52833168               90.28397440                1.00000000              132.90468094              -41.12512811              -31.67832102               52.42653000              241.52802768               -4.40903379
             103.10527140              -12.44783134               87.52033781                1.00000000              130.07613721              -37.05615937              -32.43186208               44.26499144              229.27117840               -7.18945616
             105.36371273              -17.49667943               83.84874944                1.00000000               98.13709547              -24.01012227              -32.19575454               28.49468442              176.65344139              -11.50552069
             107.06801331              -22.77200936               78.45531036                1.00000000               70.43005771                3.16143962              -71.84165798               18.45728113              129.90711996              -21.53274391
              91.56434330               28.97663551              100.61200681                1.00000000                0.24450483               -2.38844302                0.46393517                2.75751710               -0.38224076                6.03660943
              92.56678835               23.31254255               98.12061887                1.00000000               63.05897278                2.09034204               -0.43158345                4.09065459               81.42015257               -5.87495752
              94.82552275               17.67634864               97.26247062                1.00000000              124.25907823              -29.80731698              -34.63931762                6.89274631              223.70317173                1.54574743
              97.05196991               12.48956299               96.46641089                1.00000000              120.40531502              -34.37206956              -29.77277778               24.36588739              246.33383823                1.52399410
              99.23362905                7.55888887               95.38240604                1.00000000              119.26267698              -36.77682552              -29.99608646               30.16763792              247.71735035                0.84003795
             101.43722345                2.72139707               94.00343118                1.00000000              122.78489598              -38.63165542              -30.49905692               29.68157494              248.42591544               -0.03512461
             103.68932697               -2.09928962               92.27426354                1.00000000              128.18216990              -40.47792890              -31.29092850               26.96105538              247.35025744               -0.86154710
             106.00086685               -6.94586969               90.09733350                1.00000000              133.32914709              -41.44543572              -31.85030272               23.39717056              242.84725845               -1.90431443
             108.35590991              -11.82854852               87.29586494                1.00000000              131.48537506              -39.15042681              -32.57044147               19.72923040              230.35531944               -3.15424844
             110.63057435              -16.74723350               83.57145609                1.00000000               99.41992792              -25.69393112              -32.18958660               13.31072593              177.42027165               -5.40195526
             112.34430847              -21.75744994               78.11161935                1.00000000               71.37341241                0.80495232              -71.31523698                8.94503318              130.21444261              -10.63807176
              97.22152265               29.96421290              100.24027516                1.00000000                0.20562681               -1.24226023               -0.13769767                1.53012847                1.97164756                4.16002243
              98.22357892               24.32233483               97.71074464                1.00000000               53.01513447                0.97922830                0.30990794              -15.67312837              100.56007269               -4.09808825
             100.28182534               18.33716919               97.14965857                1.00000000              101.44931623              -33.91794559              -26.23449933              -12.37860400              244.16570191               -4.31511183
             102.25256524               13.16215757               96.42012057                1.00000000              100.31545051              -32.74054137              -24.31605459               13.44899182              251.79521702               -1.38138745
             104.28813435                8.20495835               95.35024719                1.00000000              108.58243688              -35.39305134              -27.67081346               14.67521766              250.68930880               -3.53207578
             106.42421398                3.34665133               93.98322892                1.00000000              118.27656479              -37.47457374              -29.88996042               13.62768822              251.79472522               -5.10659115
             108.65366565               -1.49646895               92.27197725                1.00000000              126.75891586              -39.71793326              -31.48226616               11.23928119              251.85232766               -7.20786117
             110.95939230               -6.35724040               90.12245940                1.00000000              132.37770864              -41.13707046              -31.85207005                9.13399871              248.25107151              -10.00614622
             113.30121982              -11.23083988               87.34872277                1.00000000              129.97181861              -40.22913621              -31.63785423               11.86510756              234.12522859              -14.76527344
             115.55882867              -16.01055806               83.61898380                1.00000000               98.30635107              -26.33245528              -31.63719724               16.57191041              178.69405415              -15.94705734
             117.26734684              -20.75591032               78.13832468                1.00000000               70.85181698                0.15396210              -71.06400767               17.76861083              130.89462585              -18.87005853
         1          2         13         12        122        123        134        133  
         2          3         14         13        123        124        135        134  
         3          4         15         14        124        125        136        135  
         4          5         16         15        125        126        137        136  
         5          6         17         16        126        127        138        137  
         6          7         18         17        127        128        139        138  
         7          8         19         18        128        129        140        139  
         8          9         20         19        129        130        141        140  
         9         10         21         20        130        131        142        141  
        10         11         22         21        131        132        143        142  
        12         13         24         23        133        134        145        144  
        13         14         25         24        134        135        146        145  
        14         15         26         25        135        136        147        146  
        15         16         27         26        136        137        148        147  
        16         17         28         27        137        138        149        148  
        17         18         29         28        138        139        150        149  
        18         19         30         29        139        140        151        150  
        19         20         31         30        140        141        152        151  
        20         21         32         31        141        142        153        152  
        21         22         33         32        142        143        154        153  
        23         24         35         34        144        145        156        155  
        24         25         36         35        145        146        157        156  
        25         26         37         36        146        147        158        157  
        26         27         38         37        147        148        159        158  
        27         28         39         38        148        149        160        159  
        28         29         40         39        149        150        161        160  
        29         30         41         40        150        151        162        161  
        30         31         42         41        151        152        163        162  
        31         32         43         42        152        153        164        163  
        32         33         44         43        153        154        165        164  
        34         35         46         45        155        156        167        166  
        35         36         47         46        156        157        168        167  
        36         37         48         47        157        158        169        168  
        37         38         49         48        158        159        170        169  
        38         39         50         49        159        160        171        170  
        39         40         51         50        160        161        172        171  
        40         41         52         51        161        162        173        172  
        41         42         53         52        162        163        174        173  
        42         43         54         53        163        164        175        174  
        43         44         55         54        164        165        176        175  
        45         46         57         56        166        167        178        177  
        46         47         58         57        167        168        179        178  
        47         48         59         58        168        169        180        179  
        48         49         60         59        169        170        181        180  
        49         50         61         60        170        171        182        181  
        50         51         62         61        171        172        183        182  
        51         52         63         62        172        173        184        183  
        52         53         64         63        173        174        185        184  
        53         54         65         64        174        175        186        185  
        54         55         66         65        175        176        187        186  
        56         57         68         67        177        178        189        188  
        57         58         69         68        178        179        190        189  
        58         59         70         69        179        180        191        190  
        59         60         71         70        180        181        192        191  
        60         61         72         71        181        182        193        192  
        61         62         73         72        182        183        194        193  
        62         63         74         73        183        184        195        194  
        63         64         75         74        184        185        196        195  
        64         65         76         75        185        186        197        196  
        65         66         77         76        186        187        198        197  
        67         68         79         78        188        189        200        199  
        68         69         80         79        189        190        201        200  
        69         70         81         80        190        191        202        201  
        70         71         82         81        191        192        203        202  
        71         72         83         82        192        193        204        203  
        72         73         84         83        193        194        205        204  
        73         74         85         84        194        195        206        205  
        74         75         86         85        195        196        207        206  
        75         76         87         86        196        197        208        207  
        76         77         88         87        197        198        209        208  
        78         79         90         89        199        200        211        210  
        79         80         91         90        200        201        212        211  
        80         81         92         91        201        202        213        212  
        81         82         93         92        202        203        214        213  
        82         83         94         93        203        204        215        214  
        83         84         95         94        204        205        216        215  
        84         85         96         95        205        206        217        216  
        85         86         97         96        206        207        218        217  
        86         87         98         97        207        208        219        218  
        87         88         99         98        208        209        220        219  
        89         90        101        100        210        211        222        221  
        90         91        102        101        211        212        223        222  
        91         92        103        102        212        213        224        223  
        92         93        104        103        213        214        225        224  
        93         94        105        104        214        215        226        225  
        94         95        106        105        215        216        227        226  
        95         96        107        106        216        217        228        227  
        96         97        108        107        217        218        229        228  
        97         98        109        108        218        219        230        229  
        98         99        110        109        219        220        231        230  
       100        101        112        111        221        222        233        232  
       101        102        113        112        222        223        234        233  
       102        103        114        113        223        224        235        234  
       103        104        115        114        224        225        236        235  
       104        105        116        115        225        226        237        236  
       105        106        117        116        226        227        238        237  
       106        107        118        117        227        228        239        238  
       107        108        119        118        228        229        240        239  
       108        109        120        119        229        230        241        240  
       109        110        121        120        230        231        242        241  
       122        123        134        133        243        244        255        254  
       123        124        135        134        244        245        256        255  
       124        125        136        135        245        246        257        256  
       125        126        137        136        246        247        258        257  
       126        127        138        137        247        248        259        258  
       127        128        139        138        248        249        260        259  
       128        129        140        139        249        250        261        260  
       129        130        141        140        250        251        262        261  
       130        131        142        141        251        252        263        262  
       131        132        143        142        252        253        264        263  
       133        134        145        144        254        255        266        265  
       134        135        146        145        255        256        267        266  
       135        136        147        146        256        257        268        267  
       136        137        148        147        257        258        269        268  
       137        138        149        148        258        259        270        269  
       138        139        150        149        259        260        271        270  
       139        140        151        150        260        261        272        271  
       140        141        152        151        261        262        273        272  
       141        142        153        152        262        263        274        273  
       142        143        154        153        263        264        275        274  
       144        145        156        155        265        266        277        276  
       145        146        157        156        266        267        278        277  
       146        147        158        157        267        268        279        278  
       147        148        159        158        268        269        280        279  
       148        149        160        159        269        270        281        280  
       149        150        161        160        270        271        282        281  
       150        151        162        161        271        272        283        282  
       151        152        163        162        272        273        284        283  
       152        153        164        163        273        274        285        284  
       153        154        165        164        274        275        286        285  
       155        156        167        166        276        277        288        287  
       156        157        168        167        277        278        289        288  
       157        158        169        168        278        279        290        289  
       158        159        170        169        279        280        291        290  
       159        160        171        170        280        281        292        291  
       160        161        172        171        281        282        293        292  
       161        162        173        172        282        283        294        293  
       162        163        174        173        283        284        295        294  
       163        164        175        174        284        285        296        295  
       164        165        176        175        285        286        297        296  
       166        167        178        177        287        288        299        298  
       167        168        179        178        288        289        300        299  
       168        169        180        179        289        290        301        300  
       169        170        181        180        290        291        302        301  
       170        171        182        181        291        292        303        302  
       171        172        183        182        292        293        304        303  
       172        173        184        183        293        294        305        304  
       173        174        185        184        294        295        306        305  
       174        175        186        185        295        296        307        306  
       175        176        187        186        296        297        308        307  
       177        178        189        188        298        299        310        309  
       178        179        190        189        299        300        311        310  
       179        180        191        190        300        301        312        311  
       180        181        192        191        301        302        313        312  
       181        182        193        192        302        303        314        313  
       182        183        194        193        303        304        315        314  
       183        184        195        194        304        305        316        315  
       184        185        196        195        305        306        317        316  
       185        186        197        196        306        307        318        317  
       186        187        198        197        307        308        319        318  
       188        189        200        199        309        310        321        320  
       189        190        201        200        310        311        322        321  
       190        191        202        201        311        312        323        322  
       191        192        203        202        312        313        324        323  
       192        193        204        203        313        314        325        324  
       193        194        205        204        314        315        326        325  
       194        195        206        205        315        316        327        326  
       195        196        207        206        316        317        328        327  
       196        197        208        207        317        318        329        328  
       197        198        209        208        318        319        330        329  
       199        200        211        210        320        321        332        331  
       200        201        212        211        321        322        333        332  
       201        202        213        212        322        323        334        333  
       202        203        214        213        323        324        335        334  
       203        204        215        214        324        325        336        335  
       204        205        216        215        325        326        337        336  
       205        206        217        216        326        327        338        337  
       206        207        218        217        327        328        339        338  
       207        208        219        218        328        329        340        339  
       208        209        220        219        329        330        341        340  
       210        211        222        221        331        332        343        342  
       211        212        223        222        332        333        344        343  
       212        213        224        223        333        334        345        344  
       213        214        225        224        334        335        346        345  
       214        215        226        225        335        336        347        346  
       215        216        227        226        336        337        348        347  
       216        217        228        227        337        338        349        348  
       217        218        229        228        338        339        350        349  
       218        219        230        229        339        340        351        350  
       219        220        231        230        340        341        352        351  
       221        222        233        232        342        343        354        353  
       222        223        234        233        343        344        355        354  
       223        224        235        234        344        345        356        355  
       224        225        236        235        345        346        357        356  
       225        226        237        236        346        347        358        357  
       226        227        238        237        347        348        359        358  
       227        228        239        238        348        349        360        359  
       228        229        240        239        349        350        361        360  
       229        230        241        240        350        351        362        361  
       230        231        242        241        351        352        363        362  
       243        244        255        254        364        365        376        375  
       244        245        256        255        365        366        377        376  
       245        246        257        256        366        367        378        377  
       246        247        258        257        367        368        379        378  
       247        248        259        258        368        369        380        379  
       248        249        260        259        369        370        381        380  
       249        250        261        260        370        371        382        381  
       250        251        262        261        371        372        383        382  
       251        252        263        262        372        373        384        383  
       252        253        264        263        373        374        385        384  
       254        255        266        265        375        376        387        386  
       255        256        267        266        376        377        388        387  
       256        257        268        267        377        378        389        388  
       257        258        269        268        378        379        390        389  
       258        259        270        269        379        380        391        390  
       259        260        271        270        380        381        392        391  
       260        261        272        271        381        382        393        392  
       261        262        273        272        382        383        394        393  
       262        263        274        273        383        384        395        394  
       263        264        275        274        384        385        396        395  
       265        266        277        276        386        387        398        397  
       266        267        278        277        387        388        399        398  
       267        268        279        278        388        389        400        399  
       268        269        280        279        389        390        401        400  
       269        270        281        280        390        391        402        401  
       270        271        282        281        391        392        403        402  
       271        272        283        282        392        393        404        403  
       272        273        284        283        393        394        405        404  
       273        274        285        284        394        395        406        405  
       274        275        286        285        395        396        407        406  
       276        277        288        287        397        398        409        408  
       277        278        289        288        398        399        410        409  
       278        279        290        289        399        400        411        410  
       279        280        291        290        400        401        412        411  
       280        281        292        291        401        402        413        412  
       281        282        293        292        402        403        414        413  
       282        283        294        293        403        404        415        414  
       283        284        295        294        404        405        416        415  
       284        285        296        295        405        406        417        416  
       285        286        297        296        406        407        418        417  
       287        288        299        298        408        409        420        419  
       288        289        300        299        409        410        421        420  
       289        290        301        300        410        411        422        421  
       290        291        302        301        411        412        423        422  
       291        292        303        302        412        413        424        423  
       292        293        304        303        413        414        425        424  
       293        294        305        304        414        415        426        425  
       294        295        306        305        415        416        427        426  
       295        296        307        306        416        417        428        427  
       296        297        308        307        417        418        429        428  
       298        299        310        309        419        420        431        430  
       299        300        311        310        420        421        432        431  
       300        301        312        311        421        422        433        432  
       301        302        313        312        422        423        434        433  
       302        303        314        313        423        424        435        434  
       303        304        315        314        424        425        436        435  
       304        305        316        315        425        426        437        436  
       305        306        317        316        426        427        438        437  
       306        307        318        317        427        428        439        438  
       307        308        319        318        428        429        440        439  
       309        310        321        320        430        431        442        441  
       310        311        322        321        431        432        443        442  
       311        312        323        322        432        433        444        443  
       312        313        324        323        433        434        445        444  
       313        314        325        324        434        435        446        445  
       314        315        326        325        435        436        447        446  
       315        316        327        326        436        437        448        447  
       316        317        328        327        437        438        449        448  
       317        318        329        328        438        439        450        449  
       318        319        330        329        439        440        451        450  
       320        321        332        331        441        442        453        452  
       321        322        333        332        442        443        454        453  
       322        323        334        333        443        444        455        454  
       323        324        335        334        444        445        456        455  
       324        325        336        335        445        446        457        456  
       325        326        337        336        446        447        458        457  
       326        327        338        337        447        448        459        458  
       327        328        339        338        448        449        460        459  
       328        329        340        339        449        450        461        460  
       329        330        341        340        450        451        462        461  
       331        332        343        342        452        453        464        463  
       332        333        344        343        453        454        465        464  
       333        334        345        344        454        455        466        465  
       334        335        346        345        455        456        467        466  
       335        336        347        346        456        457        468        467  
       336        337        348        347        457        458        469        468  
       337        338        349        348        458        459        470        469  
       338        339        350        349        459        460        471        470  
       339        340        351        350        460        461        472        471  
       340        341        352        351        461        462        473        472  
       342        343        354        353        463        464        475        474  
       343        344        355        354        464        465        476        475  
       344        345        356        355        465        466        477        476  
       345        346        357        356        466        467        478        477  
       346        347        358        357        467        468        479        478  
       347        348        359        358        468        469        480        479  
       348        349        360        359        469        470        481        480  
       349        350        361        360        470        471        482        481  
       350        351        362        361        471        472        483        482  
       351        352        363        362        472        473        484        483  
       364        365        376        375        485        486        497        496  
       365        366        377        376        486        487        498        497  
       366        367        378        377        487        488        499        498  
       367        368        379        378        488        489        500        499  
       368        369        380        379        489        490        501        500  
       369        370        381        380        490        491        502        501  
       370        371        382        381        491        492        503        502  
       371        372        383        382        492        493        504        503  
       372        373        384        383        493        494        505        504  
       373        374        385        384        494        495        506        505  
       375        376        387        386        496        497        508        507  
       376        377        388        387        497        498        509        508  
       377        378        389        388        498        499        510        509  
       378        379        390        389        499        500        511        510  
       379        380        391        390        500        501        512        511  
       380        381        392        391        501        502        513        512  
       381        382        393        392        502        503        514        513  
       382        383        394        393        503        504        515        514  
       383        384        395        394        504        505        516        515  
       384        385        396        395        505        506        517        516  
       386        387        398        397        507        508        519        518  
       387        388        399        398        508        509        520        519  
       388        389        400        399        509        510        521        520  
       389        390        401        400        510        511        522        521  
       390        391        402        401        511        512        523        522  
       391        392        403        402        512        513        524        523  
       392        393        404        403        513        514        525        524  
       393        394        405        404        514        515        526        525  
       394        395        406        405        515        516        527        526  
       395        396        407        406        516        517        528        527  
       397        398        409        408        518        519        530        529  
       398        399        410        409        519        520        531        530  
       399        400        411        410        520        521        532        531  
       400        401        412        411        521        522        533        532  
       401        402        413        412        522        523        534        533  
       402        403        414        413        523        524        535        534  
       403        404        415        414        524        525        536        535  
       404        405        416        415        525        526        537        536  
       405        406        417        416        526        527        538        537  
       406        407        418        417        527        528        539        538  
       408        409        420        419        529        530        541        540  
       409        410        421        420        530        531        542        541  
       410        411        422        421        531        532        543        542  
       411        412        423        422        532        533        544        543  
       412        413        424        423        533        534        545        544  
       413        414        425        424        534        535        546        545  
       414        415        426        425        535        536        547        546  
       415        416        427        426        536        537        548        547  
       416        417        428        427        537        538        549        548  
       417        418        429        428        538        539        550        549  
       419        420        431        430        540        541        552        551  
       420        421        432        431        541        542        553        552  
       421        422        433        432        542        543        554        553  
       422        423        434        433        543        544        555        554  
       423        424        435        434        544        545        556        555  
       424        425        436        435        545        546        557        556  
       425        426        437        436        546        547        558        557  
       426        427        438        437        547        548        559        558  
       427        428        439        438        548        549        560        559  
       428        429        440        439        549        550        561        560  
       430        431        442        441        551        552        563        562  
       431        432        443        442        552        553        564        563  
       432        433        444        443        553        554        565        564  
       433        434        445        444        554        555        566        565  
       434        435        446        445        555        556        567        566  
       435        436        447        446        556        557        568        567  
       436        437        448        447        557        558        569        568  
       437        438        449        448        558        559        570        569  
       438        439        450        449        559        560        571        570  
       439        440        451        450        560        561        572        571  
       441        442        453        452        562        563        574        573  
       442        443        454        453        563        564        575        574  
       443        444        455        454        564        565        576        575  
       444        445        456        455        565        566        577        576  
       445        446        457        456        566        567        578        577  
       446        447        458        457        567        568        579        578  
       447        448        459        458        568        569        580        579  
       448        449        460        459        569        570        581        580  
       449        450        461        460        570        571        582        581  
       450        451        462        461        571        572        583        582  
       452        453        464        463        573        574        585        584  
       453        454        465        464        574        575        586        585  
       454        455        466        465        575        576        587        586  
       455        456        467        466        576        577        588        587  
       456        457        468        467        577        578        589        588  
       457        458        469        468        578        579        590        589  
       458        459        470        469        579        580        591        590  
       459        460        471        470        580        581        592        591  
       460        461        472        471        581        582        593        592  
       461        462        473        472        582        583        594        593  
       463        464        475        474        584        585        596        595  
       464        465        476        475        585        586        597        596  
       465        466        477        476        586        587        598        597  
       466        467        478        477        587        588        599        598  
       467        468        479        478        588        589        600        599  
       468        469        480        479        589        590        601        600  
       469        470        481        480        590        591        602        601  
       470        471        482        481        591        592        603        602  
       471        472        483        482        592        593        604        603  
       472        473        484        483        593        594        605        604  
       485        486        497        496        606        607        618        617  
       486        487        498        497        607        608        619        618  
       487        488        499        498        608        609        620        619  
       488        489        500        499        609        610        621        620  
       489        490        501        500        610        611        622        621  
       490        491        502        501        611        612        623        622  
       491        492        503        502        612        613        624        623  
       492        493        504        503        613        614        625        624  
       493        494        505        504        614        615        626        625  
       494        495        506        505        615        616        627        626  
       496        497        508        507        617        618        629        628  
       497        498        509        508        618        619        630        629  
       498        499        510        509        619        620        631        630  
       499        500        511        510        620        621        632        631  
       500        501        512        511        621        622        633        632  
       501        502        513        512        622        623        634        633  
       502        503        514        513        623        624        635        634  
       503        504        515        514        624        625        636        635  
       504        505        516        515        625        626        637        636  
       505        506        517        516        626        627        638        637  
       507        508        519        518        628        629        640        639  
       508        509        520        519        629        630        641        640  
       509        510        521        520        630        631        642        641  
       510        511        522        521        631        632        643        642  
       511        512        523        522        632        633        644        643  
       512        513        524        523        633        634        645        644  
       513        514        525        524        634        635        646        645  
       514        515        526        525        635        636        647        646  
       515        516        527        526        636        637        648        647  
       516        517        528        527        637        638        649        648  
       518        519        530        529        639        640        651        650  
       519        520        531        530        640        641        652        651  
       520        521        532        531        641        642        653        652  
       521        522        533        532        642        643        654        653  
       522        523        534        533        643        644        655        654  
       523        524        535        534        644        645        656        655  
       524        525        536        535        645        646        657        656  
       525        526        537        536        646        647        658        657  
       526        527        538        537        647        648        659        658  
       527        528        539        538        648        649        660        659  
       529        530        541        540        650        651        662        661  
       530        531        542        541        651        652        663        662  
       531        532        543        542        652        653        664        663  
       532        533        544        543        653        654        665        664  
       533        534        545        544        654        655        666        665  
       534        535        546        545        655        656        667        666  
       535        536        547        546        656        657        668        667  
       536        537        548        547        657        658        669        668  
       537        538        549        548        658        659        670        669  
       538        539        550        549        659        660        671        670  
       540        541        552        551        661        662        673        672  
       541        542        553        552        662        663        674        673  
       542        543        554        553        663        664        675        674  
       543        544        555        554        664        665        676        675  
       544        545        556        555        665        666        677        676  
       545        546        557        556        666        667        678        677  
       546        547        558        557        667        668        679        678  
       547        548        559        558        668        669        680        679  
       548        549        560        559        669        670        681        680  
       549        550        561        560        670        671        682        681  
       551        552        563        562        672        673        684        683  
       552        553        564        563        673        674        685        684  
       553        554        565        564        674        675        686        685  
       554        555        566        565        675        676        687        686  
       555        556        567        566        676        677        688        687  
       556        557        568        567        677        678        689        688  
       557        558        569        568        678        679        690        689  
       558        559        570        569        679        680        691        690  
       559        560        571        570        680        681        692        691  
       560        561        572        571        681        682        693        692  
       562        563        574        573        683        684        695        694  
       563        564        575        574        684        685        696        695  
       564        565        576        575        685        686        697        696  
       565        566        577        576        686        687        698        697  
       566        567        578        577        687        688        699        698  
       567        568        579        578        688        689        700        699  
       568        569        580        579        689        690        701        700  
       569        570        581        580        690        691        702        701  
       570        571        582        581        691        692        703        702  
       571        572        583        582        692        693        704        703  
       573        574        585        584        694        695        706        705  
       574        575        586        585        695        696        707        706  
       575        576        587        586        696        697        708        707  
       576        577        588        587        697        698        709        708  
       577        578        589        588        698        699        710        709  
       578        579        590        589        699        700        711        710  
       579        580        591        590        700        701        712        711  
       580        581        592        591        701        702        713        712  
       581        582        593        592        702        703        714        713  
       582        583        594        593        703        704        715        714  
       584        585        596        595        705        706        717        716  
       585        586        597        596        706        707        718        717  
       586        587        598        597        707        708        719        718  
       587        588        599        598        708        709        720        719  
       588        589        600        599        709        710        721        720  
       589        590        601        600        710        711        722        721  
       590        591        602        601        711        712        723        722  
       591        592        603        602        712        713        724        723  
       592        593        604        603        713        714        725        724  
       593        594        605        604        714        715        726        725  
       606        607        618        617        727        728        739        738  
       607        608        619        618        728        729        740        739  
       608        609        620        619        729        730        741        740  
       609        610        621        620        730        731        742        741  
       610        611        622        621        731        732        743        742  
       611        612        623        622        732        733        744        743  
       612        613        624        623        733        734        745        744  
       613        614        625        624        734        735        746        745  
       614        615        626        625        735        736        747        746  
       615        616        627        626        736        737        748        747  
       617        618        629        628        738        739        750        749  
       618        619        630        629        739        740        751        750  
       619        620        631        630        740        741        752        751  
       620        621        632        631        741        742        753        752  
       621        622        633        632        742        743        754        753  
       622        623        634        633        743        744        755        754  
       623        624        635        634        744        745        756        755  
       624        625        636        635        745        746        757        756  
       625        626        637        636        746        747        758        757  
       626        627        638        637        747        748        759        758  
       628        629        640        639        749        750        761        760  
       629        630        641        640        750        751        762        761  
       630        631        642        641        751        752        763        762  
       631        632        643        642        752        753        764        763  
       632        633        644        643        753        754        765        764  
       633        634        645        644        754        755        766        765  
       634        635        646        645        755        756        767        766  
       635        636        647        646        756        757        768        767  
       636        637        648        647        757        758        769        768  
       637        638        649        648        758        759        770        769  
       639        640        651        650        760        761        772        771  
       640        641        652        651        761        762        773        772  
       641        642        653        652        762        763        774        773  
       642        643        654        653        763        764        775        774  
       643        644        655        654        764        765        776        775  
       644        645        656        655        765        766        777        776  
       645        646        657        656        766        767        778        777  
       646        647        658        657        767        768        779        778  
       647        648        659        658        768        769        780        779  
       648        649        660        659        769        770        781        780  
       650        651        662        661        771        772        783        782  
       651        652        663        662        772        773        784        783  
       652        653        664        663        773        774        785        784  
       653        654        665        664        774        775        786        785  
       654        655        666        665        775        776        787        786  
       655        656        667        666        776        777        788        787  
       656        657        668        667        777        778        789        788  
       657        658        669        668        778        779        790        789  
       658        659        670        669        779        780        791        790  
       659        660        671        670        780        781        792        791  
       661        662        673        672        782        783        794        793  
       662        663        674        673        783        784        795        794  
       663        664        675        674        784        785        796        795  
       664        665        676        675        785        786        797        796  
       665        666        677        676        786        787        798        797  
       666        667        678        677        787        788        799        798  
       667        668        679        678        788        789        800        799  
       668        669        680        679        789        790        801        800  
       669        670        681        680        790        791        802        801  
       670        671        682        681        791        792        803        802  
       672        673        684        683        793        794        805        804  
       673        674        685        684        794        795        806        805  
       674        675        686        685        795        796        807        806  
       675        676        687        686        796        797        808        807  
       676        677        688        687        797        798        809        808  
       677        678        689        688        798        799        810        809  
       678        679        690        689        799        800        811        810  
       679        680        691        690        800        801        812        811  
       680        681        692        691        801        802        813        812  
       681        682        693        692        802        803        814        813  
       683        684        695        694        804        805        816        815  
       684        685        696        695        805        806        817        816  
       685        686        697        696        806        807        818        817  
       686        687        698        697        807        808        819        818  
       687        688        699        698        808        809        820        819  
       688        689        700        699        809        810        821        820  
       689        690        701        700        810        811        822        821  
       690        691        702        701        811        812        823        822  
       691        692        703        702        812        813        824        823  
       692        693        704        703        813        814        825        824  
       694        695        706        705        815        816        827        826  
       695        696        707        706        816        817        828        827  
       696        697        708        707        817        818        829        828  
       697        698        709        708        818        819        830        829  
       698        699        710        709        819        820        831        830  
       699        700        711        710        820        821        832        831  
       700        701        712        711        821        822        833        832  
       701        702        713        712        822        823        834        833  
       702        703        714        713        823        824        835        834  
       703        704        715        714        824        825        836        835  
       705        706        717        716        826        827        838        837  
       706        707        718        717        827        828        839        838  
       707        708        719        718        828        829        840        839  
       708        709        720        719        829        830        841        840  
       709        710        721        720        830        831        842        841  
       710        711        722        721        831        832        843        842  
       711        712        723        722        832        833        844        843  
       712        713        724        723        833        834        845        844  
       713        714        725        724        834        835        846        845  
       714        715        726        725        835        836        847        846  
       727        728        739        738        848        849        860        859  
       728        729        740        739        849        850        861        860  
       729        730        741        740        850        851        862        861  
       730        731        742        741        851        852        863        862  
       731        732        743        742        852        853        864        863  
       732        733        744        743        853        854        865        864  
       733        734        745        744        854        855        866        865  
       734        735        746        745        855        856        867        866  
       735        736        747        746        856        857        868        867  
       736        737        748        747        857        858        869        868  
       738        739        750        749        859        860        871        870  
       739        740        751        750        860        861        872        871  
       740        741        752        751        861        862        873        872  
       741        742        753        752        862        863        874        873  
       742        743        754        753        863        864        875        874  
       743        744        755        754        864        865        876        875  
       744        745        756        755        865        866        877        876  
       745        746        757        756        866        867        878        877  
       746        747        758        757        867        868        879        878  
       747        748        759        758        868        869        880        879  
       749        750        761        760        870        871        882        881  
       750        751        762        761        871        872        883        882  
       751        752        763        762        872        873        884        883  
       752        753        764        763        873        874        885        884  
       753        754        765        764        874        875        886        885  
       754        755        766        765        875        876        887        886  
       755        756        767        766        876        877        888        887  
       756        757        768        767        877        878        889        888  
       757        758        769        768        878        879        890        889  
       758        759        770        769        879        880        891        890  
       760        761        772        771        881        882        893        892  
       761        762        773        772        882        883        894        893  
       762        763        774        773        883        884        895        894  
       763        764        775        774        884        885        896        895  
       764        765        776        775        885        886        897        896  
       765        766        777        776        886        887        898        897  
       766        767        778        777        887        888        899        898  
       767        768        779        778        888        889        900        899  
       768        769        780        779        889        890        901        900  
       769        770        781        780        890        891        902        901  
       771        772        783        782        892        893        904        903  
       772        773        784        783        893        894        905        904  
       773        774        785        784        894        895        906        905  
       774        775        786        785        895        896        907        906  
       775        776        787        786        896        897        908        907  
       776        777        788        787        897        898        909        908  
       777        778        789        788        898        899        910        909  
       778        779        790        789        899        900        911        910  
       779        780        791        790        900        901        912        911  
       780        781        792        791        901        902        913        912  
       782        783        794        793        903        904        915        914  
       783        784        795        794        904        905        916        915  
       784        785        796        795        905        906        917        916  
       785        786        797        796        906        907        918        917  
       786        787        798        797        907        908        919        918  
       787        788        799        798        908        909        920        919  
       788        789        800        799        909        910        921        920  
       789        790        801        800        910        911        922        921  
       790        791        802        801        911        912        923        922  
       791        792        803        802        912        913        924        923  
       793        794        805        804        914        915        926        925  
       794        795        806        805        915        916        927        926  
       795        796        807        806        916        917        928        927  
       796        797        808        807        917        918        929        928  
       797        798        809        808        918        919        930        929  
       798        799        810        809        919        920        931        930  
       799        800        811        810        920        921        932        931  
       800        801        812        811        921        922        933        932  
       801        802        813        812        922        923        934        933  
       802        803        814        813        923        924        935        934  
       804        805        816        815        925        926        937        936  
       805        806        817        816        926        927        938        937  
       806        807        818        817        927        928        939        938  
       807        808        819        818        928        929        940        939  
       808        809        820        819        929        930        941        940  
       809        810        821        820        930        931        942        941  
       810        811        822        821        931        932        943        942  
       811        812        823        822        932        933        944        943  
       812        813        824        823        933        934        945        944  
       813        814        825        824        934        935        946        945  
       815        816        827        826        936        937        948        947  
       816        817        828        827        937        938        949        948  
       817        818        829        828        938        939        950        949  
       818        819        830        829        939        940        951        950  
       819        820        831        830        940        941        952        951  
       820        821        832        831        941        942        953        952  
       821        822        833        832        942        943        954        953  
       822        823        834        833        943        944        955        954  
       823        824        835        834        944        945        956        955  
       824        825        836        835        945        946        957        956  
       826        827        838        837        947        948        959        958  
       827        828        839        838        948        949        960        959  
       828        829        840        839        949        950        961        960  
       829        830        841        840        950        951        962        961  
       830        831        842        841        951        952        963        962  
       831        832        843        842        952        953        964        963  
       832        833        844        843        953        954        965        964  
       833        834        845        844        954        955        966        965  
       834        835        846        845        955        956        967        966  
       835        836        847        846        956        957        968        967  
       848        849        860        859        969        970        981        980  
       849        850        861        860        970        971        982        981  
       850        851        862        861        971        972        983        982  
       851        852        863        862        972        973        984        983  
       852        853        864        863        973        974        985        984  
       853        854        865        864        974        975        986        985  
       854        855        866        865        975        976        987        986  
       855        856        867        866        976        977        988        987  
       856        857        868        867        977        978        989        988  
       857        858        869        868        978        979        990        989  
       859        860        871        870        980        981        992        991  
       860        861        872        871        981        982        993        992  
       861        862        873        872        982        983        994        993  
       862        863        874        873        983        984        995        994  
       863        864        875        874        984        985        996        995  
       864        865        876        875        985        986        997        996  
       865        866        877        876        986        987        998        997  
       866        867        878        877        987        988        999        998  
       867        868        879        878        988        989       1000        999  
       868        869        880        879        989        990       1001       1000  
       870        871        882        881        991        992       1003       1002  
       871        872        883        882        992        993       1004       1003  
       872        873        884        883        993        994       1005       1004  
       873        874        885        884        994        995       1006       1005  
       874        875        886        885        995        996       1007       1006  
       875        876        887        886        996        997       1008       1007  
       876        877        888        887        997        998       1009       1008  
       877        878        889        888        998        999       1010       1009  
       878        879        890        889        999       1000       1011       1010  
       879        880        891        890       1000       1001       1012       1011  
       881        882        893        892       1002       1003       1014       1013  
       882        883        894        893       1003       1004       1015       1014  
       883        884        895        894       1004       1005       1016       1015  
       884        885        896        895       1005       1006       1017       1016  
       885        886        897        896       1006       1007       1018       1017  
       886        887        898        897       1007       1008       1019       1018  
       887        888        899        898       1008       1009       1020       1019  
       888        889        900        899       1009       1010       1021       1020  
       889        890        901        900       1010       1011       1022       1021  
       890        891        902        901       1011       1012       1023       1022  
       892        893        904        903       1013       1014       1025       1024  
       893        894        905        904       1014       1015       1026       1025  
       894        895        906        905       1015       1016       1027       1026  
       895        896        907        906       1016       1017       1028       1027  
       896        897        908        907       1017       1018       1029       1028  
       897        898        909        908       1018       1019       1030       1029  
       898        899        910        909       1019       1020       1031       1030  
       899        900        911        910       1020       1021       1032       1031  
       900        901        912        911       1021       1022       1033       1032  
       901        902        913        912       1022       1023       1034       1033  
       903        904        915        914       1024       1025       1036       1035  
       904        905        916        915       1025       1026       1037       1036  
       905        906        917        916       1026       1027       1038       1037  
       906        907        918        917       1027       1028       1039       1038  
       907        908        919        918       1028       1029       1040       1039  
       908        909        920        919       1029       1030       1041       1040  
       909        910        921        920       1030       1031       1042       1041  
       910        911        922        921       1031       1032       1043       1042  
       911        912        923        922       1032       1033       1044       1043  
       912        913        924        923       1033       1034       1045       1044  
       914        915        926        925       1035       1036       1047       1046  
       915        916        927        926       1036       1037       1048       1047  
       916        917        928        927       1037       1038       1049       1048  
       917        918        929        928       1038       1039       1050       1049  
       918        919        930        929       1039       1040       1051       1050  
       919        920        931        930       1040       1041       1052       1051  
       920        921        932        931       1041       1042       1053       1052  
       921        922        933        932       1042       1043       1054       1053  
       922        923        934        933       1043       1044       1055       1054  
       923        924        935        934       1044       1045       1056       1055  
       925        926        937        936       1046       1047       1058       1057  
       926        927        938        937       1047       1048       1059       1058  
       927        928        939        938       1048       1049       1060       1059  
       928        929        940        939       1049       1050       1061       1060  
       929        930        941        940       1050       1051       1062       1061  
       930        931        942        941       1051       1052       1063       1062  
       931        932        943        942       1052       1053       1064       1063  
       932        933        944        943       1053       1054       1065       1064  
       933        934        945        944       1054       1055       1066       1065  
       934        935        946        945       1055       1056       1067       1066  
       936        937        948        947       1057       1058       1069       1068  
       937        938        949        948       1058       1059       1070       1069  
       938        939        950        949       1059       1060       1071       1070  
       939        940        951        950       1060       1061       1072       1071  
       940        941        952        951       1061       1062       1073       1072  
       941        942        953        952       1062       1063       1074       1073  
       942        943        954        953       1063       1064       1075       1074  
       943        944        955        954       1064       1065       1076       1075  
       944        945        956        955       1065       1066       1077       1076  
       945        946        957        956       1066       1067       1078       1077  
       947        948        959        958       1068       1069       1080       1079  
       948        949        960        959       1069       1070       1081       1080  
       949        950        961        960       1070       1071       1082       1081  
       950        951        962        961       1071       1072       1083       1082  
       951        952        963        962       1072       1073       1084       1083  
       952        953        964        963       1073       1074       1085       1084  
       953        954        965        964       1074       1075       1086       1085  
       954        955        966        965       1075       1076       1087       1086  
       955        956        967        966       1076       1077       1088       1087  
       956        957        968        967       1077       1078       1089       1088  
       969        970        981        980       1090       1091       1102       1101  
       970        971        982        981       1091       1092       1103       1102  
       971        972        983        982       1092       1093       1104       1103  
       972        973        984        983       1093       1094       1105       1104  
       973        974        985        984       1094       1095       1106       1105  
       974        975        986        985       1095       1096       1107       1106  
       975        976        987        986       1096       1097       1108       1107  
       976        977        988        987       1097       1098       1109       1108  
       977        978        989        988       1098       1099       1110       1109  
       978        979        990        989       1099       1100       1111       1110  
       980        981        992        991       1101       1102       1113       1112  
       981        982        993        992       1102       1103       1114       1113  
       982        983        994        993       1103       1104       1115       1114  
       983        984        995        994       1104       1105       1116       1115  
       984        985        996        995       1105       1106       1117       1116  
       985        986        997        996       1106       1107       1118       1117  
       986        987        998        997       1107       1108       1119       1118  
       987        988        999        998       1108       1109       1120       1119  
       988        989       1000        999       1109       1110       1121       1120  
       989        990       1001       1000       1110       1111       1122       1121  
       991        992       1003       1002       1112       1113       1124       1123  
       992        993       1004       1003       1113       1114       1125       1124  
       993        994       1005       1004       1114       1115       1126       1125  
       994        995       1006       1005       1115       1116       1127       1126  
       995        996       1007       1006       1116       1117       1128       1127  
       996        997       1008       1007       1117       1118       1129       1128  
       997        998       1009       1008       1118       1119       1130       1129  
       998        999       1010       1009       1119       1120       1131       1130  
       999       1000       1011       1010       1120       1121       1132       1131  
      1000       1001       1012       1011       1121       1122       1133       1132  
      1002       1003       1014       1013       1123       1124       1135       1134  
      1003       1004       1015       1014       1124       1125       1136       1135  
      1004       1005       1016       1015       1125       1126       1137       1136  
      1005       1006       1017       1016       1126       1127       1138       1137  
      1006       1007       1018       1017       1127       1128       1139       1138  
      1007       1008       1019       1018       1128       1129       1140       1139  
      1008       1009       1020       1019       1129       1130       1141       1140  
      1009       1010       1021       1020       1130       1131       1142       1141  
      1010       1011       1022       1021       1131       1132       1143       1142  
      1011       1012       1023       1022       1132       1133       1144       1143  
      1013       1014       1025       1024       1134       1135       1146       1145  
      1014       1015       1026       1025       1135       1136       1147       1146  
      1015       1016       1027       1026       1136       1137       1148       1147  
      1016       1017       1028       1027       1137       1138       1149       1148  
      1017       1018       1029       1028       1138       1139       1150       1149  
      1018       1019       1030       1029       1139       1140       1151       1150  
      1019       1020       1031       1030       1140       1141       1152       1151  
      1020       1021       1032       1031       1141       1142       1153       1152  
      1021       1022       1033       1032       1142       1143       1154       1153  
      1022       1023       1034       1033       1143       1144       1155       1154  
      1024       1025       1036       1035       1145       1146       1157       1156  
      1025       1026       1037       1036       1146       1147       1158       1157  
      1026       1027       1038       1037       1147       1148       1159       1158  
      1027       1028       1039       1038       1148       1149       1160       1159  
      1028       1029       1040       1039       1149       1150       1161       1160  
      1029       1030       1041       1040       1150       1151       1162       1161  
      1030       1031       1042       1041       1151       1152       1163       1162  
      1031       1032       1043       1042       1152       1153       1164       1163  
      1032       1033       1044       1043       1153       1154       1165       1164  
      1033       1034       1045       1044       1154       1155       1166       1165  
      1035       1036       1047       1046       1156       1157       1168       1167  
      1036       1037       1048       1047       1157       1158       1169       1168  
      1037       1038       1049       1048       1158       1159       1170       1169  
      1038       1039       1050       1049       1159       1160       1171       1170  
      1039       1040       1051       1050       1160       1161       1172       1171  
      1040       1041       1052       1051       1161       1162       1173       1172  
      1041       1042       1053       1052       1162       1163       1174       1173  
      1042       1043       1054       1053       1163       1164       1175       1174  
      1043       1044       1055       1054       1164       1165       1176       1175  
      1044       1045       1056       1055       1165       1166       1177       1176  
      1046       1047       1058       1057       1167       1168       1179       1178  
      1047       1048       1059       1058       1168       1169       1180       1179  
      1048       1049       1060       1059       1169       1170       1181       1180  
      1049       1050       1061       1060       1170       1171       1182       1181  
      1050       1051       1062       1061       1171       1172       1183       1182  
      1051       1052       1063       1062       1172       1173       1184       1183  
      1052       1053       1064       1063       1173       1174       1185       1184  
      1053       1054       1065       1064       1174       1175       1186       1185  
      1054       1055       1066       1065       1175       1176       1187       1186  
      1055       1056       1067       1066       1176       1177       1188       1187  
      1057       1058       1069       1068       1178       1179       1190       1189  
      1058       1059       1070       1069       1179       1180       1191       1190  
      1059       1060       1071       1070       1180       1181       1192       1191  
      1060       1061       1072       1071       1181       1182       1193       1192  
      1061       1062       1073       1072       1182       1183       1194       1193  
      1062       1063       1074       1073       1183       1184       1195       1194  
      1063       1064       1075       1074       1184       1185       1196       1195  
      1064       1065       1076       1075       1185       1186       1197       1196  
      1065       1066       1077       1076       1186       1187       1198       1197  
      1066       1067       1078       1077       1187       1188       1199       1198  
      1068       1069       1080       1079       1189       1190       1201       1200  
      1069       1070       1081       1080       1190       1191       1202       1201  
      1070       1071       1082       1081       1191       1192       1203       1202  
      1071       1072       1083       1082       1192       1193       1204       1203  
      1072       1073       1084       1083       1193       1194       1205       1204  
      1073       1074       1085       1084       1194       1195       1206       1205  
      1074       1075       1086       1085       1195       1196       1207       1206  
      1075       1076       1087       1086       1196       1197       1208       1207  
      1076       1077       1088       1087       1197       1198       1209       1208  
      1077       1078       1089       1088       1198       1199       1210       1209  
      1090       1091       1102       1101       1211       1212       1223       1222  
      1091       1092       1103       1102       1212       1213       1224       1223  
      1092       1093       1104       1103       1213       1214       1225       1224  
      1093       1094       1105       1104       1214       1215       1226       1225  
      1094       1095       1106       1105       1215       1216       1227       1226  
      1095       1096       1107       1106       1216       1217       1228       1227  
      1096       1097       1108       1107       1217       1218       1229       1228  
      1097       1098       1109       1108       1218       1219       1230       1229  
      1098       1099       1110       1109       1219       1220       1231       1230  
      1099       1100       1111       1110       1220       1221       1232       1231  
      1101       1102       1113       1112       1222       1223       1234       1233  
      1102       1103       1114       1113       1223       1224       1235       1234  
      1103       1104       1115       1114       1224       1225       1236       1235  
      1104       1105       1116       1115       1225       1226       1237       1236  
      1105       1106       1117       1116       1226       1227       1238       1237  
      1106       1107       1118       1117       1227       1228       1239       1238  
      1107       1108       1119       1118       1228       1229       1240       1239  
      1108       1109       1120       1119       1229       1230       1241       1240  
      1109       1110       1121       1120       1230       1231       1242       1241  
      1110       1111       1122       1121       1231       1232       1243       1242  
      1112       1113       1124       1123       1233       1234       1245       1244  
      1113       1114       1125       1124       1234       1235       1246       1245  
      1114       1115       1126       1125       1235       1236       1247       1246  
      1115       1116       1127       1126       1236       1237       1248       1247  
      1116       1117       1128       1127       1237       1238       1249       1248  
      1117       1118       1129       1128       1238       1239       1250       1249  
      1118       1119       1130       1129       1239       1240       1251       1250  
      1119       1120       1131       1130       1240       1241       1252       1251  
      1120       1121       1132       1131       1241       1242       1253       1252  
      1121       1122       1133       1132       1242       1243       1254       1253  
      1123       1124       1135       1134       1244       1245       1256       1255  
      1124       1125       1136       1135       1245       1246       1257       1256  
      1125       1126       1137       1136       1246       1247       1258       1257  
      1126       1127       1138       1137       1247       1248       1259       1258  
      1127       1128       1139       1138       1248       1249       1260       1259  
      1128       1129       1140       1139       1249       1250       1261       1260  
      1129       1130       1141       1140       1250       1251       1262       1261  
      1130       1131       1142       1141       1251       1252       1263       1262  
      1131       1132       1143       1142       1252       1253       1264       1263  
      1132       1133       1144       1143       1253       1254       1265       1264  
      1134       1135       1146       1145       1255       1256       1267       1266  
      1135       1136       1147       1146       1256       1257       1268       1267  
      1136       1137       1148       1147       1257       1258       1269       1268  
      1137       1138       1149       1148       1258       1259       1270       1269  
      1138       1139       1150       1149       1259       1260       1271       1270  
      1139       1140       1151       1150       1260       1261       1272       1271  
      1140       1141       1152       1151       1261       1262       1273       1272  
      1141       1142       1153       1152       1262       1263       1274       1273  
      1142       1143       1154       1153       1263       1264       1275       1274  
      1143       1144       1155       1154       1264       1265       1276       1275  
      1145       1146       1157       1156       1266       1267       1278       1277  
      1146       1147       1158       1157       1267       1268       1279       1278  
      1147       1148       1159       1158       1268       1269       1280       1279  
      1148       1149       1160       1159       1269       1270       1281       1280  
      1149       1150       1161       1160       1270       1271       1282       1281  
      1150       1151       1162       1161       1271       1272       1283       1282  
      1151       1152       1163       1162       1272       1273       1284       1283  
      1152       1153       1164       1163       1273       1274       1285       1284  
      1153       1154       1165       1164       1274       1275       1286       1285  
      1154       1155       1166       1165       1275       1276       1287       1286  
      1156       1157       1168       1167       1277       1278       1289       1288  
      1157       1158       1169       1168       1278       1279       1290       1289  
      1158       1159       1170       1169       1279       1280       1291       1290  
      1159       1160       1171       1170       1280       1281       1292       1291  
      1160       1161       1172       1171       1281       1282       1293       1292  
      1161       1162       1173       1172       1282       1283       1294       1293  
      1162       1163       1174       1173       1283       1284       1295       1294  
      1163       1164       1175       1174       1284       1285       1296       1295  
      1164       1165       1176       1175       1285       1286       1297       1296  
      1165       1166       1177       1176       1286       1287       1298       1297  
      1167       1168       1179       1178       1288       1289       1300       1299  
      1168       1169       1180       1179       1289       1290       1301       1300  
      1169       1170       1181       1180       1290       1291       1302       1301  
      1170       1171       1182       1181       1291       1292       1303       1302  
      1171       1172       1183       1182       1292       1293       1304       1303  
      1172       1173       1184       1183       1293       1294       1305       1304  
      1173       1174       1185       1184       1294       1295       1306       1305  
      1174       1175       1186       1185       1295       1296       1307       1306  
      1175       1176       1187       1186       1296       1297       1308       1307  
      1176       1177       1188       1187       1297       1298       1309       1308  
      1178       1179       1190       1189       1299       1300       1311       1310  
      1179       1180       1191       1190       1300       1301       1312       1311  
      1180       1181       1192       1191       1301       1302       1313       1312  
      1181       1182       1193       1192       1302       1303       1314       1313  
      1182       1183       1194       1193       1303       1304       1315       1314  
      1183       1184       1195       1194       1304       1305       1316       1315  
      1184       1185       1196       1195       1305       1306       1317       1316  
      1185       1186       1197       1196       1306       1307       1318       1317  
      1186       1187       1198       1197       1307       1308       1319       1318  
      1187       1188       1199       1198       1308       1309       1320       1319  
      1189       1190       1201       1200       1310       1311       1322       1321  
      1190       1191       1202       1201       1311       1312       1323       1322  
      1191       1192       1203       1202       1312       1313       1324       1323  
      1192       1193       1204       1203       1313       1314       1325       1324  
      1193       1194       1205       1204       1314       1315       1326       1325  
      1194       1195       1206       1205       1315       1316       1327       1326  
      1195       1196       1207       1206       1316       1317       1328       1327  
      1196       1197       1208       1207       1317       1318       1329       1328  
      1197       1198       1209       1208       1318       1319       1330       1329  
      1198       1199       1210       1209       1319       1320       1331       1330  
      1211       1212       1223       1222       1332       1333       1344       1343  
      1212       1213       1224       1223       1333       1334       1345       1344  
      1213       1214       1225       1224       1334       1335       1346       1345  
      1214       1215       1226       1225       1335       1336       1347       1346  
      1215       1216       1227       1226       1336       1337       1348       1347  
      1216       1217       1228       1227       1337       1338       1349       1348  
      1217       1218       1229       1228       1338       1339       1350       1349  
      1218       1219       1230       1229       1339       1340       1351       1350  
      1219       1220       1231       1230       1340       1341       1352       1351  
      1220       1221       1232       1231       1341       1342       1353       1352  
      1222       1223       1234       1233       1343       1344       1355       1354  
      1223       1224       1235       1234       1344       1345       1356       1355  
      1224       1225       1236       1235       1345       1346       1357       1356  
      1225       1226       1237       1236       1346       1347       1358       1357  
      1226       1227       1238       1237       1347       1348       1359       1358  
      1227       1228       1239       1238       1348       1349       1360       1359  
      1228       1229       1240       1239       1349       1350       1361       1360  
      1229       1230       1241       1240       1350       1351       1362       1361  
      1230       1231       1242       1241       1351       1352       1363       1362  
      1231       1232       1243       1242       1352       1353       1364       1363  
      1233       1234       1245       1244       1354       1355       1366       1365  
      1234       1235       1246       1245       1355       1356       1367       1366  
      1235       1236       1247       1246       1356       1357       1368       1367  
      1236       1237       1248       1247       1357       1358       1369       1368  
      1237       1238       1249       1248       1358       1359       1370       1369  
      1238       1239       1250       1249       1359       1360       1371       1370  
      1239       1240       1251       1250       1360       1361       1372       1371  
      1240       1241       1252       1251       1361       1362       1373       1372  
      1241       1242       1253       1252       1362       1363       1374       1373  
      1242       1243       1254       1253       1363       1364       1375       1374  
      1244       1245       1256       1255       1365       1366       1377       1376  
      1245       1246       1257       1256       1366       1367       1378       1377  
      1246       1247       1258       1257       1367       1368       1379       1378  
      1247       1248       1259       1258       1368       1369       1380       1379  
      1248       1249       1260       1259       1369       1370       1381       1380  
      1249       1250       1261       1260       1370       1371       1382       1381  
      1250       1251       1262       1261       1371       1372       1383       1382  
      1251       1252       1263       1262       1372       1373       1384       1383  
      1252       1253       1264       1263       1373       1374       1385       1384  
      1253       1254       1265       1264       1374       1375       1386       1385  
      1255       1256       1267       1266       1376       1377       1388       1387  
      1256       1257       1268       1267       1377       1378       1389       1388  
      1257       1258       1269       1268       1378       1379       1390       1389  
      1258       1259       1270       1269       1379       1380       1391       1390  
      1259       1260       1271       1270       1380       1381       1392       1391  
      1260       1261       1272       1271       1381       1382       1393       1392  
      1261       1262       1273       1272       1382       1383       1394       1393  
      1262       1263       1274       1273       1383       1384       1395       1394  
      1263       1264       1275       1274       1384       1385       1396       1395  
      1264       1265       1276       1275       1385       1386       1397       1396  
      1266       1267       1278       1277       1387       1388       1399       1398  
      1267       1268       1279       1278       1388       1389       1400       1399  
      1268       1269       1280       1279       1389       1390       1401       1400  
      1269       1270       1281       1280       1390       1391       1402       1401  
      1270       1271       1282       1281       1391       1392       1403       1402  
      1271       1272       1283       1282       1392       1393       1404       1403  
      1272       1273       1284       1283       1393       1394       1405       1404  
      1273       1274       1285       1284       1394       1395       1406       1405  
      1274       1275       1286       1285       1395       1396       1407       1406  
      1275       1276       1287       1286       1396       1397       1408       1407  
      1277       1278       1289       1288       1398       1399       1410       1409  
      1278       1279       1290       1289       1399       1400       1411       1410  
      1279       1280       1291       1290       1400       1401       1412       1411  
      1280       1281       1292       1291       1401       1402       1413       1412  
      1281       1282       1293       1292       1402       1403       1414       1413  
      1282       1283       1294       1293       1403       1404       1415       1414  
      1283       1284       1295       1294       1404       1405       1416       1415  
      1284       1285       1296       1295       1405       1406       1417       1416  
      1285       1286       1297       1296       1406       1407       1418       1417  
      1286       1287       1298       1297       1407       1408       1419       1418  
      1288       1289       1300       1299       1409       1410       1421       1420  
      1289       1290       1301       1300       1410       1411       1422       1421  
      1290       1291       1302       1301       1411       1412       1423       1422  
      1291       1292       1303       1302       1412       1413       1424       1423  
      1292       1293       1304       1303       1413       1414       1425       1424  
      1293       1294       1305       1304       1414       1415       1426       1425  
      1294       1295       1306       1305       1415       1416       1427       1426  
      1295       1296       1307       1306       1416       1417       1428       1427  
      1296       1297       1308       1307       1417       1418       1429       1428  
      1297       1298       1309       1308       1418       1419       1430       1429  
      1299       1300       1311       1310       1420       1421       1432       1431  
      1300       1301       1312       1311       1421       1422       1433       1432  
      1301       1302       1313       1312       1422       1423       1434       1433  
      1302       1303       1314       1313       1423       1424       1435       1434  
      1303       1304       1315       1314       1424       1425       1436       1435  
      1304       1305       1316       1315       1425       1426       1437       1436  
      1305       1306       1317       1316       1426       1427       1438       1437  
      1306       1307       1318       1317       1427       1428       1439       1438  
      1307       1308       1319       1318       1428       1429       1440       1439  
      1308       1309       1320       1319       1429       1430       1441       1440  
      1310       1311       1322       1321       1431       1432       1443       1442  
      1311       1312       1323       1322       1432       1433       1444       1443  
      1312       1313       1324       1323       1433       1434       1445       1444  
      1313       1314       1325       1324       1434       1435       1446       1445  
      1314       1315       1326       1325       1435       1436       1447       1446  
      1315       1316       1327       1326       1436       1437       1448       1447  
      1316       1317       1328       1327       1437       1438       1449       1448  
      1317       1318       1329       1328       1438       1439       1450       1449  
      1318       1319       1330       1329       1439       1440       1451       1450  
      1319       1320       1331       1330       1440       1441       1452       1451  
      1332       1333       1344       1343       1453       1454       1465       1464  
      1333       1334       1345       1344       1454       1455       1466       1465  
      1334       1335       1346       1345       1455       1456       1467       1466  
      1335       1336       1347       1346       1456       1457       1468       1467  
      1336       1337       1348       1347       1457       1458       1469       1468  
      1337       1338       1349       1348       1458       1459       1470       1469  
      1338       1339       1350       1349       1459       1460       1471       1470  
      1339       1340       1351       1350       1460       1461       1472       1471  
      1340       1341       1352       1351       1461       1462       1473       1472  
      1341       1342       1353       1352       1462       1463       1474       1473  
      1343       1344       1355       1354       1464       1465       1476       1475  
      1344       1345       1356       1355       1465       1466       1477       1476  
      1345       1346       1357       1356       1466       1467       1478       1477  
      1346       1347       1358       1357       1467       1468       1479       1478  
      1347       1348       1359       1358       1468       1469       1480       1479  
      1348       1349       1360       1359       1469       1470       1481       1480  
      1349       1350       1361       1360       1470       1471       1482       1481  
      1350       1351       1362       1361       1471       1472       1483       1482  
      1351       1352       1363       1362       1472       1473       1484       1483  
      1352       1353       1364       1363       1473       1474       1485       1484  
      1354       1355       1366       1365       1475       1476       1487       1486  
      1355       1356       1367       1366       1476       1477       1488       1487  
      1356       1357       1368       1367       1477       1478       1489       1488  
      1357       1358       1369       1368       1478       1479       1490       1489  
      1358       1359       1370       1369       1479       1480       1491       1490  
      1359       1360       1371       1370       1480       1481       1492       1491  
      1360       1361       1372       1371       1481       1482       1493       1492  
      1361       1362       1373       1372       1482       1483       1494       1493  
      1362       1363       1374       1373       1483       1484       1495       1494  
      1363       1364       1375       1374       1484       1485       1496       1495  
      1365       1366       1377       1376       1486       1487       1498       1497  
      1366       1367       1378       1377       1487       1488       1499       1498  
      1367       1368       1379       1378       1488       1489       1500       1499  
      1368       1369       1380       1379       1489       1490       1501       1500  
      1369       1370       1381       1380       1490       1491       1502       1501  
      1370       1371       1382       1381       1491       1492       1503       1502  
      1371       1372       1383       1382       1492       1493       1504       1503  
      1372       1373       1384       1383       1493       1494       1505       1504  
      1373       1374       1385       1384       1494       1495       1506       1505  
      1374       1375       1386       1385       1495       1496       1507       1506  
      1376       1377       1388       1387       1497       1498       1509       1508  
      1377       1378       1389       1388       1498       1499       1510       1509  
      1378       1379       1390       1389       1499       1500       1511       1510  
      1379       1380       1391       1390       1500       1501       1512       1511  
      1380       1381       1392       1391       1501       1502       1513       1512  
      1381       1382       1393       1392       1502       1503       1514       1513  
      1382       1383       1394       1393       1503       1504       1515       1514  
      1383       1384       1395       1394       1504       1505       1516       1515  
      1384       1385       1396       1395       1505       1506       1517       1516  
      1385       1386       1397       1396       1506       1507       1518       1517  
      1387       1388       1399       1398       1508       1509       1520       1519  
      1388       1389       1400       1399       1509       1510       1521       1520  
      1389       1390       1401       1400       1510       1511       1522       1521  
      1390       1391       1402       1401       1511       1512       1523       1522  
      1391       1392       1403       1402       1512       1513       1524       1523  
      1392       1393       1404       1403       1513       1514       1525       1524  
      1393       1394       1405       1404       1514       1515       1526       1525  
      1394       1395       1406       1405       1515       1516       1527       1526  
      1395       1396       1407       1406       1516       1517       1528       1527  
      1396       1397       1408       1407       1517       1518       1529       1528  
      1398       1399       1410       1409       1519       1520       1531       1530  
      1399       1400       1411       1410       1520       1521       1532       1531  
      1400       1401       1412       1411       1521       1522       1533       1532  
      1401       1402       1413       1412       1522       1523       1534       1533  
      1402       1403       1414       1413       1523       1524       1535       1534  
      1403       1404       1415       1414       1524       1525       1536       1535  
      1404       1405       1416       1415       1525       1526       1537       1536  
      1405       1406       1417       1416       1526       1527       1538       1537  
      1406       1407       1418       1417       1527       1528       1539       1538  
      1407       1408       1419       1418       1528       1529       1540       1539  
      1409       1410       1421       1420       1530       1531       1542       1541  
      1410       1411       1422       1421       1531       1532       1543       1542  
      1411       1412       1423       1422       1532       1533       1544       1543  
      1412       1413       1424       1423       1533       1534       1545       1544  
      1413       1414       1425       1424       1534       1535       1546       1545  
      1414       1415       1426       1425       1535       1536       1547       1546  
      1415       1416       1427       1426       1536       1537       1548       1547  
      1416       1417       1428       1427       1537       1538       1549       1548  
      1417       1418       1429       1428       1538       1539       1550       1549  
      1418       1419       1430       1429       1539       1540       1551       1550  
      1420       1421       1432       1431       1541       1542       1553       1552  
      1421       1422       1433       1432       1542       1543       1554       1553  
      1422       1423       1434       1433       1543       1544       1555       1554  
      1423       1424       1435       1434       1544       1545       1556       1555  
      1424       1425       1436       1435       1545       1546       1557       1556  
      1425       1426       1437       1436       1546       1547       1558       1557  
      1426       1427       1438       1437       1547       1548       1559       1558  
      1427       1428       1439       1438       1548       1549       1560       1559  
      1428       1429       1440       1439       1549       1550       1561       1560  
      1429       1430       1441       1440       1550       1551       1562       1561  
      1431       1432       1443       1442       1552       1553       1564       1563  
      1432       1433       1444       1443       1553       1554       1565       1564  
      1433       1434       1445       1444       1554       1555       1566       1565  
      1434       1435       1446       1445       1555       1556       1567       1566  
      1435       1436       1447       1446       1556       1557       1568       1567  
      1436       1437       1448       1447       1557       1558       1569       1568  
      1437       1438       1449       1448       1558       1559       1570       1569  
      1438       1439       1450       1449       1559       1560       1571       1570  
      1439       1440       1451       1450       1560       1561       1572       1571  
      1440       1441       1452       1451       1561       1562       1573       1572  
      1453       1454       1465       1464       1574       1575       1586       1585  
      1454       1455       1466       1465       1575       1576       1587       1586  
      1455       1456       1467       1466       1576       1577       1588       1587  
      1456       1457       1468       1467       1577       1578       1589       1588  
      1457       1458       1469       1468       1578       1579       1590       1589  
      1458       1459       1470       1469       1579       1580       1591       1590  
      1459       1460       1471       1470       1580       1581       1592       1591  
      1460       1461       1472       1471       1581       1582       1593       1592  
      1461       1462       1473       1472       1582       1583       1594       1593  
      1462       1463       1474       1473       1583       1584       1595       1594  
      1464       1465       1476       1475       1585       1586       1597       1596  
      1465       1466       1477       1476       1586       1587       1598       1597  
      1466       1467       1478       1477       1587       1588       1599       1598  
      1467       1468       1479       1478       1588       1589       1600       1599  
      1468       1469       1480       1479       1589       1590       1601       1600  
      1469       1470       1481       1480       1590       1591       1602       1601  
      1470       1471       1482       1481       1591       1592       1603       1602  
      1471       1472       1483       1482       1592       1593       1604       1603  
      1472       1473       1484       1483       1593       1594       1605       1604  
      1473       1474       1485       1484       1594       1595       1606       1605  
      1475       1476       1487       1486       1596       1597       1608       1607  
      1476       1477       1488       1487       1597       1598       1609       1608  
      1477       1478       1489       1488       1598       1599       1610       1609  
      1478       1479       1490       1489       1599       1600       1611       1610  
      1479       1480       1491       1490       1600       1601       1612       1611  
      1480       1481       1492       1491       1601       1602       1613       1612  
      1481       1482       1493       1492       1602       1603       1614       1613  
      1482       1483       1494       1493       1603       1604       1615       1614  
      1483       1484       1495       1494       1604       1605       1616       1615  
      1484       1485       1496       1495       1605       1606       1617       1616  
      1486       1487       1498       1497       1607       1608       1619       1618  
      1487       1488       1499       1498       1608       1609       1620       1619  
      1488       1489       1500       1499       1609       1610       1621       1620  
      1489       1490       1501       1500       1610       1611       1622       1621  
      1490       1491       1502       1501       1611       1612       1623       1622  
      1491       1492       1503       1502       1612       1613       1624       1623  
      1492       1493       1504       1503       1613       1614       1625       1624  
      1493       1494       1505       1504       1614       1615       1626       1625  
      1494       1495       1506       1505       1615       1616       1627       1626  
      1495       1496       1507       1506       1616       1617       1628       1627  
      1497       1498       1509       1508       1618       1619       1630       1629  
      1498       1499       1510       1509       1619       1620       1631       1630  
      1499       1500       1511       1510       1620       1621       1632       1631  
      1500       1501       1512       1511       1621       1622       1633       1632  
      1501       1502       1513       1512       1622       1623       1634       1633  
      1502       1503       1514       1513       1623       1624       1635       1634  
      1503       1504       1515       1514       1624       1625       1636       1635  
      1504       1505       1516       1515       1625       1626       1637       1636  
      1505       1506       1517       1516       1626       1627       1638       1637  
      1506       1507       1518       1517       1627       1628       1639       1638  
      1508       1509       1520       1519       1629       1630       1641       1640  
      1509       1510       1521       1520       1630       1631       1642       1641  
      1510       1511       1522       1521       1631       1632       1643       1642  
      1511       1512       1523       1522       1632       1633       1644       1643  
      1512       1513       1524       1523       1633       1634       1645       1644  
      1513       1514       1525       1524       1634       1635       1646       1645  
      1514       1515       1526       1525       1635       1636       1647       1646  
      1515       1516       1527       1526       1636       1637       1648       1647  
      1516       1517       1528       1527       1637       1638       1649       1648  
      1517       1518       1529       1528       1638       1639       1650       1649  
      1519       1520       1531       1530       1640       1641       1652       1651  
      1520       1521       1532       1531       1641       1642       1653       1652  
      1521       1522       1533       1532       1642       1643       1654       1653  
      1522       1523       1534       1533       1643       1644       1655       1654  
      1523       1524       1535       1534       1644       1645       1656       1655  
      1524       1525       1536       1535       1645       1646       1657       1656  
      1525       1526       1537       1536       1646       1647       1658       1657  
      1526       1527       1538       1537       1647       1648       1659       1658  
      1527       1528       1539       1538       1648       1649       1660       1659  
      1528       1529       1540       1539       1649       1650       1661       1660  
      1530       1531       1542       1541       1651       1652       1663       1662  
      1531       1532       1543       1542       1652       1653       1664       1663  
      1532       1533       1544       1543       1653       1654       1665       1664  
      1533       1534       1545       1544       1654       1655       1666       1665  
      1534       1535       1546       1545       1655       1656       1667       1666  
      1535       1536       1547       1546       1656       1657       1668       1667  
      1536       1537       1548       1547       1657       1658       1669       1668  
      1537       1538       1549       1548       1658       1659       1670       1669  
      1538       1539       1550       1549       1659       1660       1671       1670  
      1539       1540       1551       1550       1660       1661       1672       1671  
      1541       1542       1553       1552       1662       1663       1674       1673  
      1542       1543       1554       1553       1663       1664       1675       1674  
      1543       1544       1555       1554       1664       1665       1676       1675  
      1544       1545       1556       1555       1665       1666       1677       1676  
      1545       1546       1557       1556       1666       1667       1678       1677  
      1546       1547       1558       1557       1667       1668       1679       1678  
      1547       1548       1559       1558       1668       1669       1680       1679  
      1548       1549       1560       1559       1669       1670       1681       1680  
      1549       1550       1561       1560       1670       1671       1682       1681  
      1550       1551       1562       1561       1671       1672       1683       1682  
      1552       1553       1564       1563       1673       1674       1685       1684  
      1553       1554       1565       1564       1674       1675       1686       1685  
      1554       1555       1566       1565       1675       1676       1687       1686  
      1555       1556       1567       1566       1676       1677       1688       1687  
      1556       1557       1568       1567       1677       1678       1689       1688  
      1557       1558       1569       1568       1678       1679       1690       1689  
      1558       1559       1570       1569       1679       1680       1691       1690  
      1559       1560       1571       1570       1680       1681       1692       1691  
      1560       1561       1572       1571       1681       1682       1693       1692  
      1561       1562       1573       1572       1682       1683       1694       1693  
      1574       1575       1586       1585       1695       1696       1707       1706  
      1575       1576       1587       1586       1696       1697       1708       1707  
      1576       1577       1588       1587       1697       1698       1709       1708  
      1577       1578       1589       1588       1698       1699       1710       1709  
      1578       1579       1590       1589       1699       1700       1711       1710  
      1579       1580       1591       1590       1700       1701       1712       1711  
      1580       1581       1592       1591       1701       1702       1713       1712  
      1581       1582       1593       1592       1702       1703       1714       1713  
      1582       1583       1594       1593       1703       1704       1715       1714  
      1583       1584       1595       1594       1704       1705       1716       1715  
      1585       1586       1597       1596       1706       1707       1718       1717  
      1586       1587       1598       1597       1707       1708       1719       1718  
      1587       1588       1599       1598       1708       1709       1720       1719  
      1588       1589       1600       1599       1709       1710       1721       1720  
      1589       1590       1601       1600       1710       1711       1722       1721  
      1590       1591       1602       1601       1711       1712       1723       1722  
      1591       1592       1603       1602       1712       1713       1724       1723  
      1592       1593       1604       1603       1713       1714       1725       1724  
      1593       1594       1605       1604       1714       1715       1726       1725  
      1594       1595       1606       1605       1715       1716       1727       1726  
      1596       1597       1608       1607       1717       1718       1729       1728  
      1597       1598       1609       1608       1718       1719       1730       1729  
      1598       1599       1610       1609       1719       1720       1731       1730  
      1599       1600       1611       1610       1720       1721       1732       1731  
      1600       1601       1612       1611       1721       1722       1733       1732  
      1601       1602       1613       1612       1722       1723       1734       1733  
      1602       1603       1614       1613       1723       1724       1735       1734  
      1603       1604       1615       1614       1724       1725       1736       1735  
      1604       1605       1616       1615       1725       1726       1737       1736  
      1605       1606       1617       1616       1726       1727       1738       1737  
      1607       1608       1619       1618       1728       1729       1740       1739  
      1608       1609       1620       1619       1729       1730       1741       1740  
      1609       1610       1621       1620       1730       1731       1742       1741  
      1610       1611       1622       1621       1731       1732       1743       1742  
      1611       1612       1623       1622       1732       1733       1744       1743  
      1612       1613       1624       1623       1733       1734       1745       1744  
      1613       1614       1625       1624       1734       1735       1746       1745  
      1614       1615       1626       1625       1735       1736       1747       1746  
      1615       1616       1627       1626       1736       1737       1748       1747  
      1616       1617       1628       1627       1737       1738       1749       1748  
      1618       1619       1630       1629       1739       1740       1751       1750  
      1619       1620       1631       1630       1740       1741       1752       1751  
      1620       1621       1632       1631       1741       1742       1753       1752  
      1621       1622       1633       1632       1742       1743       1754       1753  
      1622       1623       1634       1633       1743       1744       1755       1754  
      1623       1624       1635       1634       1744       1745       1756       1755  
      1624       1625       1636       1635       1745       1746       1757       1756  
      1625       1626       1637       1636       1746       1747       1758       1757  
      1626       1627       1638       1637       1747       1748       1759       1758  
      1627       1628       1639       1638       1748       1749       1760       1759  
      1629       1630       1641       1640       1750       1751       1762       1761  
      1630       1631       1642       1641       1751       1752       1763       1762  
      1631       1632       1643       1642       1752       1753       1764       1763  
      1632       1633       1644       1643       1753       1754       1765       1764  
      1633       1634       1645       1644       1754       1755       1766       1765  
      1634       1635       1646       1645       1755       1756       1767       1766  
      1635       1636       1647       1646       1756       1757       1768       1767  
      1636       1637       1648       1647       1757       1758       1769       1768  
      1637       1638       1649       1648       1758       1759       1770       1769  
      1638       1639       1650       1649       1759       1760       1771       1770  
      1640       1641       1652       1651       1761       1762       1773       1772  
      1641       1642       1653       1652       1762       1763       1774       1773  
      1642       1643       1654       1653       1763       1764       1775       1774  
      1643       1644       1655       1654       1764       1765       1776       1775  
      1644       1645       1656       1655       1765       1766       1777       1776  
      1645       1646       1657       1656       1766       1767       1778       1777  
      1646       1647       1658       1657       1767       1768       1779       1778  
      1647       1648       1659       1658       1768       1769       1780       1779  
      1648       1649       1660       1659       1769       1770       1781       1780  
      1649       1650       1661       1660       1770       1771       1782       1781  
      1651       1652       1663       1662       1772       1773       1784       1783  
      1652       1653       1664       1663       1773       1774       1785       1784  
      1653       1654       1665       1664       1774       1775       1786       1785  
      1654       1655       1666       1665       1775       1776       1787       1786  
      1655       1656       1667       1666       1776       1777       1788       1787  
      1656       1657       1668       1667       1777       1778       1789       1788  
      1657       1658       1669       1668       1778       1779       1790       1789  
      1658       1659       1670       1669       1779       1780       1791       1790  
      1659       1660       1671       1670       1780       1781       1792       1791  
      1660       1661       1672       1671       1781       1782       1793       1792  
      1662       1663       1674       1673       1783       1784       1795       1794  
      1663       1664       1675       1674       1784       1785       1796       1795  
      1664       1665       1676       1675       1785       1786       1797       1796  
      1665       1666       1677       1676       1786       1787       1798       1797  
      1666       1667       1678       1677       1787       1788       1799       1798  
      1667       1668       1679       1678       1788       1789       1800       1799  
      1668       1669       1680       1679       1789       1790       1801       1800  
      1669       1670       1681       1680       1790       1791       1802       1801  
      1670       1671       1682       1681       1791       1792       1803       1802  
      1671       1672       1683       1682       1792       1793       1804       1803  
      1673       1674       1685       1684       1794       1795       1806       1805  
      1674       1675       1686       1685       1795       1796       1807       1806  
      1675       1676       1687       1686       1796       1797       1808       1807  
      1676       1677       1688       1687       1797       1798       1809       1808  
      1677       1678       1689       1688       1798       1799       1810       1809  
      1678       1679       1690       1689       1799       1800       1811       1810  
      1679       1680       1691       1690       1800       1801       1812       1811  
      1680       1681       1692       1691       1801       1802       1813       1812  
      1681       1682       1693       1692       1802       1803       1814       1813  
      1682       1683       1694       1693       1803       1804       1815       1814  
      1695       1696       1707       1706       1816       1817       1828       1827  
      1696       1697       1708       1707       1817       1818       1829       1828  
      1697       1698       1709       1708       1818       1819       1830       1829  
      1698       1699       1710       1709       1819       1820       1831       1830  
      1699       1700       1711       1710       1820       1821       1832       1831  
      1700       1701       1712       1711       1821       1822       1833       1832  
      1701       1702       1713       1712       1822       1823       1834       1833  
      1702       1703       1714       1713       1823       1824       1835       1834  
      1703       1704       1715       1714       1824       1825       1836       1835  
      1704       1705       1716       1715       1825       1826       1837       1836  
      1706       1707       1718       1717       1827       1828       1839       1838  
      1707       1708       1719       1718       1828       1829       1840       1839  
      1708       1709       1720       1719       1829       1830       1841       1840  
      1709       1710       1721       1720       1830       1831       1842       1841  
      1710       1711       1722       1721       1831       1832       1843       1842  
      1711       1712       1723       1722       1832       1833       1844       1843  
      1712       1713       1724       1723       1833       1834       1845       1844  
      1713       1714       1725       1724       1834       1835       1846       1845  
      1714       1715       1726       1725       1835       1836       1847       1846  
      1715       1716       1727       1726       1836       1837       1848       1847  
      1717       1718       1729       1728       1838       1839       1850       1849  
      1718       1719       1730       1729       1839       1840       1851       1850  
      1719       1720       1731       1730       1840       1841       1852       1851  
      1720       1721       1732       1731       1841       1842       1853       1852  
      1721       1722       1733       1732       1842       1843       1854       1853  
      1722       1723       1734       1733       1843       1844       1855       1854  
      1723       1724       1735       1734       1844       1845       1856       1855  
      1724       1725       1736       1735       1845       1846       1857       1856  
      1725       1726       1737       1736       1846       1847       1858       1857  
      1726       1727       1738       1737       1847       1848       1859       1858  
      1728       1729       1740       1739       1849       1850       1861       1860  
      1729       1730       1741       1740       1850       1851       1862       1861  
      1730       1731       1742       1741       1851       1852       1863       1862  
      1731       1732       1743       1742       1852       1853       1864       1863  
      1732       1733       1744       1743       1853       1854       1865       1864  
      1733       1734       1745       1744       1854       1855       1866       1865  
      1734       1735       1746       1745       1855       1856       1867       1866  
      1735       1736       1747       1746       1856       1857       1868       1867  
      1736       1737       1748       1747       1857       1858       1869       1868  
      1737       1738       1749       1748       1858       1859       1870       1869  
      1739       1740       1751       1750       1860       1861       1872       1871  
      1740       1741       1752       1751       1861       1862       1873       1872  
      1741       1742       1753       1752       1862       1863       1874       1873  
      1742       1743       1754       1753       1863       1864       1875       1874  
      1743       1744       1755       1754       1864       1865       1876       1875  
      1744       1745       1756       1755       1865       1866       1877       1876  
      1745       1746       1757       1756       1866       1867       1878       1877  
      1746       1747       1758       1757       1867       1868       1879       1878  
      1747       1748       1759       1758       1868       1869       1880       1879  
      1748       1749       1760       1759       1869       1870       1881       1880  
      1750       1751       1762       1761       1871       1872       1883       1882  
      1751       1752       1763       1762       1872       1873       1884       1883  
      1752       1753       1764       1763       1873       1874       1885       1884  
      1753       1754       1765       1764       1874       1875       1886       1885  
      1754       1755       1766       1765       1875       1876       1887       1886  
      1755       1756       1767       1766       1876       1877       1888       1887  
      1756       1757       1768       1767       1877       1878       1889       1888  
      1757       1758       1769       1768       1878       1879       1890       1889  
      1758       1759       1770       1769       1879       1880       1891       1890  
      1759       1760       1771       1770       1880       1881       1892       1891  
      1761       1762       1773       1772       1882       1883       1894       1893  
      1762       1763       1774       1773       1883       1884       1895       1894  
      1763       1764       1775       1774       1884       1885       1896       1895  
      1764       1765       1776       1775       1885       1886       1897       1896  
      1765       1766       1777       1776       1886       1887       1898       1897  
      1766       1767       1778       1777       1887       1888       1899       1898  
      1767       1768       1779       1778       1888       1889       1900       1899  
      1768       1769       1780       1779       1889       1890       1901       1900  
      1769       1770       1781       1780       1890       1891       1902       1901  
      1770       1771       1782       1781       1891       1892       1903       1902  
      1772       1773       1784       1783       1893       1894       1905       1904  
      1773       1774       1785       1784       1894       1895       1906       1905  
      1774       1775       1786       1785       1895       1896       1907       1906  
      1775       1776       1787       1786       1896       1897       1908       1907  
      1776       1777       1788       1787       1897       1898       1909       1908  
      1777       1778       1789       1788       1898       1899       1910       1909  
      1778       1779       1790       1789       1899       1900       1911       1910  
      1779       1780       1791       1790       1900       1901       1912       1911  
      1780       1781       1792       1791       1901       1902       1913       1912  
      1781       1782       1793       1792       1902       1903       1914       1913  
      1783       1784       1795       1794       1904       1905       1916       1915  
      1784       1785       1796       1795       1905       1906       1917       1916  
      1785       1786       1797       1796       1906       1907       1918       1917  
      1786       1787       1798       1797       1907       1908       1919       1918  
      1787       1788       1799       1798       1908       1909       1920       1919  
      1788       1789       1800       1799       1909       1910       1921       1920  
      1789       1790       1801       1800       1910       1911       1922       1921  
      1790       1791       1802       1801       1911       1912       1923       1922  
      1791       1792       1803       1802       1912       1913       1924       1923  
      1792       1793       1804       1803       1913       1914       1925       1924  
      1794       1795       1806       1805       1915       1916       1927       1926  
      1795       1796       1807       1806       1916       1917       1928       1927  
      1796       1797       1808       1807       1917       1918       1929       1928  
      1797       1798       1809       1808       1918       1919       1930       1929  
      1798       1799       1810       1809       1919       1920       1931       1930  
      1799       1800       1811       1810       1920       1921       1932       1931  
      1800       1801       1812       1811       1921       1922       1933       1932  
      1801       1802       1813       1812       1922       1923       1934       1933  
      1802       1803       1814       1813       1923       1924       1935       1934  
      1803       1804       1815       1814       1924       1925       1936       1935  
      1816       1817       1828       1827       1937       1938       1949       1948  
      1817       1818       1829       1828       1938       1939       1950       1949  
      1818       1819       1830       1829       1939       1940       1951       1950  
      1819       1820       1831       1830       1940       1941       1952       1951  
      1820       1821       1832       1831       1941       1942       1953       1952  
      1821       1822       1833       1832       1942       1943       1954       1953  
      1822       1823       1834       1833       1943       1944       1955       1954  
      1823       1824       1835       1834       1944       1945       1956       1955  
      1824       1825       1836       1835       1945       1946       1957       1956  
      1825       1826       1837       1836       1946       1947       1958       1957  
      1827       1828       1839       1838       1948       1949       1960       1959  
      1828       1829       1840       1839       1949       1950       1961       1960  
      1829       1830       1841       1840       1950       1951       1962       1961  
      1830       1831       1842       1841       1951       1952       1963       1962  
      1831       1832       1843       1842       1952       1953       1964       1963  
      1832       1833       1844       1843       1953       1954       1965       1964  
      1833       1834       1845       1844       1954       1955       1966       1965  
      1834       1835       1846       1845       1955       1956       1967       1966  
      1835       1836       1847       1846       1956       1957       1968       1967  
      1836       1837       1848       1847       1957       1958       1969       1968  
      1838       1839       1850       1849       1959       1960       1971       1970  
      1839       1840       1851       1850       1960       1961       1972       1971  
      1840       1841       1852       1851       1961       1962       1973       1972  
      1841       1842       1853       1852       1962       1963       1974       1973  
      1842       1843       1854       1853       1963       1964       1975       1974  
      1843       1844       1855       1854       1964       1965       1976       1975  
      1844       1845       1856       1855       1965       1966       1977       1976  
      1845       1846       1857       1856       1966       1967       1978       1977  
      1846       1847       1858       1857       1967       1968       1979       1978  
      1847       1848       1859       1858       1968       1969       1980       1979  
      1849       1850       1861       1860       1970       1971       1982       1981  
      1850       1851       1862       1861       1971       1972       1983       1982  
      1851       1852       1863       1862       1972       1973       1984       1983  
      1852       1853       1864       1863       1973       1974       1985       1984  
      1853       1854       1865       1864       1974       1975       1986       1985  
      1854       1855       1866       1865       1975       1976       1987       1986  
      1855       1856       1867       1866       1976       1977       1988       1987  
      1856       1857       1868       1867       1977       1978       1989       1988  
      1857       1858       1869       1868       1978       1979       1990       1989  
      1858       1859       1870       1869       1979       1980       1991       1990  
      1860       1861       1872       1871       1981       1982       1993       1992  
      1861       1862       1873       1872       1982       1983       1994       1993  
      1862       1863       1874       1873       1983       1984       1995       1994  
      1863       1864       1875       1874       1984       1985       1996       1995  
      1864       1865       1876       1875       1985       1986       1997       1996  
      1865       1866       1877       1876       1986       1987       1998       1997  
      1866       1867       1878       1877       1987       1988       1999       1998  
      1867       1868       1879       1878       1988       1989       2000       1999  
      1868       1869       1880       1879       1989       1990       2001       2000  
      1869       1870       1881       1880       1990       1991       2002       2001  
      1871       1872       1883       1882       1992       1993       2004       2003  
      1872       1873       1884       1883       1993       1994       2005       2004  
      1873       1874       1885       1884       1994       1995       2006       2005  
      1874       1875       1886       1885       1995       1996       2007       2006  
      1875       1876       1887       1886       1996       1997       2008       2007  
      1876       1877       1888       1887       1997       1998       2009       2008  
      1877       1878       1889       1888       1998       1999       2010       2009  
      1878       1879       1890       1889       1999       2000       2011       2010  
      1879       1880       1891       1890       2000       2001       2012       2011  
      1880       1881       1892       1891       2001       2002       2013       2012  
      1882       1883       1894       1893       2003       2004       2015       2014  
      1883       1884       1895       1894       2004       2005       2016       2015  
      1884       1885       1896       1895       2005       2006       2017       2016  
      1885       1886       1897       1896       2006       2007       2018       2017  
      1886       1887       1898       1897       2007       2008       2019       2018  
      1887       1888       1899       1898       2008       2009       2020       2019  
      1888       1889       1900       1899       2009       2010       2021       2020  
      1889       1890       1901       1900       2010       2011       2022       2021  
      1890       1891       1902       1901       2011       2012       2023       2022  
      1891       1892       1903       1902       2012       2013       2024       2023  
      1893       1894       1905       1904       2014       2015       2026       2025  
      1894       1895       1906       1905       2015       2016       2027       2026  
      1895       1896       1907       1906       2016       2017       2028       2027  
      1896       1897       1908       1907       2017       2018       2029       2028  
      1897       1898       1909       1908       2018       2019       2030       2029  
      1898       1899       1910       1909       2019       2020       2031       2030  
      1899       1900       1911       1910       2020       2021       2032       2031  
      1900       1901       1912       1911       2021       2022       2033       2032  
      1901       1902       1913       1912       2022       2023       2034       2033  
      1902       1903       1914       1913       2023       2024       2035       2034  
      1904       1905       1916       1915       2025       2026       2037       2036  
      1905       1906       1917       1916       2026       2027       2038       2037  
      1906       1907       1918       1917       2027       2028       2039       2038  
      1907       1908       1919       1918       2028       2029       2040       2039  
      1908       1909       1920       1919       2029       2030       2041       2040  
      1909       1910       1921       1920       2030       2031       2042       2041  
      1910       1911       1922       1921       2031       2032       2043       2042  
      1911       1912       1923       1922       2032       2033       2044       2043  
      1912       1913       1924       1923       2033       2034       2045       2044  
      1913       1914       1925       1924       2034       2035       2046       2045  
      1915       1916       1927       1926       2036       2037       2048       2047  
      1916       1917       1928       1927       2037       2038       2049       2048  
      1917       1918       1929       1928       2038       2039       2050       2049  
      1918       1919       1930       1929       2039       2040       2051       2050  
      1919       1920       1931       1930       2040       2041       2052       2051  
      1920       1921       1932       1931       2041       2042       2053       2052  
      1921       1922       1933       1932       2042       2043       2054       2053  
      1922       1923       1934       1933       2043       2044       2055       2054  
      1923       1924       1935       1934       2044       2045       2056       2055  
      1924       1925       1936       1935       2045       2046       2057       2056  
      1937       1938       1949       1948       2058       2059       2070       2069  
      1938       1939       1950       1949       2059       2060       2071       2070  
      1939       1940       1951       1950       2060       2061       2072       2071  
      1940       1941       1952       1951       2061       2062       2073       2072  
      1941       1942       1953       1952       2062       2063       2074       2073  
      1942       1943       1954       1953       2063       2064       2075       2074  
      1943       1944       1955       1954       2064       2065       2076       2075  
      1944       1945       1956       1955       2065       2066       2077       2076  
      1945       1946       1957       1956       2066       2067       2078       2077  
      1946       1947       1958       1957       2067       2068       2079       2078  
      1948       1949       1960       1959       2069       2070       2081       2080  
      1949       1950       1961       1960       2070       2071       2082       2081  
      1950       1951       1962       1961       2071       2072       2083       2082  
      1951       1952       1963       1962       2072       2073       2084       2083  
      1952       1953       1964       1963       2073       2074       2085       2084  
      1953       1954       1965       1964       2074       2075       2086       2085  
      1954       1955       1966       1965       2075       2076       2087       2086  
      1955       1956       1967       1966       2076       2077       2088       2087  
      1956       1957       1968       1967       2077       2078       2089       2088  
      1957       1958       1969       1968       2078       2079       2090       2089  
      1959       1960       1971       1970       2080       2081       2092       2091  
      1960       1961       1972       1971       2081       2082       2093       2092  
      1961       1962       1973       1972       2082       2083       2094       2093  
      1962       1963       1974       1973       2083       2084       2095       2094  
      1963       1964       1975       1974       2084       2085       2096       2095  
      1964       1965       1976       1975       2085       2086       2097       2096  
      1965       1966       1977       1976       2086       2087       2098       2097  
      1966       1967       1978       1977       2087       2088       2099       2098  
      1967       1968       1979       1978       2088       2089       2100       2099  
      1968       1969       1980       1979       2089       2090       2101       2100  
      1970       1971       1982       1981       2091       2092       2103       2102  
      1971       1972       1983       1982       2092       2093       2104       2103  
      1972       1973       1984       1983       2093       2094       2105       2104  
      1973       1974       1985       1984       2094       2095       2106       2105  
      1974       1975       1986       1985       2095       2096       2107       2106  
      1975       1976       1987       1986       2096       2097       2108       2107  
      1976       1977       1988       1987       2097       2098       2109       2108  
      1977       1978       1989       1988       2098       2099       2110       2109  
      1978       1979       1990       1989       2099       2100       2111       2110  
      1979       1980       1991       1990       2100       2101       2112       2111  
      1981       1982       1993       1992       2102       2103       2114       2113  
      1982       1983       1994       1993       2103       2104       2115       2114  
      1983       1984       1995       1994       2104       2105       2116       2115  
      1984       1985       1996       1995       2105       2106       2117       2116  
      1985       1986       1997       1996       2106       2107       2118       2117  
      1986       1987       1998       1997       2107       2108       2119       2118  
      1987       1988       1999       1998       2108       2109       2120       2119  
      1988       1989       2000       1999       2109       2110       2121       2120  
      1989       1990       2001       2000       2110       2111       2122       2121  
      1990       1991       2002       2001       2111       2112       2123       2122  
      1992       1993       2004       2003       2113       2114       2125       2124  
      1993       1994       2005       2004       2114       2115       2126       2125  
      1994       1995       2006       2005       2115       2116       2127       2126  
      1995       1996       2007       2006       2116       2117       2128       2127  
      1996       1997       2008       2007       2117       2118       2129       2128  
      1997       1998       2009       2008       2118       2119       2130       2129  
      1998       1999       2010       2009       2119       2120       2131       2130  
      1999       2000       2011       2010       2120       2121       2132       2131  
      2000       2001       2012       2011       2121       2122       2133       2132  
      2001       2002       2013       2012       2122       2123       2134       2133  
      2003       2004       2015       2014       2124       2125       2136       2135  
      2004       2005       2016       2015       2125       2126       2137       2136  
      2005       2006       2017       2016       2126       2127       2138       2137  
      2006       2007       2018       2017       2127       2128       2139       2138  
      2007       2008       2019       2018       2128       2129       2140       2139  
      2008       2009       2020       2019       2129       2130       2141       2140  
      2009       2010       2021       2020       2130       2131       2142       2141  
      2010       2011       2022       2021       2131       2132       2143       2142  
      2011       2012       2023       2022       2132       2133       2144       2143  
      2012       2013       2024       2023       2133       2134       2145       2144  
      2014       2015       2026       2025       2135       2136       2147       2146  
      2015       2016       2027       2026       2136       2137       2148       2147  
      2016       2017       2028       2027       2137       2138       2149       2148  
      2017       2018       2029       2028       2138       2139       2150       2149  
      2018       2019       2030       2029       2139       2140       2151       2150  
      2019       2020       2031       2030       2140       2141       2152       2151  
      2020       2021       2032       2031       2141       2142       2153       2152  
      2021       2022       2033       2032       2142       2143       2154       2153  
      2022       2023       2034       2033       2143       2144       2155       2154  
      2023       2024       2035       2034       2144       2145       2156       2155  
      2025       2026       2037       2036       2146       2147       2158       2157  
      2026       2027       2038       2037       2147       2148       2159       2158  
      2027       2028       2039       2038       2148       2149       2160       2159  
      2028       2029       2040       2039       2149       2150       2161       2160  
      2029       2030       2041       2040       2150       2151       2162       2161  
      2030       2031       2042       2041       2151       2152       2163       2162  
      2031       2032       2043       2042       2152       2153       2164       2163  
      2032       2033       2044       2043       2153       2154       2165       2164  
      2033       2034       2045       2044       2154       2155       2166       2165  
      2034       2035       2046       2045       2155       2156       2167       2166  
      2036       2037       2048       2047       2157       2158       2169       2168  
      2037       2038       2049       2048       2158       2159       2170       2169  
      2038       2039       2050       2049       2159       2160       2171       2170  
      2039       2040       2051       2050       2160       2161       2172       2171  
      2040       2041       2052       2051       2161       2162       2173       2172  
      2041       2042       2053       2052       2162       2163       2174       2173  
      2042       2043       2054       2053       2163       2164       2175       2174  
      2043       2044       2055       2054       2164       2165       2176       2175  
      2044       2045       2056       2055       2165       2166       2177       2176  
      2045       2046       2057       2056       2166       2167       2178       2177  
      2058       2059       2070       2069       2179       2180       2191       2190  
      2059       2060       2071       2070       2180       2181       2192       2191  
      2060       2061       2072       2071       2181       2182       2193       2192  
      2061       2062       2073       2072       2182       2183       2194       2193  
      2062       2063       2074       2073       2183       2184       2195       2194  
      2063       2064       2075       2074       2184       2185       2196       2195  
      2064       2065       2076       2075       2185       2186       2197       2196  
      2065       2066       2077       2076       2186       2187       2198       2197  
      2066       2067       2078       2077       2187       2188       2199       2198  
      2067       2068       2079       2078       2188       2189       2200       2199  
      2069       2070       2081       2080       2190       2191       2202       2201  
      2070       2071       2082       2081       2191       2192       2203       2202  
      2071       2072       2083       2082       2192       2193       2204       2203  
      2072       2073       2084       2083       2193       2194       2205       2204  
      2073       2074       2085       2084       2194       2195       2206       2205  
      2074       2075       2086       2085       2195       2196       2207       2206  
      2075       2076       2087       2086       2196       2197       2208       2207  
      2076       2077       2088       2087       2197       2198       2209       2208  
      2077       2078       2089       2088       2198       2199       2210       2209  
      2078       2079       2090       2089       2199       2200       2211       2210  
      2080       2081       2092       2091       2201       2202       2213       2212  
      2081       2082       2093       2092       2202       2203       2214       2213  
      2082       2083       2094       2093       2203       2204       2215       2214  
      2083       2084       2095       2094       2204       2205       2216       2215  
      2084       2085       2096       2095       2205       2206       2217       2216  
      2085       2086       2097       2096       2206       2207       2218       2217  
      2086       2087       2098       2097       2207       2208       2219       2218  
      2087       2088       2099       2098       2208       2209       2220       2219  
      2088       2089       2100       2099       2209       2210       2221       2220  
      2089       2090       2101       2100       2210       2211       2222       2221  
      2091       2092       2103       2102       2212       2213       2224       2223  
      2092       2093       2104       2103       2213       2214       2225       2224  
      2093       2094       2105       2104       2214       2215       2226       2225  
      2094       2095       2106       2105       2215       2216       2227       2226  
      2095       2096       2107       2106       2216       2217       2228       2227  
      2096       2097       2108       2107       2217       2218       2229       2228  
      2097       2098       2109       2108       2218       2219       2230       2229  
      2098       2099       2110       2109       2219       2220       2231       2230  
      2099       2100       2111       2110       2220       2221       2232       2231  
      2100       2101       2112       2111       2221       2222       2233       2232  
      2102       2103       2114       2113       2223       2224       2235       2234  
      2103       2104       2115       2114       2224       2225       2236       2235  
      2104       2105       2116       2115       2225       2226       2237       2236  
      2105       2106       2117       2116       2226       2227       2238       2237  
      2106       2107       2118       2117       2227       2228       2239       2238  
      2107       2108       2119       2118       2228       2229       2240       2239  
      2108       2109       2120       2119       2229       2230       2241       2240  
      2109       2110       2121       2120       2230       2231       2242       2241  
      2110       2111       2122       2121       2231       2232       2243       2242  
      2111       2112       2123       2122       2232       2233       2244       2243  
      2113       2114       2125       2124       2234       2235       2246       2245  
      2114       2115       2126       2125       2235       2236       2247       2246  
      2115       2116       2127       2126       2236       2237       2248       2247  
      2116       2117       2128       2127       2237       2238       2249       2248  
      2117       2118       2129       2128       2238       2239       2250       2249  
      2118       2119       2130       2129       2239       2240       2251       2250  
      2119       2120       2131       2130       2240       2241       2252       2251  
      2120       2121       2132       2131       2241       2242       2253       2252  
      2121       2122       2133       2132       2242       2243       2254       2253  
      2122       2123       2134       2133       2243       2244       2255       2254  
      2124       2125       2136       2135       2245       2246       2257       2256  
      2125       2126       2137       2136       2246       2247       2258       2257  
      2126       2127       2138       2137       2247       2248       2259       2258  
      2127       2128       2139       2138       2248       2249       2260       2259  
      2128       2129       2140       2139       2249       2250       2261       2260  
      2129       2130       2141       2140       2250       2251       2262       2261  
      2130       2131       2142       2141       2251       2252       2263       2262  
      2131       2132       2143       2142       2252       2253       2264       2263  
      2132       2133       2144       2143       2253       2254       2265       2264  
      2133       2134       2145       2144       2254       2255       2266       2265  
      2135       2136       2147       2146       2256       2257       2268       2267  
      2136       2137       2148       2147       2257       2258       2269       2268  
      2137       2138       2149       2148       2258       2259       2270       2269  
      2138       2139       2150       2149       2259       2260       2271       2270  
      2139       2140       2151       2150       2260       2261       2272       2271  
      2140       2141       2152       2151       2261       2262       2273       2272  
      2141       2142       2153       2152       2262       2263       2274       2273  
      2142       2143       2154       2153       2263       2264       2275       2274  
      2143       2144       2155       2154       2264       2265       2276       2275  
      2144       2145       2156       2155       2265       2266       2277       2276  
      2146       2147       2158       2157       2267       2268       2279       2278  
      2147       2148       2159       2158       2268       2269       2280       2279  
      2148       2149       2160       2159       2269       2270       2281       2280  
      2149       2150       2161       2160       2270       2271       2282       2281  
      2150       2151       2162       2161       2271       2272       2283       2282  
      2151       2152       2163       2162       2272       2273       2284       2283  
      2152       2153       2164       2163       2273       2274       2285       2284  
      2153       2154       2165       2164       2274       2275       2286       2285  
      2154       2155       2166       2165       2275       2276       2287       2286  
      2155       2156       2167       2166       2276       2277       2288       2287  
      2157       2158       2169       2168       2278       2279       2290       2289  
      2158       2159       2170       2169       2279       2280       2291       2290  
      2159       2160       2171       2170       2280       2281       2292       2291  
      2160       2161       2172       2171       2281       2282       2293       2292  
      2161       2162       2173       2172       2282       2283       2294       2293  
      2162       2163       2174       2173       2283       2284       2295       2294  
      2163       2164       2175       2174       2284       2285       2296       2295  
      2164       2165       2176       2175       2285       2286       2297       2296  
      2165       2166       2177       2176       2286       2287       2298       2297  
      2166       2167       2178       2177       2287       2288       2299       2298  
      2179       2180       2191       2190       2300       2301       2312       2311  
      2180       2181       2192       2191       2301       2302       2313       2312  
      2181       2182       2193       2192       2302       2303       2314       2313  
      2182       2183       2194       2193       2303       2304       2315       2314  
      2183       2184       2195       2194       2304       2305       2316       2315  
      2184       2185       2196       2195       2305       2306       2317       2316  
      2185       2186       2197       2196       2306       2307       2318       2317  
      2186       2187       2198       2197       2307       2308       2319       2318  
      2187       2188       2199       2198       2308       2309       2320       2319  
      2188       2189       2200       2199       2309       2310       2321       2320  
      2190       2191       2202       2201       2311       2312       2323       2322  
      2191       2192       2203       2202       2312       2313       2324       2323  
      2192       2193       2204       2203       2313       2314       2325       2324  
      2193       2194       2205       2204       2314       2315       2326       2325  
      2194       2195       2206       2205       2315       2316       2327       2326  
      2195       2196       2207       2206       2316       2317       2328       2327  
      2196       2197       2208       2207       2317       2318       2329       2328  
      2197       2198       2209       2208       2318       2319       2330       2329  
      2198       2199       2210       2209       2319       2320       2331       2330  
      2199       2200       2211       2210       2320       2321       2332       2331  
      2201       2202       2213       2212       2322       2323       2334       2333  
      2202       2203       2214       2213       2323       2324       2335       2334  
      2203       2204       2215       2214       2324       2325       2336       2335  
      2204       2205       2216       2215       2325       2326       2337       2336  
      2205       2206       2217       2216       2326       2327       2338       2337  
      2206       2207       2218       2217       2327       2328       2339       2338  
      2207       2208       2219       2218       2328       2329       2340       2339  
      2208       2209       2220       2219       2329       2330       2341       2340  
      2209       2210       2221       2220       2330       2331       2342       2341  
      2210       2211       2222       2221       2331       2332       2343       2342  
      2212       2213       2224       2223       2333       2334       2345       2344  
      2213       2214       2225       2224       2334       2335       2346       2345  
      2214       2215       2226       2225       2335       2336       2347       2346  
      2215       2216       2227       2226       2336       2337       2348       2347  
      2216       2217       2228       2227       2337       2338       2349       2348  
      2217       2218       2229       2228       2338       2339       2350       2349  
      2218       2219       2230       2229       2339       2340       2351       2350  
      2219       2220       2231       2230       2340       2341       2352       2351  
      2220       2221       2232       2231       2341       2342       2353       2352  
      2221       2222       2233       2232       2342       2343       2354       2353  
      2223       2224       2235       2234       2344       2345       2356       2355  
      2224       2225       2236       2235       2345       2346       2357       2356  
      2225       2226       2237       2236       2346       2347       2358       2357  
      2226       2227       2238       2237       2347       2348       2359       2358  
      2227       2228       2239       2238       2348       2349       2360       2359  
      2228       2229       2240       2239       2349       2350       2361       2360  
      2229       2230       2241       2240       2350       2351       2362       2361  
      2230       2231       2242       2241       2351       2352       2363       2362  
      2231       2232       2243       2242       2352       2353       2364       2363  
      2232       2233       2244       2243       2353       2354       2365       2364  
      2234       2235       2246       2245       2355       2356       2367       2366  
      2235       2236       2247       2246       2356       2357       2368       2367  
      2236       2237       2248       2247       2357       2358       2369       2368  
      2237       2238       2249       2248       2358       2359       2370       2369  
      2238       2239       2250       2249       2359       2360       2371       2370  
      2239       2240       2251       2250       2360       2361       2372       2371  
      2240       2241       2252       2251       2361       2362       2373       2372  
      2241       2242       2253       2252       2362       2363       2374       2373  
      2242       2243       2254       2253       2363       2364       2375       2374  
      2243       2244       2255       2254       2364       2365       2376       2375  
      2245       2246       2257       2256       2366       2367       2378       2377  
      2246       2247       2258       2257       2367       2368       2379       2378  
      2247       2248       2259       2258       2368       2369       2380       2379  
      2248       2249       2260       2259       2369       2370       2381       2380  
      2249       2250       2261       2260       2370       2371       2382       2381  
      2250       2251       2262       2261       2371       2372       2383       2382  
      2251       2252       2263       2262       2372       2373       2384       2383  
      2252       2253       2264       2263       2373       2374       2385       2384  
      2253       2254       2265       2264       2374       2375       2386       2385  
      2254       2255       2266       2265       2375       2376       2387       2386  
      2256       2257       2268       2267       2377       2378       2389       2388  
      2257       2258       2269       2268       2378       2379       2390       2389  
      2258       2259       2270       2269       2379       2380       2391       2390  
      2259       2260       2271       2270       2380       2381       2392       2391  
      2260       2261       2272       2271       2381       2382       2393       2392  
      2261       2262       2273       2272       2382       2383       2394       2393  
      2262       2263       2274       2273       2383       2384       2395       2394  
      2263       2264       2275       2274       2384       2385       2396       2395  
      2264       2265       2276       2275       2385       2386       2397       2396  
      2265       2266       2277       2276       2386       2387       2398       2397  
      2267       2268       2279       2278       2388       2389       2400       2399  
      2268       2269       2280       2279       2389       2390       2401       2400  
      2269       2270       2281       2280       2390       2391       2402       2401  
      2270       2271       2282       2281       2391       2392       2403       2402  
      2271       2272       2283       2282       2392       2393       2404       2403  
      2272       2273       2284       2283       2393       2394       2405       2404  
      2273       2274       2285       2284       2394       2395       2406       2405  
      2274       2275       2286       2285       2395       2396       2407       2406  
      2275       2276       2287       2286       2396       2397       2408       2407  
      2276       2277       2288       2287       2397       2398       2409       2408  
      2278       2279       2290       2289       2399       2400       2411       2410  
      2279       2280       2291       2290       2400       2401       2412       2411  
      2280       2281       2292       2291       2401       2402       2413       2412  
      2281       2282       2293       2292       2402       2403       2414       2413  
      2282       2283       2294       2293       2403       2404       2415       2414  
      2283       2284       2295       2294       2404       2405       2416       2415  
      2284       2285       2296       2295       2405       2406       2417       2416  
      2285       2286       2297       2296       2406       2407       2418       2417  
      2286       2287       2298       2297       2407       2408       2419       2418  
      2287       2288       2299       2298       2408       2409       2420       2419  
      2300       2301       2312       2311       2421       2422       2433       2432  
      2301       2302       2313       2312       2422       2423       2434       2433  
      2302       2303       2314       2313       2423       2424       2435       2434  
      2303       2304       2315       2314       2424       2425       2436       2435  
      2304       2305       2316       2315       2425       2426       2437       2436  
      2305       2306       2317       2316       2426       2427       2438       2437  
      2306       2307       2318       2317       2427       2428       2439       2438  
      2307       2308       2319       2318       2428       2429       2440       2439  
      2308       2309       2320       2319       2429       2430       2441       2440  
      2309       2310       2321       2320       2430       2431       2442       2441  
      2311       2312       2323       2322       2432       2433       2444       2443  
      2312       2313       2324       2323       2433       2434       2445       2444  
      2313       2314       2325       2324       2434       2435       2446       2445  
      2314       2315       2326       2325       2435       2436       2447       2446  
      2315       2316       2327       2326       2436       2437       2448       2447  
      2316       2317       2328       2327       2437       2438       2449       2448  
      2317       2318       2329       2328       2438       2439       2450       2449  
      2318       2319       2330       2329       2439       2440       2451       2450  
      2319       2320       2331       2330       2440       2441       2452       2451  
      2320       2321       2332       2331       2441       2442       2453       2452  
      2322       2323       2334       2333       2443       2444       2455       2454  
      2323       2324       2335       2334       2444       2445       2456       2455  
      2324       2325       2336       2335       2445       2446       2457       2456  
      2325       2326       2337       2336       2446       2447       2458       2457  
      2326       2327       2338       2337       2447       2448       2459       2458  
      2327       2328       2339       2338       2448       2449       2460       2459  
      2328       2329       2340       2339       2449       2450       2461       2460  
      2329       2330       2341       2340       2450       2451       2462       2461  
      2330       2331       2342       2341       2451       2452       2463       2462  
      2331       2332       2343       2342       2452       2453       2464       2463  
      2333       2334       2345       2344       2454       2455       2466       2465  
      2334       2335       2346       2345       2455       2456       2467       2466  
      2335       2336       2347       2346       2456       2457       2468       2467  
      2336       2337       2348       2347       2457       2458       2469       2468  
      2337       2338       2349       2348       2458       2459       2470       2469  
      2338       2339       2350       2349       2459       2460       2471       2470  
      2339       2340       2351       2350       2460       2461       2472       2471  
      2340       2341       2352       2351       2461       2462       2473       2472  
      2341       2342       2353       2352       2462       2463       2474       2473  
      2342       2343       2354       2353       2463       2464       2475       2474  
      2344       2345       2356       2355       2465       2466       2477       2476  
      2345       2346       2357       2356       2466       2467       2478       2477  
      2346       2347       2358       2357       2467       2468       2479       2478  
      2347       2348       2359       2358       2468       2469       2480       2479  
      2348       2349       2360       2359       2469       2470       2481       2480  
      2349       2350       2361       2360       2470       2471       2482       2481  
      2350       2351       2362       2361       2471       2472       2483       2482  
      2351       2352       2363       2362       2472       2473       2484       2483  
      2352       2353       2364       2363       2473       2474       2485       2484  
      2353       2354       2365       2364       2474       2475       2486       2485  
      2355       2356       2367       2366       2476       2477       2488       2487  
      2356       2357       2368       2367       2477       2478       2489       2488  
      2357       2358       2369       2368       2478       2479       2490       2489  
      2358       2359       2370       2369       2479       2480       2491       2490  
      2359       2360       2371       2370       2480       2481       2492       2491  
      2360       2361       2372       2371       2481       2482       2493       2492  
      2361       2362       2373       2372       2482       2483       2494       2493  
      2362       2363       2374       2373       2483       2484       2495       2494  
      2363       2364       2375       2374       2484       2485       2496       2495  
      2364       2365       2376       2375       2485       2486       2497       2496  
      2366       2367       2378       2377       2487       2488       2499       2498  
      2367       2368       2379       2378       2488       2489       2500       2499  
      2368       2369       2380       2379       2489       2490       2501       2500  
      2369       2370       2381       2380       2490       2491       2502       2501  
      2370       2371       2382       2381       2491       2492       2503       2502  
      2371       2372       2383       2382       2492       2493       2504       2503  
      2372       2373       2384       2383       2493       2494       2505       2504  
      2373       2374       2385       2384       2494       2495       2506       2505  
      2374       2375       2386       2385       2495       2496       2507       2506  
      2375       2376       2387       2386       2496       2497       2508       2507  
      2377       2378       2389       2388       2498       2499       2510       2509  
      2378       2379       2390       2389       2499       2500       2511       2510  
      2379       2380       2391       2390       2500       2501       2512       2511  
      2380       2381       2392       2391       2501       2502       2513       2512  
      2381       2382       2393       2392       2502       2503       2514       2513  
      2382       2383       2394       2393       2503       2504       2515       2514  
      2383       2384       2395       2394       2504       2505       2516       2515  
      2384       2385       2396       2395       2505       2506       2517       2516  
      2385       2386       2397       2396       2506       2507       2518       2517  
      2386       2387       2398       2397       2507       2508       2519       2518  
      2388       2389       2400       2399       2509       2510       2521       2520  
      2389       2390       2401       2400       2510       2511       2522       2521  
      2390       2391       2402       2401       2511       2512       2523       2522  
      2391       2392       2403       2402       2512       2513       2524       2523  
      2392       2393       2404       2403       2513       2514       2525       2524  
      2393       2394       2405       2404       2514       2515       2526       2525  
      2394       2395       2406       2405       2515       2516       2527       2526  
      2395       2396       2407       2406       2516       2517       2528       2527  
      2396       2397       2408       2407       2517       2518       2529       2528  
      2397       2398       2409       2408       2518       2519       2530       2529  
      2399       2400       2411       2410       2520       2521       2532       2531  
      2400       2401       2412       2411       2521       2522       2533       2532  
      2401       2402       2413       2412       2522       2523       2534       2533  
      2402       2403       2414       2413       2523       2524       2535       2534  
      2403       2404       2415       2414       2524       2525       2536       2535  
      2404       2405       2416       2415       2525       2526       2537       2536  
      2405       2406       2417       2416       2526       2527       2538       2537  
      2406       2407       2418       2417       2527       2528       2539       2538  
      2407       2408       2419       2418       2528       2529       2540       2539  
      2408       2409       2420       2419       2529       2530       2541       2540  
      2421       2422       2433       2432       2542       2543       2554       2553  
      2422       2423       2434       2433       2543       2544       2555       2554  
      2423       2424       2435       2434       2544       2545       2556       2555  
      2424       2425       2436       2435       2545       2546       2557       2556  
      2425       2426       2437       2436       2546       2547       2558       2557  
      2426       2427       2438       2437       2547       2548       2559       2558  
      2427       2428       2439       2438       2548       2549       2560       2559  
      2428       2429       2440       2439       2549       2550       2561       2560  
      2429       2430       2441       2440       2550       2551       2562       2561  
      2430       2431       2442       2441       2551       2552       2563       2562  
      2432       2433       2444       2443       2553       2554       2565       2564  
      2433       2434       2445       2444       2554       2555       2566       2565  
      2434       2435       2446       2445       2555       2556       2567       2566  
      2435       2436       2447       2446       2556       2557       2568       2567  
      2436       2437       2448       2447       2557       2558       2569       2568  
      2437       2438       2449       2448       2558       2559       2570       2569  
      2438       2439       2450       2449       2559       2560       2571       2570  
      2439       2440       2451       2450       2560       2561       2572       2571  
      2440       2441       2452       2451       2561       2562       2573       2572  
      2441       2442       2453       2452       2562       2563       2574       2573  
      2443       2444       2455       2454       2564       2565       2576       2575  
      2444       2445       2456       2455       2565       2566       2577       2576  
      2445       2446       2457       2456       2566       2567       2578       2577  
      2446       2447       2458       2457       2567       2568       2579       2578  
      2447       2448       2459       2458       2568       2569       2580       2579  
      2448       2449       2460       2459       2569       2570       2581       2580  
      2449       2450       2461       2460       2570       2571       2582       2581  
      2450       2451       2462       2461       2571       2572       2583       2582  
      2451       2452       2463       2462       2572       2573       2584       2583  
      2452       2453       2464       2463       2573       2574       2585       2584  
      2454       2455       2466       2465       2575       2576       2587       2586  
      2455       2456       2467       2466       2576       2577       2588       2587  
      2456       2457       2468       2467       2577       2578       2589       2588  
      2457       2458       2469       2468       2578       2579       2590       2589  
      2458       2459       2470       2469       2579       2580       2591       2590  
      2459       2460       2471       2470       2580       2581       2592       2591  
      2460       2461       2472       2471       2581       2582       2593       2592  
      2461       2462       2473       2472       2582       2583       2594       2593  
      2462       2463       2474       2473       2583       2584       2595       2594  
      2463       2464       2475       2474       2584       2585       2596       2595  
      2465       2466       2477       2476       2586       2587       2598       2597  
      2466       2467       2478       2477       2587       2588       2599       2598  
      2467       2468       2479       2478       2588       2589       2600       2599  
      2468       2469       2480       2479       2589       2590       2601       2600  
      2469       2470       2481       2480       2590       2591       2602       2601  
      2470       2471       2482       2481       2591       2592       2603       2602  
      2471       2472       2483       2482       2592       2593       2604       2603  
      2472       2473       2484       2483       2593       2594       2605       2604  
      2473       2474       2485       2484       2594       2595       2606       2605  
      2474       2475       2486       2485       2595       2596       2607       2606  
      2476       2477       2488       2487       2597       2598       2609       2608  
      2477       2478       2489       2488       2598       2599       2610       2609  
      2478       2479       2490       2489       2599       2600       2611       2610  
      2479       2480       2491       2490       2600       2601       2612       2611  
      2480       2481       2492       2491       2601       2602       2613       2612  
      2481       2482       2493       2492       2602       2603       2614       2613  
      2482       2483       2494       2493       2603       2604       2615       2614  
      2483       2484       2495       2494       2604       2605       2616       2615  
      2484       2485       2496       2495       2605       2606       2617       2616  
      2485       2486       2497       2496       2606       2607       2618       2617  
      2487       2488       2499       2498       2608       2609       2620       2619  
      2488       2489       2500       2499       2609       2610       2621       2620  
      2489       2490       2501       2500       2610       2611       2622       2621  
      2490       2491       2502       2501       2611       2612       2623       2622  
      2491       2492       2503       2502       2612       2613       2624       2623  
      2492       2493       2504       2503       2613       2614       2625       2624  
      2493       2494       2505       2504       2614       2615       2626       2625  
      2494       2495       2506       2505       2615       2616       2627       2626  
      2495       2496       2507       2506       2616       2617       2628       2627  
      2496       2497       2508       2507       2617       2618       2629       2628  
      2498       2499       2510       2509       2619       2620       2631       2630  
      2499       2500       2511       2510       2620       2621       2632       2631  
      2500       2501       2512       2511       2621       2622       2633       2632  
      2501       2502       2513       2512       2622       2623       2634       2633  
      2502       2503       2514       2513       2623       2624       2635       2634  
      2503       2504       2515       2514       2624       2625       2636       2635  
      2504       2505       2516       2515       2625       2626       2637       2636  
      2505       2506       2517       2516       2626       2627       2638       2637  
      2506       2507       2518       2517       2627       2628       2639       2638  
      2507       2508       2519       2518       2628       2629       2640       2639  
      2509       2510       2521       2520       2630       2631       2642       2641  
      2510       2511       2522       2521       2631       2632       2643       2642  
      2511       2512       2523       2522       2632       2633       2644       2643  
      2512       2513       2524       2523       2633       2634       2645       2644  
      2513       2514       2525       2524       2634       2635       2646       2645  
      2514       2515       2526       2525       2635       2636       2647       2646  
      2515       2516       2527       2526       2636       2637       2648       2647  
      2516       2517       2528       2527       2637       2638       2649       2648  
      2517       2518       2529       2528       2638       2639       2650       2649  
      2518       2519       2530       2529       2639       2640       2651       2650  
      2520       2521       2532       2531       2641       2642       2653       2652  
      2521       2522       2533       2532       2642       2643       2654       2653  
      2522       2523       2534       2533       2643       2644       2655       2654  
      2523       2524       2535       2534       2644       2645       2656       2655  
      2524       2525       2536       2535       2645       2646       2657       2656  
      2525       2526       2537       2536       2646       2647       2658       2657  
      2526       2527       2538       2537       2647       2648       2659       2658  
      2527       2528       2539       2538       2648       2649       2660       2659  
      2528       2529       2540       2539       2649       2650       2661       2660  
      2529       2530       2541       2540       2650       2651       2662       2661  
      2542       2543       2554       2553       2663       2664       2675       2674  
      2543       2544       2555       2554       2664       2665       2676       2675  
      2544       2545       2556       2555       2665       2666       2677       2676  
      2545       2546       2557       2556       2666       2667       2678       2677  
      2546       2547       2558       2557       2667       2668       2679       2678  
      2547       2548       2559       2558       2668       2669       2680       2679  
      2548       2549       2560       2559       2669       2670       2681       2680  
      2549       2550       2561       2560       2670       2671       2682       2681  
      2550       2551       2562       2561       2671       2672       2683       2682  
      2551       2552       2563       2562       2672       2673       2684       2683  
      2553       2554       2565       2564       2674       2675       2686       2685  
      2554       2555       2566       2565       2675       2676       2687       2686  
      2555       2556       2567       2566       2676       2677       2688       2687  
      2556       2557       2568       2567       2677       2678       2689       2688  
      2557       2558       2569       2568       2678       2679       2690       2689  
      2558       2559       2570       2569       2679       2680       2691       2690  
      2559       2560       2571       2570       2680       2681       2692       2691  
      2560       2561       2572       2571       2681       2682       2693       2692  
      2561       2562       2573       2572       2682       2683       2694       2693  
      2562       2563       2574       2573       2683       2684       2695       2694  
      2564       2565       2576       2575       2685       2686       2697       2696  
      2565       2566       2577       2576       2686       2687       2698       2697  
      2566       2567       2578       2577       2687       2688       2699       2698  
      2567       2568       2579       2578       2688       2689       2700       2699  
      2568       2569       2580       2579       2689       2690       2701       2700  
      2569       2570       2581       2580       2690       2691       2702       2701  
      2570       2571       2582       2581       2691       2692       2703       2702  
      2571       2572       2583       2582       2692       2693       2704       2703  
      2572       2573       2584       2583       2693       2694       2705       2704  
      2573       2574       2585       2584       2694       2695       2706       2705  
      2575       2576       2587       2586       2696       2697       2708       2707  
      2576       2577       2588       2587       2697       2698       2709       2708  
      2577       2578       2589       2588       2698       2699       2710       2709  
      2578       2579       2590       2589       2699       2700       2711       2710  
      2579       2580       2591       2590       2700       2701       2712       2711  
      2580       2581       2592       2591       2701       2702       2713       2712  
      2581       2582       2593       2592       2702       2703       2714       2713  
      2582       2583       2594       2593       2703       2704       2715       2714  
      2583       2584       2595       2594       2704       2705       2716       2715  
      2584       2585       2596       2595       2705       2706       2717       2716  
      2586       2587       2598       2597       2707       2708       2719       2718  
      2587       2588       2599       2598       2708       2709       2720       2719  
      2588       2589       2600       2599       2709       2710       2721       2720  
      2589       2590       2601       2600       2710       2711       2722       2721  
      2590       2591       2602       2601       2711       2712       2723       2722  
      2591       2592       2603       2602       2712       2713       2724       2723  
      2592       2593       2604       2603       2713       2714       2725       2724  
      2593       2594       2605       2604       2714       2715       2726       2725  
      2594       2595       2606       2605       2715       2716       2727       2726  
      2595       2596       2607       2606       2716       2717       2728       2727  
      2597       2598       2609       2608       2718       2719       2730       2729  
      2598       2599       2610       2609       2719       2720       2731       2730  
      2599       2600       2611       2610       2720       2721       2732       2731  
      2600       2601       2612       2611       2721       2722       2733       2732  
      2601       2602       2613       2612       2722       2723       2734       2733  
      2602       2603       2614       2613       2723       2724       2735       2734  
      2603       2604       2615       2614       2724       2725       2736       2735  
      2604       2605       2616       2615       2725       2726       2737       2736  
      2605       2606       2617       2616       2726       2727       2738       2737  
      2606       2607       2618       2617       2727       2728       2739       2738  
      2608       2609       2620       2619       2729       2730       2741       2740  
      2609       2610       2621       2620       2730       2731       2742       2741  
      2610       2611       2622       2621       2731       2732       2743       2742  
      2611       2612       2623       2622       2732       2733       2744       2743  
      2612       2613       2624       2623       2733       2734       2745       2744  
      2613       2614       2625       2624       2734       2735       2746       2745  
      2614       2615       2626       2625       2735       2736       2747       2746  
      2615       2616       2627       2626       2736       2737       2748       2747  
      2616       2617       2628       2627       2737       2738       2749       2748  
      2617       2618       2629       2628       2738       2739       2750       2749  
      2619       2620       2631       2630       2740       2741       2752       2751  
      2620       2621       2632       2631       2741       2742       2753       2752  
      2621       2622       2633       2632       2742       2743       2754       2753  
      2622       2623       2634       2633       2743       2744       2755       2754  
      2623       2624       2635       2634       2744       2745       2756       2755  
      2624       2625       2636       2635       2745       2746       2757       2756  
      2625       2626       2637       2636       2746       2747       2758       2757  
      2626       2627       2638       2637       2747       2748       2759       2758  
      2627       2628       2639       2638       2748       2749       2760       2759  
      2628       2629       2640       2639       2749       2750       2761       2760  
      2630       2631       2642       2641       2751       2752       2763       2762  
      2631       2632       2643       2642       2752       2753       2764       2763  
      2632       2633       2644       2643       2753       2754       2765       2764  
      2633       2634       2645       2644       2754       2755       2766       2765  
      2634       2635       2646       2645       2755       2756       2767       2766  
      2635       2636       2647       2646       2756       2757       2768       2767  
      2636       2637       2648       2647       2757       2758       2769       2768  
      2637       2638       2649       2648       2758       2759       2770       2769  
      2638       2639       2650       2649       2759       2760       2771       2770  
      2639       2640       2651       2650       2760       2761       2772       2771  
      2641       2642       2653       2652       2762       2763       2774       2773  
      2642       2643       2654       2653       2763       2764       2775       2774  
      2643       2644       2655       2654       2764       2765       2776       2775  
      2644       2645       2656       2655       2765       2766       2777       2776  
      2645       2646       2657       2656       2766       2767       2778       2777  
      2646       2647       2658       2657       2767       2768       2779       2778  
      2647       2648       2659       2658       2768       2769       2780       2779  
      2648       2649       2660       2659       2769       2770       2781       2780  
      2649       2650       2661       2660       2770       2771       2782       2781  
      2650       2651       2662       2661       2771       2772       2783       2782  
      2663       2664       2675       2674       2784       2785       2796       2795  
      2664       2665       2676       2675       2785       2786       2797       2796  
      2665       2666       2677       2676       2786       2787       2798       2797  
      2666       2667       2678       2677       2787       2788       2799       2798  
      2667       2668       2679       2678       2788       2789       2800       2799  
      2668       2669       2680       2679       2789       2790       2801       2800  
      2669       2670       2681       2680       2790       2791       2802       2801  
      2670       2671       2682       2681       2791       2792       2803       2802  
      2671       2672       2683       2682       2792       2793       2804       2803  
      2672       2673       2684       2683       2793       2794       2805       2804  
      2674       2675       2686       2685       2795       2796       2807       2806  
      2675       2676       2687       2686       2796       2797       2808       2807  
      2676       2677       2688       2687       2797       2798       2809       2808  
      2677       2678       2689       2688       2798       2799       2810       2809  
      2678       2679       2690       2689       2799       2800       2811       2810  
      2679       2680       2691       2690       2800       2801       2812       2811  
      2680       2681       2692       2691       2801       2802       2813       2812  
      2681       2682       2693       2692       2802       2803       2814       2813  
      2682       2683       2694       2693       2803       2804       2815       2814  
      2683       2684       2695       2694       2804       2805       2816       2815  
      2685       2686       2697       2696       2806       2807       2818       2817  
      2686       2687       2698       2697       2807       2808       2819       2818  
      2687       2688       2699       2698       2808       2809       2820       2819  
      2688       2689       2700       2699       2809       2810       2821       2820  
      2689       2690       2701       2700       2810       2811       2822       2821  
      2690       2691       2702       2701       2811       2812       2823       2822  
      2691       2692       2703       2702       2812       2813       2824       2823  
      2692       2693       2704       2703       2813       2814       2825       2824  
      2693       2694       2705       2704       2814       2815       2826       2825  
      2694       2695       2706       2705       2815       2816       2827       2826  
      2696       2697       2708       2707       2817       2818       2829       2828  
      2697       2698       2709       2708       2818       2819       2830       2829  
      2698       2699       2710       2709       2819       2820       2831       2830  
      2699       2700       2711       2710       2820       2821       2832       2831  
      2700       2701       2712       2711       2821       2822       2833       2832  
      2701       2702       2713       2712       2822       2823       2834       2833  
      2702       2703       2714       2713       2823       2824       2835       2834  
      2703       2704       2715       2714       2824       2825       2836       2835  
      2704       2705       2716       2715       2825       2826       2837       2836  
      2705       2706       2717       2716       2826       2827       2838       2837  
      2707       2708       2719       2718       2828       2829       2840       2839  
      2708       2709       2720       2719       2829       2830       2841       2840  
      2709       2710       2721       2720       2830       2831       2842       2841  
      2710       2711       2722       2721       2831       2832       2843       2842  
      2711       2712       2723       2722       2832       2833       2844       2843  
      2712       2713       2724       2723       2833       2834       2845       2844  
      2713       2714       2725       2724       2834       2835       2846       2845  
      2714       2715       2726       2725       2835       2836       2847       2846  
      2715       2716       2727       2726       2836       2837       2848       2847  
      2716       2717       2728       2727       2837       2838       2849       2848  
      2718       2719       2730       2729       2839       2840       2851       2850  
      2719       2720       2731       2730       2840       2841       2852       2851  
      2720       2721       2732       2731       2841       2842       2853       2852  
      2721       2722       2733       2732       2842       2843       2854       2853  
      2722       2723       2734       2733       2843       2844       2855       2854  
      2723       2724       2735       2734       2844       2845       2856       2855  
      2724       2725       2736       2735       2845       2846       2857       2856  
      2725       2726       2737       2736       2846       2847       2858       2857  
      2726       2727       2738       2737       2847       2848       2859       2858  
      2727       2728       2739       2738       2848       2849       2860       2859  
      2729       2730       2741       2740       2850       2851       2862       2861  
      2730       2731       2742       2741       2851       2852       2863       2862  
      2731       2732       2743       2742       2852       2853       2864       2863  
      2732       2733       2744       2743       2853       2854       2865       2864  
      2733       2734       2745       2744       2854       2855       2866       2865  
      2734       2735       2746       2745       2855       2856       2867       2866  
      2735       2736       2747       2746       2856       2857       2868       2867  
      2736       2737       2748       2747       2857       2858       2869       2868  
      2737       2738       2749       2748       2858       2859       2870       2869  
      2738       2739       2750       2749       2859       2860       2871       2870  
      2740       2741       2752       2751       2861       2862       2873       2872  
      2741       2742       2753       2752       2862       2863       2874       2873  
      2742       2743       2754       2753       2863       2864       2875       2874  
      2743       2744       2755       2754       2864       2865       2876       2875  
      2744       2745       2756       2755       2865       2866       2877       2876  
      2745       2746       2757       2756       2866       2867       2878       2877  
      2746       2747       2758       2757       2867       2868       2879       2878  
      2747       2748       2759       2758       2868       2869       2880       2879  
      2748       2749       2760       2759       2869       2870       2881       2880  
      2749       2750       2761       2760       2870       2871       2882       2881  
      2751       2752       2763       2762       2872       2873       2884       2883  
      2752       2753       2764       2763       2873       2874       2885       2884  
      2753       2754       2765       2764       2874       2875       2886       2885  
      2754       2755       2766       2765       2875       2876       2887       2886  
      2755       2756       2767       2766       2876       2877       2888       2887  
      2756       2757       2768       2767       2877       2878       2889       2888  
      2757       2758       2769       2768       2878       2879       2890       2889  
      2758       2759       2770       2769       2879       2880       2891       2890  
      2759       2760       2771       2770       2880       2881       2892       2891  
      2760       2761       2772       2771       2881       2882       2893       2892  
      2762       2763       2774       2773       2883       2884       2895       2894  
      2763       2764       2775       2774       2884       2885       2896       2895  
      2764       2765       2776       2775       2885       2886       2897       2896  
      2765       2766       2777       2776       2886       2887       2898       2897  
      2766       2767       2778       2777       2887       2888       2899       2898  
      2767       2768       2779       2778       2888       2889       2900       2899  
      2768       2769       2780       2779       2889       2890       2901       2900  
      2769       2770       2781       2780       2890       2891       2902       2901  
      2770       2771       2782       2781       2891       2892       2903       2902  
      2771       2772       2783       2782       2892       2893       2904       2903  
      2784       2785       2796       2795       2905       2906       2917       2916  
      2785       2786       2797       2796       2906       2907       2918       2917  
      2786       2787       2798       2797       2907       2908       2919       2918  
      2787       2788       2799       2798       2908       2909       2920       2919  
      2788       2789       2800       2799       2909       2910       2921       2920  
      2789       2790       2801       2800       2910       2911       2922       2921  
      2790       2791       2802       2801       2911       2912       2923       2922  
      2791       2792       2803       2802       2912       2913       2924       2923  
      2792       2793       2804       2803       2913       2914       2925       2924  
      2793       2794       2805       2804       2914       2915       2926       2925  
      2795       2796       2807       2806       2916       2917       2928       2927  
      2796       2797       2808       2807       2917       2918       2929       2928  
      2797       2798       2809       2808       2918       2919       2930       2929  
      2798       2799       2810       2809       2919       2920       2931       2930  
      2799       2800       2811       2810       2920       2921       2932       2931  
      2800       2801       2812       2811       2921       2922       2933       2932  
      2801       2802       2813       2812       2922       2923       2934       2933  
      2802       2803       2814       2813       2923       2924       2935       2934  
      2803       2804       2815       2814       2924       2925       2936       2935  
      2804       2805       2816       2815       2925       2926       2937       2936  
      2806       2807       2818       2817       2927       2928       2939       2938  
      2807       2808       2819       2818       2928       2929       2940       2939  
      2808       2809       2820       2819       2929       2930       2941       2940  
      2809       2810       2821       2820       2930       2931       2942       2941  
      2810       2811       2822       2821       2931       2932       2943       2942  
      2811       2812       2823       2822       2932       2933       2944       2943  
      2812       2813       2824       2823       2933       2934       2945       2944  
      2813       2814       2825       2824       2934       2935       2946       2945  
      2814       2815       2826       2825       2935       2936       2947       2946  
      2815       2816       2827       2826       2936       2937       2948       2947  
      2817       2818       2829       2828       2938       2939       2950       2949  
      2818       2819       2830       2829       2939       2940       2951       2950  
      2819       2820       2831       2830       2940       2941       2952       2951  
      2820       2821       2832       2831       2941       2942       2953       2952  
      2821       2822       2833       2832       2942       2943       2954       2953  
      2822       2823       2834       2833       2943       2944       2955       2954  
      2823       2824       2835       2834       2944       2945       2956       2955  
      2824       2825       2836       2835       2945       2946       2957       2956  
      2825       2826       2837       2836       2946       2947       2958       2957  
      2826       2827       2838       2837       2947       2948       2959       2958  
      2828       2829       2840       2839       2949       2950       2961       2960  
      2829       2830       2841       2840       2950       2951       2962       2961  
      2830       2831       2842       2841       2951       2952       2963       2962  
      2831       2832       2843       2842       2952       2953       2964       2963  
      2832       2833       2844       2843       2953       2954       2965       2964  
      2833       2834       2845       2844       2954       2955       2966       2965  
      2834       2835       2846       2845       2955       2956       2967       2966  
      2835       2836       2847       2846       2956       2957       2968       2967  
      2836       2837       2848       2847       2957       2958       2969       2968  
      2837       2838       2849       2848       2958       2959       2970       2969  
      2839       2840       2851       2850       2960       2961       2972       2971  
      2840       2841       2852       2851       2961       2962       2973       2972  
      2841       2842       2853       2852       2962       2963       2974       2973  
      2842       2843       2854       2853       2963       2964       2975       2974  
      2843       2844       2855       2854       2964       2965       2976       2975  
      2844       2845       2856       2855       2965       2966       2977       2976  
      2845       2846       2857       2856       2966       2967       2978       2977  
      2846       2847       2858       2857       2967       2968       2979       2978  
      2847       2848       2859       2858       2968       2969       2980       2979  
      2848       2849       2860       2859       2969       2970       2981       2980  
      2850       2851       2862       2861       2971       2972       2983       2982  
      2851       2852       2863       2862       2972       2973       2984       2983  
      2852       2853       2864       2863       2973       2974       2985       2984  
      2853       2854       2865       2864       2974       2975       2986       2985  
      2854       2855       2866       2865       2975       2976       2987       2986  
      2855       2856       2867       2866       2976       2977       2988       2987  
      2856       2857       2868       2867       2977       2978       2989       2988  
      2857       2858       2869       2868       2978       2979       2990       2989  
      2858       2859       2870       2869       2979       2980       2991       2990  
      2859       2860       2871       2870       2980       2981       2992       2991  
      2861       2862       2873       2872       2982       2983       2994       2993  
      2862       2863       2874       2873       2983       2984       2995       2994  
      2863       2864       2875       2874       2984       2985       2996       2995  
      2864       2865       2876       2875       2985       2986       2997       2996  
      2865       2866       2877       2876       2986       2987       2998       2997  
      2866       2867       2878       2877       2987       2988       2999       2998  
      2867       2868       2879       2878       2988       2989       3000       2999  
      2868       2869       2880       2879       2989       2990       3001       3000  
      2869       2870       2881       2880       2990       2991       3002       3001  
      2870       2871       2882       2881       2991       2992       3003       3002  
      2872       2873       2884       2883       2993       2994       3005       3004  
      2873       2874       2885       2884       2994       2995       3006       3005  
      2874       2875       2886       2885       2995       2996       3007       3006  
      2875       2876       2887       2886       2996       2997       3008       3007  
      2876       2877       2888       2887       2997       2998       3009       3008  
      2877       2878       2889       2888       2998       2999       3010       3009  
      2878       2879       2890       2889       2999       3000       3011       3010  
      2879       2880       2891       2890       3000       3001       3012       3011  
      2880       2881       2892       2891       3001       3002       3013       3012  
      2881       2882       2893       2892       3002       3003       3014       3013  
      2883       2884       2895       2894       3004       3005       3016       3015  
      2884       2885       2896       2895       3005       3006       3017       3016  
      2885       2886       2897       2896       3006       3007       3018       3017  
      2886       2887       2898       2897       3007       3008       3019       3018  
      2887       2888       2899       2898       3008       3009       3020       3019  
      2888       2889       2900       2899       3009       3010       3021       3020  
      2889       2890       2901       2900       3010       3011       3022       3021  
      2890       2891       2902       2901       3011       3012       3023       3022  
      2891       2892       2903       2902       3012       3013       3024       3023  
      2892       2893       2904       2903       3013       3014       3025       3024  
      2905       2906       2917       2916       3026       3027       3038       3037  
      2906       2907       2918       2917       3027       3028       3039       3038  
      2907       2908       2919       2918       3028       3029       3040       3039  
      2908       2909       2920       2919       3029       3030       3041       3040  
      2909       2910       2921       2920       3030       3031       3042       3041  
      2910       2911       2922       2921       3031       3032       3043       3042  
      2911       2912       2923       2922       3032       3033       3044       3043  
      2912       2913       2924       2923       3033       3034       3045       3044  
      2913       2914       2925       2924       3034       3035       3046       3045  
      2914       2915       2926       2925       3035       3036       3047       3046  
      2916       2917       2928       2927       3037       3038       3049       3048  
      2917       2918       2929       2928       3038       3039       3050       3049  
      2918       2919       2930       2929       3039       3040       3051       3050  
      2919       2920       2931       2930       3040       3041       3052       3051  
      2920       2921       2932       2931       3041       3042       3053       3052  
      2921       2922       2933       2932       3042       3043       3054       3053  
      2922       2923       2934       2933       3043       3044       3055       3054  
      2923       2924       2935       2934       3044       3045       3056       3055  
      2924       2925       2936       2935       3045       3046       3057       3056  
      2925       2926       2937       2936       3046       3047       3058       3057  
      2927       2928       2939       2938       3048       3049       3060       3059  
      2928       2929       2940       2939       3049       3050       3061       3060  
      2929       2930       2941       2940       3050       3051       3062       3061  
      2930       2931       2942       2941       3051       3052       3063       3062  
      2931       2932       2943       2942       3052       3053       3064       3063  
      2932       2933       2944       2943       3053       3054       3065       3064  
      2933       2934       2945       2944       3054       3055       3066       3065  
      2934       2935       2946       2945       3055       3056       3067       3066  
      2935       2936       2947       2946       3056       3057       3068       3067  
      2936       2937       2948       2947       3057       3058       3069       3068  
      2938       2939       2950       2949       3059       3060       3071       3070  
      2939       2940       2951       2950       3060       3061       3072       3071  
      2940       2941       2952       2951       3061       3062       3073       3072  
      2941       2942       2953       2952       3062       3063       3074       3073  
      2942       2943       2954       2953       3063       3064       3075       3074  
      2943       2944       2955       2954       3064       3065       3076       3075  
      2944       2945       2956       2955       3065       3066       3077       3076  
      2945       2946       2957       2956       3066       3067       3078       3077  
      2946       2947       2958       2957       3067       3068       3079       3078  
      2947       2948       2959       2958       3068       3069       3080       3079  
      2949       2950       2961       2960       3070       3071       3082       3081  
      2950       2951       2962       2961       3071       3072       3083       3082  
      2951       2952       2963       2962       3072       3073       3084       3083  
      2952       2953       2964       2963       3073       3074       3085       3084  
      2953       2954       2965       2964       3074       3075       3086       3085  
      2954       2955       2966       2965       3075       3076       3087       3086  
      2955       2956       2967       2966       3076       3077       3088       3087  
      2956       2957       2968       2967       3077       3078       3089       3088  
      2957       2958       2969       2968       3078       3079       3090       3089  
      2958       2959       2970       2969       3079       3080       3091       3090  
      2960       2961       2972       2971       3081       3082       3093       3092  
      2961       2962       2973       2972       3082       3083       3094       3093  
      2962       2963       2974       2973       3083       3084       3095       3094  
      2963       2964       2975       2974       3084       3085       3096       3095  
      2964       2965       2976       2975       3085       3086       3097       3096  
      2965       2966       2977       2976       3086       3087       3098       3097  
      2966       2967       2978       2977       3087       3088       3099       3098  
      2967       2968       2979       2978       3088       3089       3100       3099  
      2968       2969       2980       2979       3089       3090       3101       3100  
      2969       2970       2981       2980       3090       3091       3102       3101  
      2971       2972       2983       2982       3092       3093       3104       3103  
      2972       2973       2984       2983       3093       3094       3105       3104  
      2973       2974       2985       2984       3094       3095       3106       3105  
      2974       2975       2986       2985       3095       3096       3107       3106  
      2975       2976       2987       2986       3096       3097       3108       3107  
      2976       2977       2988       2987       3097       3098       3109       3108  
      2977       2978       2989       2988       3098       3099       3110       3109  
      2978       2979       2990       2989       3099       3100       3111       3110  
      2979       2980       2991       2990       3100       3101       3112       3111  
      2980       2981       2992       2991       3101       3102       3113       3112  
      2982       2983       2994       2993       3103       3104       3115       3114  
      2983       2984       2995       2994       3104       3105       3116       3115  
      2984       2985       2996       2995       3105       3106       3117       3116  
      2985       2986       2997       2996       3106       3107       3118       3117  
      2986       2987       2998       2997       3107       3108       3119       3118  
      2987       2988       2999       2998       3108       3109       3120       3119  
      2988       2989       3000       2999       3109       3110       3121       3120  
      2989       2990       3001       3000       3110       3111       3122       3121  
      2990       2991       3002       3001       3111       3112       3123       3122  
      2991       2992       3003       3002       3112       3113       3124       3123  
      2993       2994       3005       3004       3114       3115       3126       3125  
      2994       2995       3006       3005       3115       3116       3127       3126  
      2995       2996       3007       3006       3116       3117       3128       3127  
      2996       2997       3008       3007       3117       3118       3129       3128  
      2997       2998       3009       3008       3118       3119       3130       3129  
      2998       2999       3010       3009       3119       3120       3131       3130  
      2999       3000       3011       3010       3120       3121       3132       3131  
      3000       3001       3012       3011       3121       3122       3133       3132  
      3001       3002       3013       3012       3122       3123       3134       3133  
      3002       3003       3014       3013       3123       3124       3135       3134  
      3004       3005       3016       3015       3125       3126       3137       3136  
      3005       3006       3017       3016       3126       3127       3138       3137  
      3006       3007       3018       3017       3127       3128       3139       3138  
      3007       3008       3019       3018       3128       3129       3140       3139  
      3008       3009       3020       3019       3129       3130       3141       3140  
      3009       3010       3021       3020       3130       3131       3142       3141  
      3010       3011       3022       3021       3131       3132       3143       3142  
      3011       3012       3023       3022       3132       3133       3144       3143  
      3012       3013       3024       3023       3133       3134       3145       3144  
      3013       3014       3025       3024       3134       3135       3146       3145  
      3026       3027       3038       3037       3147       3148       3159       3158  
      3027       3028       3039       3038       3148       3149       3160       3159  
      3028       3029       3040       3039       3149       3150       3161       3160  
      3029       3030       3041       3040       3150       3151       3162       3161  
      3030       3031       3042       3041       3151       3152       3163       3162  
      3031       3032       3043       3042       3152       3153       3164       3163  
      3032       3033       3044       3043       3153       3154       3165       3164  
      3033       3034       3045       3044       3154       3155       3166       3165  
      3034       3035       3046       3045       3155       3156       3167       3166  
      3035       3036       3047       3046       3156       3157       3168       3167  
      3037       3038       3049       3048       3158       3159       3170       3169  
      3038       3039       3050       3049       3159       3160       3171       3170  
      3039       3040       3051       3050       3160       3161       3172       3171  
      3040       3041       3052       3051       3161       3162       3173       3172  
      3041       3042       3053       3052       3162       3163       3174       3173  
      3042       3043       3054       3053       3163       3164       3175       3174  
      3043       3044       3055       3054       3164       3165       3176       3175  
      3044       3045       3056       3055       3165       3166       3177       3176  
      3045       3046       3057       3056       3166       3167       3178       3177  
      3046       3047       3058       3057       3167       3168       3179       3178  
      3048       3049       3060       3059       3169       3170       3181       3180  
      3049       3050       3061       3060       3170       3171       3182       3181  
      3050       3051       3062       3061       3171       3172       3183       3182  
      3051       3052       3063       3062       3172       3173       3184       3183  
      3052       3053       3064       3063       3173       3174       3185       3184  
      3053       3054       3065       3064       3174       3175       3186       3185  
      3054       3055       3066       3065       3175       3176       3187       3186  
      3055       3056       3067       3066       3176       3177       3188       3187  
      3056       3057       3068       3067       3177       3178       3189       3188  
      3057       3058       3069       3068       3178       3179       3190       3189  
      3059       3060       3071       3070       3180       3181       3192       3191  
      3060       3061       3072       3071       3181       3182       3193       3192  
      3061       3062       3073       3072       3182       3183       3194       3193  
      3062       3063       3074       3073       3183       3184       3195       3194  
      3063       3064       3075       3074       3184       3185       3196       3195  
      3064       3065       3076       3075       3185       3186       3197       3196  
      3065       3066       3077       3076       3186       3187       3198       3197  
      3066       3067       3078       3077       3187       3188       3199       3198  
      3067       3068       3079       3078       3188       3189       3200       3199  
      3068       3069       3080       3079       3189       3190       3201       3200  
      3070       3071       3082       3081       3191       3192       3203       3202  
      3071       3072       3083       3082       3192       3193       3204       3203  
      3072       3073       3084       3083       3193       3194       3205       3204  
      3073       3074       3085       3084       3194       3195       3206       3205  
      3074       3075       3086       3085       3195       3196       3207       3206  
      3075       3076       3087       3086       3196       3197       3208       3207  
      3076       3077       3088       3087       3197       3198       3209       3208  
      3077       3078       3089       3088       3198       3199       3210       3209  
      3078       3079       3090       3089       3199       3200       3211       3210  
      3079       3080       3091       3090       3200       3201       3212       3211  
      3081       3082       3093       3092       3202       3203       3214       3213  
      3082       3083       3094       3093       3203       3204       3215       3214  
      3083       3084       3095       3094       3204       3205       3216       3215  
      3084       3085       3096       3095       3205       3206       3217       3216  
      3085       3086       3097       3096       3206       3207       3218       3217  
      3086       3087       3098       3097       3207       3208       3219       3218  
      3087       3088       3099       3098       3208       3209       3220       3219  
      3088       3089       3100       3099       3209       3210       3221       3220  
      3089       3090       3101       3100       3210       3211       3222       3221  
      3090       3091       3102       3101       3211       3212       3223       3222  
      3092       3093       3104       3103       3213       3214       3225       3224  
      3093       3094       3105       3104       3214       3215       3226       3225  
      3094       3095       3106       3105       3215       3216       3227       3226  
      3095       3096       3107       3106       3216       3217       3228       3227  
      3096       3097       3108       3107       3217       3218       3229       3228  
      3097       3098       3109       3108       3218       3219       3230       3229  
      3098       3099       3110       3109       3219       3220       3231       3230  
      3099       3100       3111       3110       3220       3221       3232       3231  
      3100       3101       3112       3111       3221       3222       3233       3232  
      3101       3102       3113       3112       3222       3223       3234       3233  
      3103       3104       3115       3114       3224       3225       3236       3235  
      3104       3105       3116       3115       3225       3226       3237       3236  
      3105       3106       3117       3116       3226       3227       3238       3237  
      3106       3107       3118       3117       3227       3228       3239       3238  
      3107       3108       3119       3118       3228       3229       3240       3239  
      3108       3109       3120       3119       3229       3230       3241       3240  
      3109       3110       3121       3120       3230       3231       3242       3241  
      3110       3111       3122       3121       3231       3232       3243       3242  
      3111       3112       3123       3122       3232       3233       3244       3243  
      3112       3113       3124       3123       3233       3234       3245       3244  
      3114       3115       3126       3125       3235       3236       3247       3246  
      3115       3116       3127       3126       3236       3237       3248       3247  
      3116       3117       3128       3127       3237       3238       3249       3248  
      3117       3118       3129       3128       3238       3239       3250       3249  
      3118       3119       3130       3129       3239       3240       3251       3250  
      3119       3120       3131       3130       3240       3241       3252       3251  
      3120       3121       3132       3131       3241       3242       3253       3252  
      3121       3122       3133       3132       3242       3243       3254       3253  
      3122       3123       3134       3133       3243       3244       3255       3254  
      3123       3124       3135       3134       3244       3245       3256       3255  
      3125       3126       3137       3136       3246       3247       3258       3257  
      3126       3127       3138       3137       3247       3248       3259       3258  
      3127       3128       3139       3138       3248       3249       3260       3259  
      3128       3129       3140       3139       3249       3250       3261       3260  
      3129       3130       3141       3140       3250       3251       3262       3261  
      3130       3131       3142       3141       3251       3252       3263       3262  
      3131       3132       3143       3142       3252       3253       3264       3263  
      3132       3133       3144       3143       3253       3254       3265       3264  
      3133       3134       3145       3144       3254       3255       3266       3265  
      3134       3135       3146       3145       3255       3256       3267       3266  
      3147       3148       3159       3158       3268       3269       3280       3279  
      3148       3149       3160       3159       3269       3270       3281       3280  
      3149       3150       3161       3160       3270       3271       3282       3281  
      3150       3151       3162       3161       3271       3272       3283       3282  
      3151       3152       3163       3162       3272       3273       3284       3283  
      3152       3153       3164       3163       3273       3274       3285       3284  
      3153       3154       3165       3164       3274       3275       3286       3285  
      3154       3155       3166       3165       3275       3276       3287       3286  
      3155       3156       3167       3166       3276       3277       3288       3287  
      3156       3157       3168       3167       3277       3278       3289       3288  
      3158       3159       3170       3169       3279       3280       3291       3290  
      3159       3160       3171       3170       3280       3281       3292       3291  
      3160       3161       3172       3171       3281       3282       3293       3292  
      3161       3162       3173       3172       3282       3283       3294       3293  
      3162       3163       3174       3173       3283       3284       3295       3294  
      3163       3164       3175       3174       3284       3285       3296       3295  
      3164       3165       3176       3175       3285       3286       3297       3296  
      3165       3166       3177       3176       3286       3287       3298       3297  
      3166       3167       3178       3177       3287       3288       3299       3298  
      3167       3168       3179       3178       3288       3289       3300       3299  
      3169       3170       3181       3180       3290       3291       3302       3301  
      3170       3171       3182       3181       3291       3292       3303       3302  
      3171       3172       3183       3182       3292       3293       3304       3303  
      3172       3173       3184       3183       3293       3294       3305       3304  
      3173       3174       3185       3184       3294       3295       3306       3305  
      3174       3175       3186       3185       3295       3296       3307       3306  
      3175       3176       3187       3186       3296       3297       3308       3307  
      3176       3177       3188       3187       3297       3298       3309       3308  
      3177       3178       3189       3188       3298       3299       3310       3309  
      3178       3179       3190       3189       3299       3300       3311       3310  
      3180       3181       3192       3191       3301       3302       3313       3312  
      3181       3182       3193       3192       3302       3303       3314       3313  
      3182       3183       3194       3193       3303       3304       3315       3314  
      3183       3184       3195       3194       3304       3305       3316       3315  
      3184       3185       3196       3195       3305       3306       3317       3316  
      3185       3186       3197       3196       3306       3307       3318       3317  
      3186       3187       3198       3197       3307       3308       3319       3318  
      3187       3188       3199       3198       3308       3309       3320       3319  
      3188       3189       3200       3199       3309       3310       3321       3320  
      3189       3190       3201       3200       3310       3311       3322       3321  
      3191       3192       3203       3202       3312       3313       3324       3323  
      3192       3193       3204       3203       3313       3314       3325       3324  
      3193       3194       3205       3204       3314       3315       3326       3325  
      3194       3195       3206       3205       3315       3316       3327       3326  
      3195       3196       3207       3206       3316       3317       3328       3327  
      3196       3197       3208       3207       3317       3318       3329       3328  
      3197       3198       3209       3208       3318       3319       3330       3329  
      3198       3199       3210       3209       3319       3320       3331       3330  
      3199       3200       3211       3210       3320       3321       3332       3331  
      3200       3201       3212       3211       3321       3322       3333       3332  
      3202       3203       3214       3213       3323       3324       3335       3334  
      3203       3204       3215       3214       3324       3325       3336       3335  
      3204       3205       3216       3215       3325       3326       3337       3336  
      3205       3206       3217       3216       3326       3327       3338       3337  
      3206       3207       3218       3217       3327       3328       3339       3338  
      3207       3208       3219       3218       3328       3329       3340       3339  
      3208       3209       3220       3219       3329       3330       3341       3340  
      3209       3210       3221       3220       3330       3331       3342       3341  
      3210       3211       3222       3221       3331       3332       3343       3342  
      3211       3212       3223       3222       3332       3333       3344       3343  
      3213       3214       3225       3224       3334       3335       3346       3345  
      3214       3215       3226       3225       3335       3336       3347       3346  
      3215       3216       3227       3226       3336       3337       3348       3347  
      3216       3217       3228       3227       3337       3338       3349       3348  
      3217       3218       3229       3228       3338       3339       3350       3349  
      3218       3219       3230       3229       3339       3340       3351       3350  
      3219       3220       3231       3230       3340       3341       3352       3351  
      3220       3221       3232       3231       3341       3342       3353       3352  
      3221       3222       3233       3232       3342       3343       3354       3353  
      3222       3223       3234       3233       3343       3344       3355       3354  
      3224       3225       3236       3235       3345       3346       3357       3356  
      3225       3226       3237       3236       3346       3347       3358       3357  
      3226       3227       3238       3237       3347       3348       3359       3358  
      3227       3228       3239       3238       3348       3349       3360       3359  
      3228       3229       3240       3239       3349       3350       3361       3360  
      3229       3230       3241       3240       3350       3351       3362       3361  
      3230       3231       3242       3241       3351       3352       3363       3362  
      3231       3232       3243       3242       3352       3353       3364       3363  
      3232       3233       3244       3243       3353       3354       3365       3364  
      3233       3234       3245       3244       3354       3355       3366       3365  
      3235       3236       3247       3246       3356       3357       3368       3367  
      3236       3237       3248       3247       3357       3358       3369       3368  
      3237       3238       3249       3248       3358       3359       3370       3369  
      3238       3239       3250       3249       3359       3360       3371       3370  
      3239       3240       3251       3250       3360       3361       3372       3371  
      3240       3241       3252       3251       3361       3362       3373       3372  
      3241       3242       3253       3252       3362       3363       3374       3373  
      3242       3243       3254       3253       3363       3364       3375       3374  
      3243       3244       3255       3254       3364       3365       3376       3375  
      3244       3245       3256       3255       3365       3366       3377       3376  
      3246       3247       3258       3257       3367       3368       3379       3378  
      3247       3248       3259       3258       3368       3369       3380       3379  
      3248       3249       3260       3259       3369       3370       3381       3380  
      3249       3250       3261       3260       3370       3371       3382       3381  
      3250       3251       3262       3261       3371       3372       3383       3382  
      3251       3252       3263       3262       3372       3373       3384       3383  
      3252       3253       3264       3263       3373       3374       3385       3384  
      3253       3254       3265       3264       3374       3375       3386       3385  
      3254       3255       3266       3265       3375       3376       3387       3386  
      3255       3256       3267       3266       3376       3377       3388       3387  
      3268       3269       3280       3279       3389       3390       3401       3400  
      3269       3270       3281       3280       3390       3391       3402       3401  
      3270       3271       3282       3281       3391       3392       3403       3402  
      3271       3272       3283       3282       3392       3393       3404       3403  
      3272       3273       3284       3283       3393       3394       3405       3404  
      3273       3274       3285       3284       3394       3395       3406       3405  
      3274       3275       3286       3285       3395       3396       3407       3406  
      3275       3276       3287       3286       3396       3397       3408       3407  
      3276       3277       3288       3287       3397       3398       3409       3408  
      3277       3278       3289       3288       3398       3399       3410       3409  
      3279       3280       3291       3290       3400       3401       3412       3411  
      3280       3281       3292       3291       3401       3402       3413       3412  
      3281       3282       3293       3292       3402       3403       3414       3413  
      3282       3283       3294       3293       3403       3404       3415       3414  
      3283       3284       3295       3294       3404       3405       3416       3415  
      3284       3285       3296       3295       3405       3406       3417       3416  
      3285       3286       3297       3296       3406       3407       3418       3417  
      3286       3287       3298       3297       3407       3408       3419       3418  
      3287       3288       3299       3298       3408       3409       3420       3419  
      3288       3289       3300       3299       3409       3410       3421       3420  
      3290       3291       3302       3301       3411       3412       3423       3422  
      3291       3292       3303       3302       3412       3413       3424       3423  
      3292       3293       3304       3303       3413       3414       3425       3424  
      3293       3294       3305       3304       3414       3415       3426       3425  
      3294       3295       3306       3305       3415       3416       3427       3426  
      3295       3296       3307       3306       3416       3417       3428       3427  
      3296       3297       3308       3307       3417       3418       3429       3428  
      3297       3298       3309       3308       3418       3419       3430       3429  
      3298       3299       3310       3309       3419       3420       3431       3430  
      3299       3300       3311       3310       3420       3421       3432       3431  
      3301       3302       3313       3312       3422       3423       3434       3433  
      3302       3303       3314       3313       3423       3424       3435       3434  
      3303       3304       3315       3314       3424       3425       3436       3435  
      3304       3305       3316       3315       3425       3426       3437       3436  
      3305       3306       3317       3316       3426       3427       3438       3437  
      3306       3307       3318       3317       3427       3428       3439       3438  
      3307       3308       3319       3318       3428       3429       3440       3439  
      3308       3309       3320       3319       3429       3430       3441       3440  
      3309       3310       3321       3320       3430       3431       3442       3441  
      3310       3311       3322       3321       3431       3432       3443       3442  
      3312       3313       3324       3323       3433       3434       3445       3444  
      3313       3314       3325       3324       3434       3435       3446       3445  
      3314       3315       3326       3325       3435       3436       3447       3446  
      3315       3316       3327       3326       3436       3437       3448       3447  
      3316       3317       3328       3327       3437       3438       3449       3448  
      3317       3318       3329       3328       3438       3439       3450       3449  
      3318       3319       3330       3329       3439       3440       3451       3450  
      3319       3320       3331       3330       3440       3441       3452       3451  
      3320       3321       3332       3331       3441       3442       3453       3452  
      3321       3322       3333       3332       3442       3443       3454       3453  
      3323       3324       3335       3334       3444       3445       3456       3455  
      3324       3325       3336       3335       3445       3446       3457       3456  
      3325       3326       3337       3336       3446       3447       3458       3457  
      3326       3327       3338       3337       3447       3448       3459       3458  
      3327       3328       3339       3338       3448       3449       3460       3459  
      3328       3329       3340       3339       3449       3450       3461       3460  
      3329       3330       3341       3340       3450       3451       3462       3461  
      3330       3331       3342       3341       3451       3452       3463       3462  
      3331       3332       3343       3342       3452       3453       3464       3463  
      3332       3333       3344       3343       3453       3454       3465       3464  
      3334       3335       3346       3345       3455       3456       3467       3466  
      3335       3336       3347       3346       3456       3457       3468       3467  
      3336       3337       3348       3347       3457       3458       3469       3468  
      3337       3338       3349       3348       3458       3459       3470       3469  
      3338       3339       3350       3349       3459       3460       3471       3470  
      3339       3340       3351       3350       3460       3461       3472       3471  
      3340       3341       3352       3351       3461       3462       3473       3472  
      3341       3342       3353       3352       3462       3463       3474       3473  
      3342       3343       3354       3353       3463       3464       3475       3474  
      3343       3344       3355       3354       3464       3465       3476       3475  
      3345       3346       3357       3356       3466       3467       3478       3477  
      3346       3347       3358       3357       3467       3468       3479       3478  
      3347       3348       3359       3358       3468       3469       3480       3479  
      3348       3349       3360       3359       3469       3470       3481       3480  
      3349       3350       3361       3360       3470       3471       3482       3481  
      3350       3351       3362       3361       3471       3472       3483       3482  
      3351       3352       3363       3362       3472       3473       3484       3483  
      3352       3353       3364       3363       3473       3474       3485       3484  
      3353       3354       3365       3364       3474       3475       3486       3485  
      3354       3355       3366       3365       3475       3476       3487       3486  
      3356       3357       3368       3367       3477       3478       3489       3488  
      3357       3358       3369       3368       3478       3479       3490       3489  
      3358       3359       3370       3369       3479       3480       3491       3490  
      3359       3360       3371       3370       3480       3481       3492       3491  
      3360       3361       3372       3371       3481       3482       3493       3492  
      3361       3362       3373       3372       3482       3483       3494       3493  
      3362       3363       3374       3373       3483       3484       3495       3494  
      3363       3364       3375       3374       3484       3485       3496       3495  
      3364       3365       3376       3375       3485       3486       3497       3496  
      3365       3366       3377       3376       3486       3487       3498       3497  
      3367       3368       3379       3378       3488       3489       3500       3499  
      3368       3369       3380       3379       3489       3490       3501       3500  
      3369       3370       3381       3380       3490       3491       3502       3501  
      3370       3371       3382       3381       3491       3492       3503       3502  
      3371       3372       3383       3382       3492       3493       3504       3503  
      3372       3373       3384       3383       3493       3494       3505       3504  
      3373       3374       3385       3384       3494       3495       3506       3505  
      3374       3375       3386       3385       3495       3496       3507       3506  
      3375       3376       3387       3386       3496       3497       3508       3507  
      3376       3377       3388       3387       3497       3498       3509       3508  
      3389       3390       3401       3400       3510       3511       3522       3521  
      3390       3391       3402       3401       3511       3512       3523       3522  
      3391       3392       3403       3402       3512       3513       3524       3523  
      3392       3393       3404       3403       3513       3514       3525       3524  
      3393       3394       3405       3404       3514       3515       3526       3525  
      3394       3395       3406       3405       3515       3516       3527       3526  
      3395       3396       3407       3406       3516       3517       3528       3527  
      3396       3397       3408       3407       3517       3518       3529       3528  
      3397       3398       3409       3408       3518       3519       3530       3529  
      3398       3399       3410       3409       3519       3520       3531       3530  
      3400       3401       3412       3411       3521       3522       3533       3532  
      3401       3402       3413       3412       3522       3523       3534       3533  
      3402       3403       3414       3413       3523       3524       3535       3534  
      3403       3404       3415       3414       3524       3525       3536       3535  
      3404       3405       3416       3415       3525       3526       3537       3536  
      3405       3406       3417       3416       3526       3527       3538       3537  
      3406       3407       3418       3417       3527       3528       3539       3538  
      3407       3408       3419       3418       3528       3529       3540       3539  
      3408       3409       3420       3419       3529       3530       3541       3540  
      3409       3410       3421       3420       3530       3531       3542       3541  
      3411       3412       3423       3422       3532       3533       3544       3543  
      3412       3413       3424       3423       3533       3534       3545       3544  
      3413       3414       3425       3424       3534       3535       3546       3545  
      3414       3415       3426       3425       3535       3536       3547       3546  
      3415       3416       3427       3426       3536       3537       3548       3547  
      3416       3417       3428       3427       3537       3538       3549       3548  
      3417       3418       3429       3428       3538       3539       3550       3549  
      3418       3419       3430       3429       3539       3540       3551       3550  
      3419       3420       3431       3430       3540       3541       3552       3551  
      3420       3421       3432       3431       3541       3542       3553       3552  
      3422       3423       3434       3433       3543       3544       3555       3554  
      3423       3424       3435       3434       3544       3545       3556       3555  
      3424       3425       3436       3435       3545       3546       3557       3556  
      3425       3426       3437       3436       3546       3547       3558       3557  
      3426       3427       3438       3437       3547       3548       3559       3558  
      3427       3428       3439       3438       3548       3549       3560       3559  
      3428       3429       3440       3439       3549       3550       3561       3560  
      3429       3430       3441       3440       3550       3551       3562       3561  
      3430       3431       3442       3441       3551       3552       3563       3562  
      3431       3432       3443       3442       3552       3553       3564       3563  
      3433       3434       3445       3444       3554       3555       3566       3565  
      3434       3435       3446       3445       3555       3556       3567       3566  
      3435       3436       3447       3446       3556       3557       3568       3567  
      3436       3437       3448       3447       3557       3558       3569       3568  
      3437       3438       3449       3448       3558       3559       3570       3569  
      3438       3439       3450       3449       3559       3560       3571       3570  
      3439       3440       3451       3450       3560       3561       3572       3571  
      3440       3441       3452       3451       3561       3562       3573       3572  
      3441       3442       3453       3452       3562       3563       3574       3573  
      3442       3443       3454       3453       3563       3564       3575       3574  
      3444       3445       3456       3455       3565       3566       3577       3576  
      3445       3446       3457       3456       3566       3567       3578       3577  
      3446       3447       3458       3457       3567       3568       3579       3578  
      3447       3448       3459       3458       3568       3569       3580       3579  
      3448       3449       3460       3459       3569       3570       3581       3580  
      3449       3450       3461       3460       3570       3571       3582       3581  
      3450       3451       3462       3461       3571       3572       3583       3582  
      3451       3452       3463       3462       3572       3573       3584       3583  
      3452       3453       3464       3463       3573       3574       3585       3584  
      3453       3454       3465       3464       3574       3575       3586       3585  
      3455       3456       3467       3466       3576       3577       3588       3587  
      3456       3457       3468       3467       3577       3578       3589       3588  
      3457       3458       3469       3468       3578       3579       3590       3589  
      3458       3459       3470       3469       3579       3580       3591       3590  
      3459       3460       3471       3470       3580       3581       3592       3591  
      3460       3461       3472       3471       3581       3582       3593       3592  
      3461       3462       3473       3472       3582       3583       3594       3593  
      3462       3463       3474       3473       3583       3584       3595       3594  
      3463       3464       3475       3474       3584       3585       3596       3595  
      3464       3465       3476       3475       3585       3586       3597       3596  
      3466       3467       3478       3477       3587       3588       3599       3598  
      3467       3468       3479       3478       3588       3589       3600       3599  
      3468       3469       3480       3479       3589       3590       3601       3600  
      3469       3470       3481       3480       3590       3591       3602       3601  
      3470       3471       3482       3481       3591       3592       3603       3602  
      3471       3472       3483       3482       3592       3593       3604       3603  
      3472       3473       3484       3483       3593       3594       3605       3604  
      3473       3474       3485       3484       3594       3595       3606       3605  
      3474       3475       3486       3485       3595       3596       3607       3606  
      3475       3476       3487       3486       3596       3597       3608       3607  
      3477       3478       3489       3488       3598       3599       3610       3609  
      3478       3479       3490       3489       3599       3600       3611       3610  
      3479       3480       3491       3490       3600       3601       3612       3611  
      3480       3481       3492       3491       3601       3602       3613       3612  
      3481       3482       3493       3492       3602       3603       3614       3613  
      3482       3483       3494       3493       3603       3604       3615       3614  
      3483       3484       3495       3494       3604       3605       3616       3615  
      3484       3485       3496       3495       3605       3606       3617       3616  
      3485       3486       3497       3496       3606       3607       3618       3617  
      3486       3487       3498       3497       3607       3608       3619       3618  
      3488       3489       3500       3499       3609       3610       3621       3620  
      3489       3490       3501       3500       3610       3611       3622       3621  
      3490       3491       3502       3501       3611       3612       3623       3622  
      3491       3492       3503       3502       3612       3613       3624       3623  
      3492       3493       3504       3503       3613       3614       3625       3624  
      3493       3494       3505       3504       3614       3615       3626       3625  
      3494       3495       3506       3505       3615       3616       3627       3626  
      3495       3496       3507       3506       3616       3617       3628       3627  
      3496       3497       3508       3507       3617       3618       3629       3628  
      3497       3498       3509       3508       3618       3619       3630       3629  
      3510       3511       3522       3521       3631       3632       3643       3642  
      3511       3512       3523       3522       3632       3633       3644       3643  
      3512       3513       3524       3523       3633       3634       3645       3644  
      3513       3514       3525       3524       3634       3635       3646       3645  
      3514       3515       3526       3525       3635       3636       3647       3646  
      3515       3516       3527       3526       3636       3637       3648       3647  
      3516       3517       3528       3527       3637       3638       3649       3648  
      3517       3518       3529       3528       3638       3639       3650       3649  
      3518       3519       3530       3529       3639       3640       3651       3650  
      3519       3520       3531       3530       3640       3641       3652       3651  
      3521       3522       3533       3532       3642       3643       3654       3653  
      3522       3523       3534       3533       3643       3644       3655       3654  
      3523       3524       3535       3534       3644       3645       3656       3655  
      3524       3525       3536       3535       3645       3646       3657       3656  
      3525       3526       3537       3536       3646       3647       3658       3657  
      3526       3527       3538       3537       3647       3648       3659       3658  
      3527       3528       3539       3538       3648       3649       3660       3659  
      3528       3529       3540       3539       3649       3650       3661       3660  
      3529       3530       3541       3540       3650       3651       3662       3661  
      3530       3531       3542       3541       3651       3652       3663       3662  
      3532       3533       3544       3543       3653       3654       3665       3664  
      3533       3534       3545       3544       3654       3655       3666       3665  
      3534       3535       3546       3545       3655       3656       3667       3666  
      3535       3536       3547       3546       3656       3657       3668       3667  
      3536       3537       3548       3547       3657       3658       3669       3668  
      3537       3538       3549       3548       3658       3659       3670       3669  
      3538       3539       3550       3549       3659       3660       3671       3670  
      3539       3540       3551       3550       3660       3661       3672       3671  
      3540       3541       3552       3551       3661       3662       3673       3672  
      3541       3542       3553       3552       3662       3663       3674       3673  
      3543       3544       3555       3554       3664       3665       3676       3675  
      3544       3545       3556       3555       3665       3666       3677       3676  
      3545       3546       3557       3556       3666       3667       3678       3677  
      3546       3547       3558       3557       3667       3668       3679       3678  
      3547       3548       3559       3558       3668       3669       3680       3679  
      3548       3549       3560       3559       3669       3670       3681       3680  
      3549       3550       3561       3560       3670       3671       3682       3681  
      3550       3551       3562       3561       3671       3672       3683       3682  
      3551       3552       3563       3562       3672       3673       3684       3683  
      3552       3553       3564       3563       3673       3674       3685       3684  
      3554       3555       3566       3565       3675       3676       3687       3686  
      3555       3556       3567       3566       3676       3677       3688       3687  
      3556       3557       3568       3567       3677       3678       3689       3688  
      3557       3558       3569       3568       3678       3679       3690       3689  
      3558       3559       3570       3569       3679       3680       3691       3690  
      3559       3560       3571       3570       3680       3681       3692       3691  
      3560       3561       3572       3571       3681       3682       3693       3692  
      3561       3562       3573       3572       3682       3683       3694       3693  
      3562       3563       3574       3573       3683       3684       3695       3694  
      3563       3564       3575       3574       3684       3685       3696       3695  
      3565       3566       3577       3576       3686       3687       3698       3697  
      3566       3567       3578       3577       3687       3688       3699       3698  
      3567       3568       3579       3578       3688       3689       3700       3699  
      3568       3569       3580       3579       3689       3690       3701       3700  
      3569       3570       3581       3580       3690       3691       3702       3701  
      3570       3571       3582       3581       3691       3692       3703       3702  
      3571       3572       3583       3582       3692       3693       3704       3703  
      3572       3573       3584       3583       3693       3694       3705       3704  
      3573       3574       3585       3584       3694       3695       3706       3705  
      3574       3575       3586       3585       3695       3696       3707       3706  
      3576       3577       3588       3587       3697       3698       3709       3708  
      3577       3578       3589       3588       3698       3699       3710       3709  
      3578       3579       3590       3589       3699       3700       3711       3710  
      3579       3580       3591       3590       3700       3701       3712       3711  
      3580       3581       3592       3591       3701       3702       3713       3712  
      3581       3582       3593       3592       3702       3703       3714       3713  
      3582       3583       3594       3593       3703       3704       3715       3714  
      3583       3584       3595       3594       3704       3705       3716       3715  
      3584       3585       3596       3595       3705       3706       3717       3716  
      3585       3586       3597       3596       3706       3707       3718       3717  
      3587       3588       3599       3598       3708       3709       3720       3719  
      3588       3589       3600       3599       3709       3710       3721       3720  
      3589       3590       3601       3600       3710       3711       3722       3721  
      3590       3591       3602       3601       3711       3712       3723       3722  
      3591       3592       3603       3602       3712       3713       3724       3723  
      3592       3593       3604       3603       3713       3714       3725       3724  
      3593       3594       3605       3604       3714       3715       3726       3725  
      3594       3595       3606       3605       3715       3716       3727       3726  
      3595       3596       3607       3606       3716       3717       3728       3727  
      3596       3597       3608       3607       3717       3718       3729       3728  
      3598       3599       3610       3609       3719       3720       3731       3730  
      3599       3600       3611       3610       3720       3721       3732       3731  
      3600       3601       3612       3611       3721       3722       3733       3732  
      3601       3602       3613       3612       3722       3723       3734       3733  
      3602       3603       3614       3613       3723       3724       3735       3734  
      3603       3604       3615       3614       3724       3725       3736       3735  
      3604       3605       3616       3615       3725       3726       3737       3736  
      3605       3606       3617       3616       3726       3727       3738       3737  
      3606       3607       3618       3617       3727       3728       3739       3738  
      3607       3608       3619       3618       3728       3729       3740       3739  
      3609       3610       3621       3620       3730       3731       3742       3741  
      3610       3611       3622       3621       3731       3732       3743       3742  
      3611       3612       3623       3622       3732       3733       3744       3743  
      3612       3613       3624       3623       3733       3734       3745       3744  
      3613       3614       3625       3624       3734       3735       3746       3745  
      3614       3615       3626       3625       3735       3736       3747       3746  
      3615       3616       3627       3626       3736       3737       3748       3747  
      3616       3617       3628       3627       3737       3738       3749       3748  
      3617       3618       3629       3628       3738       3739       3750       3749  
      3618       3619       3630       3629       3739       3740       3751       3750  
      3631       3632       3643       3642       3752       3753       3764       3763  
      3632       3633       3644       3643       3753       3754       3765       3764  
      3633       3634       3645       3644       3754       3755       3766       3765  
      3634       3635       3646       3645       3755       3756       3767       3766  
      3635       3636       3647       3646       3756       3757       3768       3767  
      3636       3637       3648       3647       3757       3758       3769       3768  
      3637       3638       3649       3648       3758       3759       3770       3769  
      3638       3639       3650       3649       3759       3760       3771       3770  
      3639       3640       3651       3650       3760       3761       3772       3771  
      3640       3641       3652       3651       3761       3762       3773       3772  
      3642       3643       3654       3653       3763       3764       3775       3774  
      3643       3644       3655       3654       3764       3765       3776       3775  
      3644       3645       3656       3655       3765       3766       3777       3776  
      3645       3646       3657       3656       3766       3767       3778       3777  
      3646       3647       3658       3657       3767       3768       3779       3778  
      3647       3648       3659       3658       3768       3769       3780       3779  
      3648       3649       3660       3659       3769       3770       3781       3780  
      3649       3650       3661       3660       3770       3771       3782       3781  
      3650       3651       3662       3661       3771       3772       3783       3782  
      3651       3652       3663       3662       3772       3773       3784       3783  
      3653       3654       3665       3664       3774       3775       3786       3785  
      3654       3655       3666       3665       3775       3776       3787       3786  
      3655       3656       3667       3666       3776       3777       3788       3787  
      3656       3657       3668       3667       3777       3778       3789       3788  
      3657       3658       3669       3668       3778       3779       3790       3789  
      3658       3659       3670       3669       3779       3780       3791       3790  
      3659       3660       3671       3670       3780       3781       3792       3791  
      3660       3661       3672       3671       3781       3782       3793       3792  
      3661       3662       3673       3672       3782       3783       3794       3793  
      3662       3663       3674       3673       3783       3784       3795       3794  
      3664       3665       3676       3675       3785       3786       3797       3796  
      3665       3666       3677       3676       3786       3787       3798       3797  
      3666       3667       3678       3677       3787       3788       3799       3798  
      3667       3668       3679       3678       3788       3789       3800       3799  
      3668       3669       3680       3679       3789       3790       3801       3800  
      3669       3670       3681       3680       3790       3791       3802       3801  
      3670       3671       3682       3681       3791       3792       3803       3802  
      3671       3672       3683       3682       3792       3793       3804       3803  
      3672       3673       3684       3683       3793       3794       3805       3804  
      3673       3674       3685       3684       3794       3795       3806       3805  
      3675       3676       3687       3686       3796       3797       3808       3807  
      3676       3677       3688       3687       3797       3798       3809       3808  
      3677       3678       3689       3688       3798       3799       3810       3809  
      3678       3679       3690       3689       3799       3800       3811       3810  
      3679       3680       3691       3690       3800       3801       3812       3811  
      3680       3681       3692       3691       3801       3802       3813       3812  
      3681       3682       3693       3692       3802       3803       3814       3813  
      3682       3683       3694       3693       3803       3804       3815       3814  
      3683       3684       3695       3694       3804       3805       3816       3815  
      3684       3685       3696       3695       3805       3806       3817       3816  
      3686       3687       3698       3697       3807       3808       3819       3818  
      3687       3688       3699       3698       3808       3809       3820       3819  
      3688       3689       3700       3699       3809       3810       3821       3820  
      3689       3690       3701       3700       3810       3811       3822       3821  
      3690       3691       3702       3701       3811       3812       3823       3822  
      3691       3692       3703       3702       3812       3813       3824       3823  
      3692       3693       3704       3703       3813       3814       3825       3824  
      3693       3694       3705       3704       3814       3815       3826       3825  
      3694       3695       3706       3705       3815       3816       3827       3826  
      3695       3696       3707       3706       3816       3817       3828       3827  
      3697       3698       3709       3708       3818       3819       3830       3829  
      3698       3699       3710       3709       3819       3820       3831       3830  
      3699       3700       3711       3710       3820       3821       3832       3831  
      3700       3701       3712       3711       3821       3822       3833       3832  
      3701       3702       3713       3712       3822       3823       3834       3833  
      3702       3703       3714       3713       3823       3824       3835       3834  
      3703       3704       3715       3714       3824       3825       3836       3835  
      3704       3705       3716       3715       3825       3826       3837       3836  
      3705       3706       3717       3716       3826       3827       3838       3837  
      3706       3707       3718       3717       3827       3828       3839       3838  
      3708       3709       3720       3719       3829       3830       3841       3840  
      3709       3710       3721       3720       3830       3831       3842       3841  
      3710       3711       3722       3721       3831       3832       3843       3842  
      3711       3712       3723       3722       3832       3833       3844       3843  
      3712       3713       3724       3723       3833       3834       3845       3844  
      3713       3714       3725       3724       3834       3835       3846       3845  
      3714       3715       3726       3725       3835       3836       3847       3846  
      3715       3716       3727       3726       3836       3837       3848       3847  
      3716       3717       3728       3727       3837       3838       3849       3848  
      3717       3718       3729       3728       3838       3839       3850       3849  
      3719       3720       3731       3730       3840       3841       3852       3851  
      3720       3721       3732       3731       3841       3842       3853       3852  
      3721       3722       3733       3732       3842       3843       3854       3853  
      3722       3723       3734       3733       3843       3844       3855       3854  
      3723       3724       3735       3734       3844       3845       3856       3855  
      3724       3725       3736       3735       3845       3846       3857       3856  
      3725       3726       3737       3736       3846       3847       3858       3857  
      3726       3727       3738       3737       3847       3848       3859       3858  
      3727       3728       3739       3738       3848       3849       3860       3859  
      3728       3729       3740       3739       3849       3850       3861       3860  
      3730       3731       3742       3741       3851       3852       3863       3862  
      3731       3732       3743       3742       3852       3853       3864       3863  
      3732       3733       3744       3743       3853       3854       3865       3864  
      3733       3734       3745       3744       3854       3855       3866       3865  
      3734       3735       3746       3745       3855       3856       3867       3866  
      3735       3736       3747       3746       3856       3857       3868       3867  
      3736       3737       3748       3747       3857       3858       3869       3868  
      3737       3738       3749       3748       3858       3859       3870       3869  
      3738       3739       3750       3749       3859       3860       3871       3870  
      3739       3740       3751       3750       3860       3861       3872       3871  
      3752       3753       3764       3763       3873       3874       3885       3884  
      3753       3754       3765       3764       3874       3875       3886       3885  
      3754       3755       3766       3765       3875       3876       3887       3886  
      3755       3756       3767       3766       3876       3877       3888       3887  
      3756       3757       3768       3767       3877       3878       3889       3888  
      3757       3758       3769       3768       3878       3879       3890       3889  
      3758       3759       3770       3769       3879       3880       3891       3890  
      3759       3760       3771       3770       3880       3881       3892       3891  
      3760       3761       3772       3771       3881       3882       3893       3892  
      3761       3762       3773       3772       3882       3883       3894       3893  
      3763       3764       3775       3774       3884       3885       3896       3895  
      3764       3765       3776       3775       3885       3886       3897       3896  
      3765       3766       3777       3776       3886       3887       3898       3897  
      3766       3767       3778       3777       3887       3888       3899       3898  
      3767       3768       3779       3778       3888       3889       3900       3899  
      3768       3769       3780       3779       3889       3890       3901       3900  
      3769       3770       3781       3780       3890       3891       3902       3901  
      3770       3771       3782       3781       3891       3892       3903       3902  
      3771       3772       3783       3782       3892       3893       3904       3903  
      3772       3773       3784       3783       3893       3894       3905       3904  
      3774       3775       3786       3785       3895       3896       3907       3906  
      3775       3776       3787       3786       3896       3897       3908       3907  
      3776       3777       3788       3787       3897       3898       3909       3908  
      3777       3778       3789       3788       3898       3899       3910       3909  
      3778       3779       3790       3789       3899       3900       3911       3910  
      3779       3780       3791       3790       3900       3901       3912       3911  
      3780       3781       3792       3791       3901       3902       3913       3912  
      3781       3782       3793       3792       3902       3903       3914       3913  
      3782       3783       3794       3793       3903       3904       3915       3914  
      3783       3784       3795       3794       3904       3905       3916       3915  
      3785       3786       3797       3796       3906       3907       3918       3917  
      3786       3787       3798       3797       3907       3908       3919       3918  
      3787       3788       3799       3798       3908       3909       3920       3919  
      3788       3789       3800       3799       3909       3910       3921       3920  
      3789       3790       3801       3800       3910       3911       3922       3921  
      3790       3791       3802       3801       3911       3912       3923       3922  
      3791       3792       3803       3802       3912       3913       3924       3923  
      3792       3793       3804       3803       3913       3914       3925       3924  
      3793       3794       3805       3804       3914       3915       3926       3925  
      3794       3795       3806       3805       3915       3916       3927       3926  
      3796       3797       3808       3807       3917       3918       3929       3928  
      3797       3798       3809       3808       3918       3919       3930       3929  
      3798       3799       3810       3809       3919       3920       3931       3930  
      3799       3800       3811       3810       3920       3921       3932       3931  
      3800       3801       3812       3811       3921       3922       3933       3932  
      3801       3802       3813       3812       3922       3923       3934       3933  
      3802       3803       3814       3813       3923       3924       3935       3934  
      3803       3804       3815       3814       3924       3925       3936       3935  
      3804       3805       3816       3815       3925       3926       3937       3936  
      3805       3806       3817       3816       3926       3927       3938       3937  
      3807       3808       3819       3818       3928       3929       3940       3939  
      3808       3809       3820       3819       3929       3930       3941       3940  
      3809       3810       3821       3820       3930       3931       3942       3941  
      3810       3811       3822       3821       3931       3932       3943       3942  
      3811       3812       3823       3822       3932       3933       3944       3943  
      3812       3813       3824       3823       3933       3934       3945       3944  
      3813       3814       3825       3824       3934       3935       3946       3945  
      3814       3815       3826       3825       3935       3936       3947       3946  
      3815       3816       3827       3826       3936       3937       3948       3947  
      3816       3817       3828       3827       3937       3938       3949       3948  
      3818       3819       3830       3829       3939       3940       3951       3950  
      3819       3820       3831       3830       3940       3941       3952       3951  
      3820       3821       3832       3831       3941       3942       3953       3952  
      3821       3822       3833       3832       3942       3943       3954       3953  
      3822       3823       3834       3833       3943       3944       3955       3954  
      3823       3824       3835       3834       3944       3945       3956       3955  
      3824       3825       3836       3835       3945       3946       3957       3956  
      3825       3826       3837       3836       3946       3947       3958       3957  
      3826       3827       3838       3837       3947       3948       3959       3958  
      3827       3828       3839       3838       3948       3949       3960       3959  
      3829       3830       3841       3840       3950       3951       3962       3961  
      3830       3831       3842       3841       3951       3952       3963       3962  
      3831       3832       3843       3842       3952       3953       3964       3963  
      3832       3833       3844       3843       3953       3954       3965       3964  
      3833       3834       3845       3844       3954       3955       3966       3965  
      3834       3835       3846       3845       3955       3956       3967       3966  
      3835       3836       3847       3846       3956       3957       3968       3967  
      3836       3837       3848       3847       3957       3958       3969       3968  
      3837       3838       3849       3848       3958       3959       3970       3969  
      3838       3839       3850       3849       3959       3960       3971       3970  
      3840       3841       3852       3851       3961       3962       3973       3972  
      3841       3842       3853       3852       3962       3963       3974       3973  
      3842       3843       3854       3853       3963       3964       3975       3974  
      3843       3844       3855       3854       3964       3965       3976       3975  
      3844       3845       3856       3855       3965       3966       3977       3976  
      3845       3846       3857       3856       3966       3967       3978       3977  
      3846       3847       3858       3857       3967       3968       3979       3978  
      3847       3848       3859       3858       3968       3969       3980       3979  
      3848       3849       3860       3859       3969       3970       3981       3980  
      3849       3850       3861       3860       3970       3971       3982       3981  
      3851       3852       3863       3862       3972       3973       3984       3983  
      3852       3853       3864       3863       3973       3974       3985       3984  
      3853       3854       3865       3864       3974       3975       3986       3985  
      3854       3855       3866       3865       3975       3976       3987       3986  
      3855       3856       3867       3866       3976       3977       3988       3987  
      3856       3857       3868       3867       3977       3978       3989       3988  
      3857       3858       3869       3868       3978       3979       3990       3989  
      3858       3859       3870       3869       3979       3980       3991       3990  
      3859       3860       3871       3870       3980       3981       3992       3991  
      3860       3861       3872       3871       3981       3982       3993       3992  
      3873       3874       3885       3884       3994       3995       4006       4005  
      3874       3875       3886       3885       3995       3996       4007       4006  
      3875       3876       3887       3886       3996       3997       4008       4007  
      3876       3877       3888       3887       3997       3998       4009       4008  
      3877       3878       3889       3888       3998       3999       4010       4009  
      3878       3879       3890       3889       3999       4000       4011       4010  
      3879       3880       3891       3890       4000       4001       4012       4011  
      3880       3881       3892       3891       4001       4002       4013       4012  
      3881       3882       3893       3892       4002       4003       4014       4013  
      3882       3883       3894       3893       4003       4004       4015       4014  
      3884       3885       3896       3895       4005       4006       4017       4016  
      3885       3886       3897       3896       4006       4007       4018       4017  
      3886       3887       3898       3897       4007       4008       4019       4018  
      3887       3888       3899       3898       4008       4009       4020       4019  
      3888       3889       3900       3899       4009       4010       4021       4020  
      3889       3890       3901       3900       4010       4011       4022       4021  
      3890       3891       3902       3901       4011       4012       4023       4022  
      3891       3892       3903       3902       4012       4013       4024       4023  
      3892       3893       3904       3903       4013       4014       4025       4024  
      3893       3894       3905       3904       4014       4015       4026       4025  
      3895       3896       3907       3906       4016       4017       4028       4027  
      3896       3897       3908       3907       4017       4018       4029       4028  
      3897       3898       3909       3908       4018       4019       4030       4029  
      3898       3899       3910       3909       4019       4020       4031       4030  
      3899       3900       3911       3910       4020       4021       4032       4031  
      3900       3901       3912       3911       4021       4022       4033       4032  
      3901       3902       3913       3912       4022       4023       4034       4033  
      3902       3903       3914       3913       4023       4024       4035       4034  
      3903       3904       3915       3914       4024       4025       4036       4035  
      3904       3905       3916       3915       4025       4026       4037       4036  
      3906       3907       3918       3917       4027       4028       4039       4038  
      3907       3908       3919       3918       4028       4029       4040       4039  
      3908       3909       3920       3919       4029       4030       4041       4040  
      3909       3910       3921       3920       4030       4031       4042       4041  
      3910       3911       3922       3921       4031       4032       4043       4042  
      3911       3912       3923       3922       4032       4033       4044       4043  
      3912       3913       3924       3923       4033       4034       4045       4044  
      3913       3914       3925       3924       4034       4035       4046       4045  
      3914       3915       3926       3925       4035       4036       4047       4046  
      3915       3916       3927       3926       4036       4037       4048       4047  
      3917       3918       3929       3928       4038       4039       4050       4049  
      3918       3919       3930       3929       4039       4040       4051       4050  
      3919       3920       3931       3930       4040       4041       4052       4051  
      3920       3921       3932       3931       4041       4042       4053       4052  
      3921       3922       3933       3932       4042       4043       4054       4053  
      3922       3923       3934       3933       4043       4044       4055       4054  
      3923       3924       3935       3934       4044       4045       4056       4055  
      3924       3925       3936       3935       4045       4046       4057       4056  
      3925       3926       3937       3936       4046       4047       4058       4057  
      3926       3927       3938       3937       4047       4048       4059       4058  
      3928       3929       3940       3939       4049       4050       4061       4060  
      3929       3930       3941       3940       4050       4051       4062       4061  
      3930       3931       3942       3941       4051       4052       4063       4062  
      3931       3932       3943       3942       4052       4053       4064       4063  
      3932       3933       3944       3943       4053       4054       4065       4064  
      3933       3934       3945       3944       4054       4055       4066       4065  
      3934       3935       3946       3945       4055       4056       4067       4066  
      3935       3936       3947       3946       4056       4057       4068       4067  
      3936       3937       3948       3947       4057       4058       4069       4068  
      3937       3938       3949       3948       4058       4059       4070       4069  
      3939       3940       3951       3950       4060       4061       4072       4071  
      3940       3941       3952       3951       4061       4062       4073       4072  
      3941       3942       3953       3952       4062       4063       4074       4073  
      3942       3943       3954       3953       4063       4064       4075       4074  
      3943       3944       3955       3954       4064       4065       4076       4075  
      3944       3945       3956       3955       4065       4066       4077       4076  
      3945       3946       3957       3956       4066       4067       4078       4077  
      3946       3947       3958       3957       4067       4068       4079       4078  
      3947       3948       3959       3958       4068       4069       4080       4079  
      3948       3949       3960       3959       4069       4070       4081       4080  
      3950       3951       3962       3961       4071       4072       4083       4082  
      3951       3952       3963       3962       4072       4073       4084       4083  
      3952       3953       3964       3963       4073       4074       4085       4084  
      3953       3954       3965       3964       4074       4075       4086       4085  
      3954       3955       3966       3965       4075       4076       4087       4086  
      3955       3956       3967       3966       4076       4077       4088       4087  
      3956       3957       3968       3967       4077       4078       4089       4088  
      3957       3958       3969       3968       4078       4079       4090       4089  
      3958       3959       3970       3969       4079       4080       4091       4090  
      3959       3960       3971       3970       4080       4081       4092       4091  
      3961       3962       3973       3972       4082       4083       4094       4093  
      3962       3963       3974       3973       4083       4084       4095       4094  
      3963       3964       3975       3974       4084       4085       4096       4095  
      3964       3965       3976       3975       4085       4086       4097       4096  
      3965       3966       3977       3976       4086       4087       4098       4097  
      3966       3967       3978       3977       4087       4088       4099       4098  
      3967       3968       3979       3978       4088       4089       4100       4099  
      3968       3969       3980       3979       4089       4090       4101       4100  
      3969       3970       3981       3980       4090       4091       4102       4101  
      3970       3971       3982       3981       4091       4092       4103       4102  
      3972       3973       3984       3983       4093       4094       4105       4104  
      3973       3974       3985       3984       4094       4095       4106       4105  
      3974       3975       3986       3985       4095       4096       4107       4106  
      3975       3976       3987       3986       4096       4097       4108       4107  
      3976       3977       3988       3987       4097       4098       4109       4108  
      3977       3978       3989       3988       4098       4099       4110       4109  
      3978       3979       3990       3989       4099       4100       4111       4110  
      3979       3980       3991       3990       4100       4101       4112       4111  
      3980       3981       3992       3991       4101       4102       4113       4112  
      3981       3982       3993       3992       4102       4103       4114       4113  
      3994       3995       4006       4005       4115       4116       4127       4126  
      3995       3996       4007       4006       4116       4117       4128       4127  
      3996       3997       4008       4007       4117       4118       4129       4128  
      3997       3998       4009       4008       4118       4119       4130       4129  
      3998       3999       4010       4009       4119       4120       4131       4130  
      3999       4000       4011       4010       4120       4121       4132       4131  
      4000       4001       4012       4011       4121       4122       4133       4132  
      4001       4002       4013       4012       4122       4123       4134       4133  
      4002       4003       4014       4013       4123       4124       4135       4134  
      4003       4004       4015       4014       4124       4125       4136       4135  
      4005       4006       4017       4016       4126       4127       4138       4137  
      4006       4007       4018       4017       4127       4128       4139       4138  
      4007       4008       4019       4018       4128       4129       4140       4139  
      4008       4009       4020       4019       4129       4130       4141       4140  
      4009       4010       4021       4020       4130       4131       4142       4141  
      4010       4011       4022       4021       4131       4132       4143       4142  
      4011       4012       4023       4022       4132       4133       4144       4143  
      4012       4013       4024       4023       4133       4134       4145       4144  
      4013       4014       4025       4024       4134       4135       4146       4145  
      4014       4015       4026       4025       4135       4136       4147       4146  
      4016       4017       4028       4027       4137       4138       4149       4148  
      4017       4018       4029       4028       4138       4139       4150       4149  
      4018       4019       4030       4029       4139       4140       4151       4150  
      4019       4020       4031       4030       4140       4141       4152       4151  
      4020       4021       4032       4031       4141       4142       4153       4152  
      4021       4022       4033       4032       4142       4143       4154       4153  
      4022       4023       4034       4033       4143       4144       4155       4154  
      4023       4024       4035       4034       4144       4145       4156       4155  
      4024       4025       4036       4035       4145       4146       4157       4156  
      4025       4026       4037       4036       4146       4147       4158       4157  
      4027       4028       4039       4038       4148       4149       4160       4159  
      4028       4029       4040       4039       4149       4150       4161       4160  
      4029       4030       4041       4040       4150       4151       4162       4161  
      4030       4031       4042       4041       4151       4152       4163       4162  
      4031       4032       4043       4042       4152       4153       4164       4163  
      4032       4033       4044       4043       4153       4154       4165       4164  
      4033       4034       4045       4044       4154       4155       4166       4165  
      4034       4035       4046       4045       4155       4156       4167       4166  
      4035       4036       4047       4046       4156       4157       4168       4167  
      4036       4037       4048       4047       4157       4158       4169       4168  
      4038       4039       4050       4049       4159       4160       4171       4170  
      4039       4040       4051       4050       4160       4161       4172       4171  
      4040       4041       4052       4051       4161       4162       4173       4172  
      4041       4042       4053       4052       4162       4163       4174       4173  
      4042       4043       4054       4053       4163       4164       4175       4174  
      4043       4044       4055       4054       4164       4165       4176       4175  
      4044       4045       4056       4055       4165       4166       4177       4176  
      4045       4046       4057       4056       4166       4167       4178       4177  
      4046       4047       4058       4057       4167       4168       4179       4178  
      4047       4048       4059       4058       4168       4169       4180       4179  
      4049       4050       4061       4060       4170       4171       4182       4181  
      4050       4051       4062       4061       4171       4172       4183       4182  
      4051       4052       4063       4062       4172       4173       4184       4183  
      4052       4053       4064       4063       4173       4174       4185       4184  
      4053       4054       4065       4064       4174       4175       4186       4185  
      4054       4055       4066       4065       4175       4176       4187       4186  
      4055       4056       4067       4066       4176       4177       4188       4187  
      4056       4057       4068       4067       4177       4178       4189       4188  
      4057       4058       4069       4068       4178       4179       4190       4189  
      4058       4059       4070       4069       4179       4180       4191       4190  
      4060       4061       4072       4071       4181       4182       4193       4192  
      4061       4062       4073       4072       4182       4183       4194       4193  
      4062       4063       4074       4073       4183       4184       4195       4194  
      4063       4064       4075       4074       4184       4185       4196       4195  
      4064       4065       4076       4075       4185       4186       4197       4196  
      4065       4066       4077       4076       4186       4187       4198       4197  
      4066       4067       4078       4077       4187       4188       4199       4198  
      4067       4068       4079       4078       4188       4189       4200       4199  
      4068       4069       4080       4079       4189       4190       4201       4200  
      4069       4070       4081       4080       4190       4191       4202       4201  
      4071       4072       4083       4082       4192       4193       4204       4203  
      4072       4073       4084       4083       4193       4194       4205       4204  
      4073       4074       4085       4084       4194       4195       4206       4205  
      4074       4075       4086       4085       4195       4196       4207       4206  
      4075       4076       4087       4086       4196       4197       4208       4207  
      4076       4077       4088       4087       4197       4198       4209       4208  
      4077       4078       4089       4088       4198       4199       4210       4209  
      4078       4079       4090       4089       4199       4200       4211       4210  
      4079       4080       4091       4090       4200       4201       4212       4211  
      4080       4081       4092       4091       4201       4202       4213       4212  
      4082       4083       4094       4093       4203       4204       4215       4214  
      4083       4084       4095       4094       4204       4205       4216       4215  
      4084       4085       4096       4095       4205       4206       4217       4216  
      4085       4086       4097       4096       4206       4207       4218       4217  
      4086       4087       4098       4097       4207       4208       4219       4218  
      4087       4088       4099       4098       4208       4209       4220       4219  
      4088       4089       4100       4099       4209       4210       4221       4220  
      4089       4090       4101       4100       4210       4211       4222       4221  
      4090       4091       4102       4101       4211       4212       4223       4222  
      4091       4092       4103       4102       4212       4213       4224       4223  
      4093       4094       4105       4104       4214       4215       4226       4225  
      4094       4095       4106       4105       4215       4216       4227       4226  
      4095       4096       4107       4106       4216       4217       4228       4227  
      4096       4097       4108       4107       4217       4218       4229       4228  
      4097       4098       4109       4108       4218       4219       4230       4229  
      4098       4099       4110       4109       4219       4220       4231       4230  
      4099       4100       4111       4110       4220       4221       4232       4231  
      4100       4101       4112       4111       4221       4222       4233       4232  
      4101       4102       4113       4112       4222       4223       4234       4233  
      4102       4103       4114       4113       4223       4224       4235       4234  
      4115       4116       4127       4126       4236       4237       4248       4247  
      4116       4117       4128       4127       4237       4238       4249       4248  
      4117       4118       4129       4128       4238       4239       4250       4249  
      4118       4119       4130       4129       4239       4240       4251       4250  
      4119       4120       4131       4130       4240       4241       4252       4251  
      4120       4121       4132       4131       4241       4242       4253       4252  
      4121       4122       4133       4132       4242       4243       4254       4253  
      4122       4123       4134       4133       4243       4244       4255       4254  
      4123       4124       4135       4134       4244       4245       4256       4255  
      4124       4125       4136       4135       4245       4246       4257       4256  
      4126       4127       4138       4137       4247       4248       4259       4258  
      4127       4128       4139       4138       4248       4249       4260       4259  
      4128       4129       4140       4139       4249       4250       4261       4260  
      4129       4130       4141       4140       4250       4251       4262       4261  
      4130       4131       4142       4141       4251       4252       4263       4262  
      4131       4132       4143       4142       4252       4253       4264       4263  
      4132       4133       4144       4143       4253       4254       4265       4264  
      4133       4134       4145       4144       4254       4255       4266       4265  
      4134       4135       4146       4145       4255       4256       4267       4266  
      4135       4136       4147       4146       4256       4257       4268       4267  
      4137       4138       4149       4148       4258       4259       4270       4269  
      4138       4139       4150       4149       4259       4260       4271       4270  
      4139       4140       4151       4150       4260       4261       4272       4271  
      4140       4141       4152       4151       4261       4262       4273       4272  
      4141       4142       4153       4152       4262       4263       4274       4273  
      4142       4143       4154       4153       4263       4264       4275       4274  
      4143       4144       4155       4154       4264       4265       4276       4275  
      4144       4145       4156       4155       4265       4266       4277       4276  
      4145       4146       4157       4156       4266       4267       4278       4277  
      4146       4147       4158       4157       4267       4268       4279       4278  
      4148       4149       4160       4159       4269       4270       4281       4280  
      4149       4150       4161       4160       4270       4271       4282       4281  
      4150       4151       4162       4161       4271       4272       4283       4282  
      4151       4152       4163       4162       4272       4273       4284       4283  
      4152       4153       4164       4163       4273       4274       4285       4284  
      4153       4154       4165       4164       4274       4275       4286       4285  
      4154       4155       4166       4165       4275       4276       4287       4286  
      4155       4156       4167       4166       4276       4277       4288       4287  
      4156       4157       4168       4167       4277       4278       4289       4288  
      4157       4158       4169       4168       4278       4279       4290       4289  
      4159       4160       4171       4170       4280       4281       4292       4291  
      4160       4161       4172       4171       4281       4282       4293       4292  
      4161       4162       4173       4172       4282       4283       4294       4293  
      4162       4163       4174       4173       4283       4284       4295       4294  
      4163       4164       4175       4174       4284       4285       4296       4295  
      4164       4165       4176       4175       4285       4286       4297       4296  
      4165       4166       4177       4176       4286       4287       4298       4297  
      4166       4167       4178       4177       4287       4288       4299       4298  
      4167       4168       4179       4178       4288       4289       4300       4299  
      4168       4169       4180       4179       4289       4290       4301       4300  
      4170       4171       4182       4181       4291       4292       4303       4302  
      4171       4172       4183       4182       4292       4293       4304       4303  
      4172       4173       4184       4183       4293       4294       4305       4304  
      4173       4174       4185       4184       4294       4295       4306       4305  
      4174       4175       4186       4185       4295       4296       4307       4306  
      4175       4176       4187       4186       4296       4297       4308       4307  
      4176       4177       4188       4187       4297       4298       4309       4308  
      4177       4178       4189       4188       4298       4299       4310       4309  
      4178       4179       4190       4189       4299       4300       4311       4310  
      4179       4180       4191       4190       4300       4301       4312       4311  
      4181       4182       4193       4192       4302       4303       4314       4313  
      4182       4183       4194       4193       4303       4304       4315       4314  
      4183       4184       4195       4194       4304       4305       4316       4315  
      4184       4185       4196       4195       4305       4306       4317       4316  
      4185       4186       4197       4196       4306       4307       4318       4317  
      4186       4187       4198       4197       4307       4308       4319       4318  
      4187       4188       4199       4198       4308       4309       4320       4319  
      4188       4189       4200       4199       4309       4310       4321       4320  
      4189       4190       4201       4200       4310       4311       4322       4321  
      4190       4191       4202       4201       4311       4312       4323       4322  
      4192       4193       4204       4203       4313       4314       4325       4324  
      4193       4194       4205       4204       4314       4315       4326       4325  
      4194       4195       4206       4205       4315       4316       4327       4326  
      4195       4196       4207       4206       4316       4317       4328       4327  
      4196       4197       4208       4207       4317       4318       4329       4328  
      4197       4198       4209       4208       4318       4319       4330       4329  
      4198       4199       4210       4209       4319       4320       4331       4330  
      4199       4200       4211       4210       4320       4321       4332       4331  
      4200       4201       4212       4211       4321       4322       4333       4332  
      4201       4202       4213       4212       4322       4323       4334       4333  
      4203       4204       4215       4214       4324       4325       4336       4335  
      4204       4205       4216       4215       4325       4326       4337       4336  
      4205       4206       4217       4216       4326       4327       4338       4337  
      4206       4207       4218       4217       4327       4328       4339       4338  
      4207       4208       4219       4218       4328       4329       4340       4339  
      4208       4209       4220       4219       4329       4330       4341       4340  
      4209       4210       4221       4220       4330       4331       4342       4341  
      4210       4211       4222       4221       4331       4332       4343       4342  
      4211       4212       4223       4222       4332       4333       4344       4343  
      4212       4213       4224       4223       4333       4334       4345       4344  
      4214       4215       4226       4225       4335       4336       4347       4346  
      4215       4216       4227       4226       4336       4337       4348       4347  
      4216       4217       4228       4227       4337       4338       4349       4348  
      4217       4218       4229       4228       4338       4339       4350       4349  
      4218       4219       4230       4229       4339       4340       4351       4350  
      4219       4220       4231       4230       4340       4341       4352       4351  
      4220       4221       4232       4231       4341       4342       4353       4352  
      4221       4222       4233       4232       4342       4343       4354       4353  
      4222       4223       4234       4233       4343       4344       4355       4354  
      4223       4224       4235       4234       4344       4345       4356       4355  
      4236       4237       4248       4247       4357       4358       4369       4368  
      4237       4238       4249       4248       4358       4359       4370       4369  
      4238       4239       4250       4249       4359       4360       4371       4370  
      4239       4240       4251       4250       4360       4361       4372       4371  
      4240       4241       4252       4251       4361       4362       4373       4372  
      4241       4242       4253       4252       4362       4363       4374       4373  
      4242       4243       4254       4253       4363       4364       4375       4374  
      4243       4244       4255       4254       4364       4365       4376       4375  
      4244       4245       4256       4255       4365       4366       4377       4376  
      4245       4246       4257       4256       4366       4367       4378       4377  
      4247       4248       4259       4258       4368       4369       4380       4379  
      4248       4249       4260       4259       4369       4370       4381       4380  
      4249       4250       4261       4260       4370       4371       4382       4381  
      4250       4251       4262       4261       4371       4372       4383       4382  
      4251       4252       4263       4262       4372       4373       4384       4383  
      4252       4253       4264       4263       4373       4374       4385       4384  
      4253       4254       4265       4264       4374       4375       4386       4385  
      4254       4255       4266       4265       4375       4376       4387       4386  
      4255       4256       4267       4266       4376       4377       4388       4387  
      4256       4257       4268       4267       4377       4378       4389       4388  
      4258       4259       4270       4269       4379       4380       4391       4390  
      4259       4260       4271       4270       4380       4381       4392       4391  
      4260       4261       4272       4271       4381       4382       4393       4392  
      4261       4262       4273       4272       4382       4383       4394       4393  
      4262       4263       4274       4273       4383       4384       4395       4394  
      4263       4264       4275       4274       4384       4385       4396       4395  
      4264       4265       4276       4275       4385       4386       4397       4396  
      4265       4266       4277       4276       4386       4387       4398       4397  
      4266       4267       4278       4277       4387       4388       4399       4398  
      4267       4268       4279       4278       4388       4389       4400       4399  
      4269       4270       4281       4280       4390       4391       4402       4401  
      4270       4271       4282       4281       4391       4392       4403       4402  
      4271       4272       4283       4282       4392       4393       4404       4403  
      4272       4273       4284       4283       4393       4394       4405       4404  
      4273       4274       4285       4284       4394       4395       4406       4405  
      4274       4275       4286       4285       4395       4396       4407       4406  
      4275       4276       4287       4286       4396       4397       4408       4407  
      4276       4277       4288       4287       4397       4398       4409       4408  
      4277       4278       4289       4288       4398       4399       4410       4409  
      4278       4279       4290       4289       4399       4400       4411       4410  
      4280       4281       4292       4291       4401       4402       4413       4412  
      4281       4282       4293       4292       4402       4403       4414       4413  
      4282       4283       4294       4293       4403       4404       4415       4414  
      4283       4284       4295       4294       4404       4405       4416       4415  
      4284       4285       4296       4295       4405       4406       4417       4416  
      4285       4286       4297       4296       4406       4407       4418       4417  
      4286       4287       4298       4297       4407       4408       4419       4418  
      4287       4288       4299       4298       4408       4409       4420       4419  
      4288       4289       4300       4299       4409       4410       4421       4420  
      4289       4290       4301       4300       4410       4411       4422       4421  
      4291       4292       4303       4302       4412       4413       4424       4423  
      4292       4293       4304       4303       4413       4414       4425       4424  
      4293       4294       4305       4304       4414       4415       4426       4425  
      4294       4295       4306       4305       4415       4416       4427       4426  
      4295       4296       4307       4306       4416       4417       4428       4427  
      4296       4297       4308       4307       4417       4418       4429       4428  
      4297       4298       4309       4308       4418       4419       4430       4429  
      4298       4299       4310       4309       4419       4420       4431       4430  
      4299       4300       4311       4310       4420       4421       4432       4431  
      4300       4301       4312       4311       4421       4422       4433       4432  
      4302       4303       4314       4313       4423       4424       4435       4434  
      4303       4304       4315       4314       4424       4425       4436       4435  
      4304       4305       4316       4315       4425       4426       4437       4436  
      4305       4306       4317       4316       4426       4427       4438       4437  
      4306       4307       4318       4317       4427       4428       4439       4438  
      4307       4308       4319       4318       4428       4429       4440       4439  
      4308       4309       4320       4319       4429       4430       4441       4440  
      4309       4310       4321       4320       4430       4431       4442       4441  
      4310       4311       4322       4321       4431       4432       4443       4442  
      4311       4312       4323       4322       4432       4433       4444       4443  
      4313       4314       4325       4324       4434       4435       4446       4445  
      4314       4315       4326       4325       4435       4436       4447       4446  
      4315       4316       4327       4326       4436       4437       4448       4447  
      4316       4317       4328       4327       4437       4438       4449       4448  
      4317       4318       4329       4328       4438       4439       4450       4449  
      4318       4319       4330       4329       4439       4440       4451       4450  
      4319       4320       4331       4330       4440       4441       4452       4451  
      4320       4321       4332       4331       4441       4442       4453       4452  
      4321       4322       4333       4332       4442       4443       4454       4453  
      4322       4323       4334       4333       4443       4444       4455       4454  
      4324       4325       4336       4335       4445       4446       4457       4456  
      4325       4326       4337       4336       4446       4447       4458       4457  
      4326       4327       4338       4337       4447       4448       4459       4458  
      4327       4328       4339       4338       4448       4449       4460       4459  
      4328       4329       4340       4339       4449       4450       4461       4460  
      4329       4330       4341       4340       4450       4451       4462       4461  
      4330       4331       4342       4341       4451       4452       4463       4462  
      4331       4332       4343       4342       4452       4453       4464       4463  
      4332       4333       4344       4343       4453       4454       4465       4464  
      4333       4334       4345       4344       4454       4455       4466       4465  
      4335       4336       4347       4346       4456       4457       4468       4467  
      4336       4337       4348       4347       4457       4458       4469       4468  
      4337       4338       4349       4348       4458       4459       4470       4469  
      4338       4339       4350       4349       4459       4460       4471       4470  
      4339       4340       4351       4350       4460       4461       4472       4471  
      4340       4341       4352       4351       4461       4462       4473       4472  
      4341       4342       4353       4352       4462       4463       4474       4473  
      4342       4343       4354       4353       4463       4464       4475       4474  
      4343       4344       4355       4354       4464       4465       4476       4475  
      4344       4345       4356       4355       4465       4466       4477       4476  
      4357       4358       4369       4368       4478       4479       4490       4489  
      4358       4359       4370       4369       4479       4480       4491       4490  
      4359       4360       4371       4370       4480       4481       4492       4491  
      4360       4361       4372       4371       4481       4482       4493       4492  
      4361       4362       4373       4372       4482       4483       4494       4493  
      4362       4363       4374       4373       4483       4484       4495       4494  
      4363       4364       4375       4374       4484       4485       4496       4495  
      4364       4365       4376       4375       4485       4486       4497       4496  
      4365       4366       4377       4376       4486       4487       4498       4497  
      4366       4367       4378       4377       4487       4488       4499       4498  
      4368       4369       4380       4379       4489       4490       4501       4500  
      4369       4370       4381       4380       4490       4491       4502       4501  
      4370       4371       4382       4381       4491       4492       4503       4502  
      4371       4372       4383       4382       4492       4493       4504       4503  
      4372       4373       4384       4383       4493       4494       4505       4504  
      4373       4374       4385       4384       4494       4495       4506       4505  
      4374       4375       4386       4385       4495       4496       4507       4506  
      4375       4376       4387       4386       4496       4497       4508       4507  
      4376       4377       4388       4387       4497       4498       4509       4508  
      4377       4378       4389       4388       4498       4499       4510       4509  
      4379       4380       4391       4390       4500       4501       4512       4511  
      4380       4381       4392       4391       4501       4502       4513       4512  
      4381       4382       4393       4392       4502       4503       4514       4513  
      4382       4383       4394       4393       4503       4504       4515       4514  
      4383       4384       4395       4394       4504       4505       4516       4515  
      4384       4385       4396       4395       4505       4506       4517       4516  
      4385       4386       4397       4396       4506       4507       4518       4517  
      4386       4387       4398       4397       4507       4508       4519       4518  
      4387       4388       4399       4398       4508       4509       4520       4519  
      4388       4389       4400       4399       4509       4510       4521       4520  
      4390       4391       4402       4401       4511       4512       4523       4522  
      4391       4392       4403       4402       4512       4513       4524       4523  
      4392       4393       4404       4403       4513       4514       4525       4524  
      4393       4394       4405       4404       4514       4515       4526       4525  
      4394       4395       4406       4405       4515       4516       4527       4526  
      4395       4396       4407       4406       4516       4517       4528       4527  
      4396       4397       4408       4407       4517       4518       4529       4528  
      4397       4398       4409       4408       4518       4519       4530       4529  
      4398       4399       4410       4409       4519       4520       4531       4530  
      4399       4400       4411       4410       4520       4521       4532       4531  
      4401       4402       4413       4412       4522       4523       4534       4533  
      4402       4403       4414       4413       4523       4524       4535       4534  
      4403       4404       4415       4414       4524       4525       4536       4535  
      4404       4405       4416       4415       4525       4526       4537       4536  
      4405       4406       4417       4416       4526       4527       4538       4537  
      4406       4407       4418       4417       4527       4528       4539       4538  
      4407       4408       4419       4418       4528       4529       4540       4539  
      4408       4409       4420       4419       4529       4530       4541       4540  
      4409       4410       4421       4420       4530       4531       4542       4541  
      4410       4411       4422       4421       4531       4532       4543       4542  
      4412       4413       4424       4423       4533       4534       4545       4544  
      4413       4414       4425       4424       4534       4535       4546       4545  
      4414       4415       4426       4425       4535       4536       4547       4546  
      4415       4416       4427       4426       4536       4537       4548       4547  
      4416       4417       4428       4427       4537       4538       4549       4548  
      4417       4418       4429       4428       4538       4539       4550       4549  
      4418       4419       4430       4429       4539       4540       4551       4550  
      4419       4420       4431       4430       4540       4541       4552       4551  
      4420       4421       4432       4431       4541       4542       4553       4552  
      4421       4422       4433       4432       4542       4543       4554       4553  
      4423       4424       4435       4434       4544       4545       4556       4555  
      4424       4425       4436       4435       4545       4546       4557       4556  
      4425       4426       4437       4436       4546       4547       4558       4557  
      4426       4427       4438       4437       4547       4548       4559       4558  
      4427       4428       4439       4438       4548       4549       4560       4559  
      4428       4429       4440       4439       4549       4550       4561       4560  
      4429       4430       4441       4440       4550       4551       4562       4561  
      4430       4431       4442       4441       4551       4552       4563       4562  
      4431       4432       4443       4442       4552       4553       4564       4563  
      4432       4433       4444       4443       4553       4554       4565       4564  
      4434       4435       4446       4445       4555       4556       4567       4566  
      4435       4436       4447       4446       4556       4557       4568       4567  
      4436       4437       4448       4447       4557       4558       4569       4568  
      4437       4438       4449       4448       4558       4559       4570       4569  
      4438       4439       4450       4449       4559       4560       4571       4570  
      4439       4440       4451       4450       4560       4561       4572       4571  
      4440       4441       4452       4451       4561       4562       4573       4572  
      4441       4442       4453       4452       4562       4563       4574       4573  
      4442       4443       4454       4453       4563       4564       4575       4574  
      4443       4444       4455       4454       4564       4565       4576       4575  
      4445       4446       4457       4456       4566       4567       4578       4577  
      4446       4447       4458       4457       4567       4568       4579       4578  
      4447       4448       4459       4458       4568       4569       4580       4579  
      4448       4449       4460       4459       4569       4570       4581       4580  
      4449       4450       4461       4460       4570       4571       4582       4581  
      4450       4451       4462       4461       4571       4572       4583       4582  
      4451       4452       4463       4462       4572       4573       4584       4583  
      4452       4453       4464       4463       4573       4574       4585       4584  
      4453       4454       4465       4464       4574       4575       4586       4585  
      4454       4455       4466       4465       4575       4576       4587       4586  
      4456       4457       4468       4467       4577       4578       4589       4588  
      4457       4458       4469       4468       4578       4579       4590       4589  
      4458       4459       4470       4469       4579       4580       4591       4590  
      4459       4460       4471       4470       4580       4581       4592       4591  
      4460       4461       4472       4471       4581       4582       4593       4592  
      4461       4462       4473       4472       4582       4583       4594       4593  
      4462       4463       4474       4473       4583       4584       4595       4594  
      4463       4464       4475       4474       4584       4585       4596       4595  
      4464       4465       4476       4475       4585       4586       4597       4596  
      4465       4466       4477       4476       4586       4587       4598       4597  
      4478       4479       4490       4489       4599       4600       4611       4610  
      4479       4480       4491       4490       4600       4601       4612       4611  
      4480       4481       4492       4491       4601       4602       4613       4612  
      4481       4482       4493       4492       4602       4603       4614       4613  
      4482       4483       4494       4493       4603       4604       4615       4614  
      4483       4484       4495       4494       4604       4605       4616       4615  
      4484       4485       4496       4495       4605       4606       4617       4616  
      4485       4486       4497       4496       4606       4607       4618       4617  
      4486       4487       4498       4497       4607       4608       4619       4618  
      4487       4488       4499       4498       4608       4609       4620       4619  
      4489       4490       4501       4500       4610       4611       4622       4621  
      4490       4491       4502       4501       4611       4612       4623       4622  
      4491       4492       4503       4502       4612       4613       4624       4623  
      4492       4493       4504       4503       4613       4614       4625       4624  
      4493       4494       4505       4504       4614       4615       4626       4625  
      4494       4495       4506       4505       4615       4616       4627       4626  
      4495       4496       4507       4506       4616       4617       4628       4627  
      4496       4497       4508       4507       4617       4618       4629       4628  
      4497       4498       4509       4508       4618       4619       4630       4629  
      4498       4499       4510       4509       4619       4620       4631       4630  
      4500       4501       4512       4511       4621       4622       4633       4632  
      4501       4502       4513       4512       4622       4623       4634       4633  
      4502       4503       4514       4513       4623       4624       4635       4634  
      4503       4504       4515       4514       4624       4625       4636       4635  
      4504       4505       4516       4515       4625       4626       4637       4636  
      4505       4506       4517       4516       4626       4627       4638       4637  
      4506       4507       4518       4517       4627       4628       4639       4638  
      4507       4508       4519       4518       4628       4629       4640       4639  
      4508       4509       4520       4519       4629       4630       4641       4640  
      4509       4510       4521       4520       4630       4631       4642       4641  
      4511       4512       4523       4522       4632       4633       4644       4643  
      4512       4513       4524       4523       4633       4634       4645       4644  
      4513       4514       4525       4524       4634       4635       4646       4645  
      4514       4515       4526       4525       4635       4636       4647       4646  
      4515       4516       4527       4526       4636       4637       4648       4647  
      4516       4517       4528       4527       4637       4638       4649       4648  
      4517       4518       4529       4528       4638       4639       4650       4649  
      4518       4519       4530       4529       4639       4640       4651       4650  
      4519       4520       4531       4530       4640       4641       4652       4651  
      4520       4521       4532       4531       4641       4642       4653       4652  
      4522       4523       4534       4533       4643       4644       4655       4654  
      4523       4524       4535       4534       4644       4645       4656       4655  
      4524       4525       4536       4535       4645       4646       4657       4656  
      4525       4526       4537       4536       4646       4647       4658       4657  
      4526       4527       4538       4537       4647       4648       4659       4658  
      4527       4528       4539       4538       4648       4649       4660       4659  
      4528       4529       4540       4539       4649       4650       4661       4660  
      4529       4530       4541       4540       4650       4651       4662       4661  
      4530       4531       4542       4541       4651       4652       4663       4662  
      4531       4532       4543       4542       4652       4653       4664       4663  
      4533       4534       4545       4544       4654       4655       4666       4665  
      4534       4535       4546       4545       4655       4656       4667       4666  
      4535       4536       4547       4546       4656       4657       4668       4667  
      4536       4537       4548       4547       4657       4658       4669       4668  
      4537       4538       4549       4548       4658       4659       4670       4669  
      4538       4539       4550       4549       4659       4660       4671       4670  
      4539       4540       4551       4550       4660       4661       4672       4671  
      4540       4541       4552       4551       4661       4662       4673       4672  
      4541       4542       4553       4552       4662       4663       4674       4673  
      4542       4543       4554       4553       4663       4664       4675       4674  
      4544       4545       4556       4555       4665       4666       4677       4676  
      4545       4546       4557       4556       4666       4667       4678       4677  
      4546       4547       4558       4557       4667       4668       4679       4678  
      4547       4548       4559       4558       4668       4669       4680       4679  
      4548       4549       4560       4559       4669       4670       4681       4680  
      4549       4550       4561       4560       4670       4671       4682       4681  
      4550       4551       4562       4561       4671       4672       4683       4682  
      4551       4552       4563       4562       4672       4673       4684       4683  
      4552       4553       4564       4563       4673       4674       4685       4684  
      4553       4554       4565       4564       4674       4675       4686       4685  
      4555       4556       4567       4566       4676       4677       4688       4687  
      4556       4557       4568       4567       4677       4678       4689       4688  
      4557       4558       4569       4568       4678       4679       4690       4689  
      4558       4559       4570       4569       4679       4680       4691       4690  
      4559       4560       4571       4570       4680       4681       4692       4691  
      4560       4561       4572       4571       4681       4682       4693       4692  
      4561       4562       4573       4572       4682       4683       4694       4693  
      4562       4563       4574       4573       4683       4684       4695       4694  
      4563       4564       4575       4574       4684       4685       4696       4695  
      4564       4565       4576       4575       4685       4686       4697       4696  
      4566       4567       4578       4577       4687       4688       4699       4698  
      4567       4568       4579       4578       4688       4689       4700       4699  
      4568       4569       4580       4579       4689       4690       4701       4700  
      4569       4570       4581       4580       4690       4691       4702       4701  
      4570       4571       4582       4581       4691       4692       4703       4702  
      4571       4572       4583       4582       4692       4693       4704       4703  
      4572       4573       4584       4583       4693       4694       4705       4704  
      4573       4574       4585       4584       4694       4695       4706       4705  
      4574       4575       4586       4585       4695       4696       4707       4706  
      4575       4576       4587       4586       4696       4697       4708       4707  
      4577       4578       4589       4588       4698       4699       4710       4709  
      4578       4579       4590       4589       4699       4700       4711       4710  
      4579       4580       4591       4590       4700       4701       4712       4711  
      4580       4581       4592       4591       4701       4702       4713       4712  
      4581       4582       4593       4592       4702       4703       4714       4713  
      4582       4583       4594       4593       4703       4704       4715       4714  
      4583       4584       4595       4594       4704       4705       4716       4715  
      4584       4585       4596       4595       4705       4706       4717       4716  
      4585       4586       4597       4596       4706       4707       4718       4717  
      4586       4587       4598       4597       4707       4708       4719       4718  
      4599       4600       4611       4610       4720       4721       4732       4731  
      4600       4601       4612       4611       4721       4722       4733       4732  
      4601       4602       4613       4612       4722       4723       4734       4733  
      4602       4603       4614       4613       4723       4724       4735       4734  
      4603       4604       4615       4614       4724       4725       4736       4735  
      4604       4605       4616       4615       4725       4726       4737       4736  
      4605       4606       4617       4616       4726       4727       4738       4737  
      4606       4607       4618       4617       4727       4728       4739       4738  
      4607       4608       4619       4618       4728       4729       4740       4739  
      4608       4609       4620       4619       4729       4730       4741       4740  
      4610       4611       4622       4621       4731       4732       4743       4742  
      4611       4612       4623       4622       4732       4733       4744       4743  
      4612       4613       4624       4623       4733       4734       4745       4744  
      4613       4614       4625       4624       4734       4735       4746       4745  
      4614       4615       4626       4625       4735       4736       4747       4746  
      4615       4616       4627       4626       4736       4737       4748       4747  
      4616       4617       4628       4627       4737       4738       4749       4748  
      4617       4618       4629       4628       4738       4739       4750       4749  
      4618       4619       4630       4629       4739       4740       4751       4750  
      4619       4620       4631       4630       4740       4741       4752       4751  
      4621       4622       4633       4632       4742       4743       4754       4753  
      4622       4623       4634       4633       4743       4744       4755       4754  
      4623       4624       4635       4634       4744       4745       4756       4755  
      4624       4625       4636       4635       4745       4746       4757       4756  
      4625       4626       4637       4636       4746       4747       4758       4757  
      4626       4627       4638       4637       4747       4748       4759       4758  
      4627       4628       4639       4638       4748       4749       4760       4759  
      4628       4629       4640       4639       4749       4750       4761       4760  
      4629       4630       4641       4640       4750       4751       4762       4761  
      4630       4631       4642       4641       4751       4752       4763       4762  
      4632       4633       4644       4643       4753       4754       4765       4764  
      4633       4634       4645       4644       4754       4755       4766       4765  
      4634       4635       4646       4645       4755       4756       4767       4766  
      4635       4636       4647       4646       4756       4757       4768       4767  
      4636       4637       4648       4647       4757       4758       4769       4768  
      4637       4638       4649       4648       4758       4759       4770       4769  
      4638       4639       4650       4649       4759       4760       4771       4770  
      4639       4640       4651       4650       4760       4761       4772       4771  
      4640       4641       4652       4651       4761       4762       4773       4772  
      4641       4642       4653       4652       4762       4763       4774       4773  
      4643       4644       4655       4654       4764       4765       4776       4775  
      4644       4645       4656       4655       4765       4766       4777       4776  
      4645       4646       4657       4656       4766       4767       4778       4777  
      4646       4647       4658       4657       4767       4768       4779       4778  
      4647       4648       4659       4658       4768       4769       4780       4779  
      4648       4649       4660       4659       4769       4770       4781       4780  
      4649       4650       4661       4660       4770       4771       4782       4781  
      4650       4651       4662       4661       4771       4772       4783       4782  
      4651       4652       4663       4662       4772       4773       4784       4783  
      4652       4653       4664       4663       4773       4774       4785       4784  
      4654       4655       4666       4665       4775       4776       4787       4786  
      4655       4656       4667       4666       4776       4777       4788       4787  
      4656       4657       4668       4667       4777       4778       4789       4788  
      4657       4658       4669       4668       4778       4779       4790       4789  
      4658       4659       4670       4669       4779       4780       4791       4790  
      4659       4660       4671       4670       4780       4781       4792       4791  
      4660       4661       4672       4671       4781       4782       4793       4792  
      4661       4662       4673       4672       4782       4783       4794       4793  
      4662       4663       4674       4673       4783       4784       4795       4794  
      4663       4664       4675       4674       4784       4785       4796       4795  
      4665       4666       4677       4676       4786       4787       4798       4797  
      4666       4667       4678       4677       4787       4788       4799       4798  
      4667       4668       4679       4678       4788       4789       4800       4799  
      4668       4669       4680       4679       4789       4790       4801       4800  
      4669       4670       4681       4680       4790       4791       4802       4801  
      4670       4671       4682       4681       4791       4792       4803       4802  
      4671       4672       4683       4682       4792       4793       4804       4803  
      4672       4673       4684       4683       4793       4794       4805       4804  
      4673       4674       4685       4684       4794       4795       4806       4805  
      4674       4675       4686       4685       4795       4796       4807       4806  
      4676       4677       4688       4687       4797       4798       4809       4808  
      4677       4678       4689       4688       4798       4799       4810       4809  
      4678       4679       4690       4689       4799       4800       4811       4810  
      4679       4680       4691       4690       4800       4801       4812       4811  
      4680       4681       4692       4691       4801       4802       4813       4812  
      4681       4682       4693       4692       4802       4803       4814       4813  
      4682       4683       4694       4693       4803       4804       4815       4814  
      4683       4684       4695       4694       4804       4805       4816       4815  
      4684       4685       4696       4695       4805       4806       4817       4816  
      4685       4686       4697       4696       4806       4807       4818       4817  
      4687       4688       4699       4698       4808       4809       4820       4819  
      4688       4689       4700       4699       4809       4810       4821       4820  
      4689       4690       4701       4700       4810       4811       4822       4821  
      4690       4691       4702       4701       4811       4812       4823       4822  
      4691       4692       4703       4702       4812       4813       4824       4823  
      4692       4693       4704       4703       4813       4814       4825       4824  
      4693       4694       4705       4704       4814       4815       4826       4825  
      4694       4695       4706       4705       4815       4816       4827       4826  
      4695       4696       4707       4706       4816       4817       4828       4827  
      4696       4697       4708       4707       4817       4818       4829       4828  
      4698       4699       4710       4709       4819       4820       4831       4830  
      4699       4700       4711       4710       4820       4821       4832       4831  
      4700       4701       4712       4711       4821       4822       4833       4832  
      4701       4702       4713       4712       4822       4823       4834       4833  
      4702       4703       4714       4713       4823       4824       4835       4834  
      4703       4704       4715       4714       4824       4825       4836       4835  
      4704       4705       4716       4715       4825       4826       4837       4836  
      4705       4706       4717       4716       4826       4827       4838       4837  
      4706       4707       4718       4717       4827       4828       4839       4838  
      4707       4708       4719       4718       4828       4829       4840       4839  
      4720       4721       4732       4731       4841       4842       4853       4852  
      4721       4722       4733       4732       4842       4843       4854       4853  
      4722       4723       4734       4733       4843       4844       4855       4854  
      4723       4724       4735       4734       4844       4845       4856       4855  
      4724       4725       4736       4735       4845       4846       4857       4856  
      4725       4726       4737       4736       4846       4847       4858       4857  
      4726       4727       4738       4737       4847       4848       4859       4858  
      4727       4728       4739       4738       4848       4849       4860       4859  
      4728       4729       4740       4739       4849       4850       4861       4860  
      4729       4730       4741       4740       4850       4851       4862       4861  
      4731       4732       4743       4742       4852       4853       4864       4863  
      4732       4733       4744       4743       4853       4854       4865       4864  
      4733       4734       4745       4744       4854       4855       4866       4865  
      4734       4735       4746       4745       4855       4856       4867       4866  
      4735       4736       4747       4746       4856       4857       4868       4867  
      4736       4737       4748       4747       4857       4858       4869       4868  
      4737       4738       4749       4748       4858       4859       4870       4869  
      4738       4739       4750       4749       4859       4860       4871       4870  
      4739       4740       4751       4750       4860       4861       4872       4871  
      4740       4741       4752       4751       4861       4862       4873       4872  
      4742       4743       4754       4753       4863       4864       4875       4874  
      4743       4744       4755       4754       4864       4865       4876       4875  
      4744       4745       4756       4755       4865       4866       4877       4876  
      4745       4746       4757       4756       4866       4867       4878       4877  
      4746       4747       4758       4757       4867       4868       4879       4878  
      4747       4748       4759       4758       4868       4869       4880       4879  
      4748       4749       4760       4759       4869       4870       4881       4880  
      4749       4750       4761       4760       4870       4871       4882       4881  
      4750       4751       4762       4761       4871       4872       4883       4882  
      4751       4752       4763       4762       4872       4873       4884       4883  
      4753       4754       4765       4764       4874       4875       4886       4885  
      4754       4755       4766       4765       4875       4876       4887       4886  
      4755       4756       4767       4766       4876       4877       4888       4887  
      4756       4757       4768       4767       4877       4878       4889       4888  
      4757       4758       4769       4768       4878       4879       4890       4889  
      4758       4759       4770       4769       4879       4880       4891       4890  
      4759       4760       4771       4770       4880       4881       4892       4891  
      4760       4761       4772       4771       4881       4882       4893       4892  
      4761       4762       4773       4772       4882       4883       4894       4893  
      4762       4763       4774       4773       4883       4884       4895       4894  
      4764       4765       4776       4775       4885       4886       4897       4896  
      4765       4766       4777       4776       4886       4887       4898       4897  
      4766       4767       4778       4777       4887       4888       4899       4898  
      4767       4768       4779       4778       4888       4889       4900       4899  
      4768       4769       4780       4779       4889       4890       4901       4900  
      4769       4770       4781       4780       4890       4891       4902       4901  
      4770       4771       4782       4781       4891       4892       4903       4902  
      4771       4772       4783       4782       4892       4893       4904       4903  
      4772       4773       4784       4783       4893       4894       4905       4904  
      4773       4774       4785       4784       4894       4895       4906       4905  
      4775       4776       4787       4786       4896       4897       4908       4907  
      4776       4777       4788       4787       4897       4898       4909       4908  
      4777       4778       4789       4788       4898       4899       4910       4909  
      4778       4779       4790       4789       4899       4900       4911       4910  
      4779       4780       4791       4790       4900       4901       4912       4911  
      4780       4781       4792       4791       4901       4902       4913       4912  
      4781       4782       4793       4792       4902       4903       4914       4913  
      4782       4783       4794       4793       4903       4904       4915       4914  
      4783       4784       4795       4794       4904       4905       4916       4915  
      4784       4785       4796       4795       4905       4906       4917       4916  
      4786       4787       4798       4797       4907       4908       4919       4918  
      4787       4788       4799       4798       4908       4909       4920       4919  
      4788       4789       4800       4799       4909       4910       4921       4920  
      4789       4790       4801       4800       4910       4911       4922       4921  
      4790       4791       4802       4801       4911       4912       4923       4922  
      4791       4792       4803       4802       4912       4913       4924       4923  
      4792       4793       4804       4803       4913       4914       4925       4924  
      4793       4794       4805       4804       4914       4915       4926       4925  
      4794       4795       4806       4805       4915       4916       4927       4926  
      4795       4796       4807       4806       4916       4917       4928       4927  
      4797       4798       4809       4808       4918       4919       4930       4929  
      4798       4799       4810       4809       4919       4920       4931       4930  
      4799       4800       4811       4810       4920       4921       4932       4931  
      4800       4801       4812       4811       4921       4922       4933       4932  
      4801       4802       4813       4812       4922       4923       4934       4933  
      4802       4803       4814       4813       4923       4924       4935       4934  
      4803       4804       4815       4814       4924       4925       4936       4935  
      4804       4805       4816       4815       4925       4926       4937       4936  
      4805       4806       4817       4816       4926       4927       4938       4937  
      4806       4807       4818       4817       4927       4928       4939       4938  
      4808       4809       4820       4819       4929       4930       4941       4940  
      4809       4810       4821       4820       4930       4931       4942       4941  
      4810       4811       4822       4821       4931       4932       4943       4942  
      4811       4812       4823       4822       4932       4933       4944       4943  
      4812       4813       4824       4823       4933       4934       4945       4944  
      4813       4814       4825       4824       4934       4935       4946       4945  
      4814       4815       4826       4825       4935       4936       4947       4946  
      4815       4816       4827       4826       4936       4937       4948       4947  
      4816       4817       4828       4827       4937       4938       4949       4948  
      4817       4818       4829       4828       4938       4939       4950       4949  
      4819       4820       4831       4830       4940       4941       4952       4951  
      4820       4821       4832       4831       4941       4942       4953       4952  
      4821       4822       4833       4832       4942       4943       4954       4953  
      4822       4823       4834       4833       4943       4944       4955       4954  
      4823       4824       4835       4834       4944       4945       4956       4955  
      4824       4825       4836       4835       4945       4946       4957       4956  
      4825       4826       4837       4836       4946       4947       4958       4957  
      4826       4827       4838       4837       4947       4948       4959       4958  
      4827       4828       4839       4838       4948       4949       4960       4959  
      4828       4829       4840       4839       4949       4950       4961       4960  
      4841       4842       4853       4852       4962       4963       4974       4973  
      4842       4843       4854       4853       4963       4964       4975       4974  
      4843       4844       4855       4854       4964       4965       4976       4975  
      4844       4845       4856       4855       4965       4966       4977       4976  
      4845       4846       4857       4856       4966       4967       4978       4977  
      4846       4847       4858       4857       4967       4968       4979       4978  
      4847       4848       4859       4858       4968       4969       4980       4979  
      4848       4849       4860       4859       4969       4970       4981       4980  
      4849       4850       4861       4860       4970       4971       4982       4981  
      4850       4851       4862       4861       4971       4972       4983       4982  
      4852       4853       4864       4863       4973       4974       4985       4984  
      4853       4854       4865       4864       4974       4975       4986       4985  
      4854       4855       4866       4865       4975       4976       4987       4986  
      4855       4856       4867       4866       4976       4977       4988       4987  
      4856       4857       4868       4867       4977       4978       4989       4988  
      4857       4858       4869       4868       4978       4979       4990       4989  
      4858       4859       4870       4869       4979       4980       4991       4990  
      4859       4860       4871       4870       4980       4981       4992       4991  
      4860       4861       4872       4871       4981       4982       4993       4992  
      4861       4862       4873       4872       4982       4983       4994       4993  
      4863       4864       4875       4874       4984       4985       4996       4995  
      4864       4865       4876       4875       4985       4986       4997       4996  
      4865       4866       4877       4876       4986       4987       4998       4997  
      4866       4867       4878       4877       4987       4988       4999       4998  
      4867       4868       4879       4878       4988       4989       5000       4999  
      4868       4869       4880       4879       4989       4990       5001       5000  
      4869       4870       4881       4880       4990       4991       5002       5001  
      4870       4871       4882       4881       4991       4992       5003       5002  
      4871       4872       4883       4882       4992       4993       5004       5003  
      4872       4873       4884       4883       4993       4994       5005       5004  
      4874       4875       4886       4885       4995       4996       5007       5006  
      4875       4876       4887       4886       4996       4997       5008       5007  
      4876       4877       4888       4887       4997       4998       5009       5008  
      4877       4878       4889       4888       4998       4999       5010       5009  
      4878       4879       4890       4889       4999       5000       5011       5010  
      4879       4880       4891       4890       5000       5001       5012       5011  
      4880       4881       4892       4891       5001       5002       5013       5012  
      4881       4882       4893       4892       5002       5003       5014       5013  
      4882       4883       4894       4893       5003       5004       5015       5014  
      4883       4884       4895       4894       5004       5005       5016       5015  
      4885       4886       4897       4896       5006       5007       5018       5017  
      4886       4887       4898       4897       5007       5008       5019       5018  
      4887       4888       4899       4898       5008       5009       5020       5019  
      4888       4889       4900       4899       5009       5010       5021       5020  
      4889       4890       4901       4900       5010       5011       5022       5021  
      4890       4891       4902       4901       5011       5012       5023       5022  
      4891       4892       4903       4902       5012       5013       5024       5023  
      4892       4893       4904       4903       5013       5014       5025       5024  
      4893       4894       4905       4904       5014       5015       5026       5025  
      4894       4895       4906       4905       5015       5016       5027       5026  
      4896       4897       4908       4907       5017       5018       5029       5028  
      4897       4898       4909       4908       5018       5019       5030       5029  
      4898       4899       4910       4909       5019       5020       5031       5030  
      4899       4900       4911       4910       5020       5021       5032       5031  
      4900       4901       4912       4911       5021       5022       5033       5032  
      4901       4902       4913       4912       5022       5023       5034       5033  
      4902       4903       4914       4913       5023       5024       5035       5034  
      4903       4904       4915       4914       5024       5025       5036       5035  
      4904       4905       4916       4915       5025       5026       5037       5036  
      4905       4906       4917       4916       5026       5027       5038       5037  
      4907       4908       4919       4918       5028       5029       5040       5039  
      4908       4909       4920       4919       5029       5030       5041       5040  
      4909       4910       4921       4920       5030       5031       5042       5041  
      4910       4911       4922       4921       5031       5032       5043       5042  
      4911       4912       4923       4922       5032       5033       5044       5043  
      4912       4913       4924       4923       5033       5034       5045       5044  
      4913       4914       4925       4924       5034       5035       5046       5045  
      4914       4915       4926       4925       5035       5036       5047       5046  
      4915       4916       4927       4926       5036       5037       5048       5047  
      4916       4917       4928       4927       5037       5038       5049       5048  
      4918       4919       4930       4929       5039       5040       5051       5050  
      4919       4920       4931       4930       5040       5041       5052       5051  
      4920       4921       4932       4931       5041       5042       5053       5052  
      4921       4922       4933       4932       5042       5043       5054       5053  
      4922       4923       4934       4933       5043       5044       5055       5054  
      4923       4924       4935       4934       5044       5045       5056       5055  
      4924       4925       4936       4935       5045       5046       5057       5056  
      4925       4926       4937       4936       5046       5047       5058       5057  
      4926       4927       4938       4937       5047       5048       5059       5058  
      4927       4928       4939       4938       5048       5049       5060       5059  
      4929       4930       4941       4940       5050       5051       5062       5061  
      4930       4931       4942       4941       5051       5052       5063       5062  
      4931       4932       4943       4942       5052       5053       5064       5063  
      4932       4933       4944       4943       5053       5054       5065       5064  
      4933       4934       4945       4944       5054       5055       5066       5065  
      4934       4935       4946       4945       5055       5056       5067       5066  
      4935       4936       4947       4946       5056       5057       5068       5067  
      4936       4937       4948       4947       5057       5058       5069       5068  
      4937       4938       4949       4948       5058       5059       5070       5069  
      4938       4939       4950       4949       5059       5060       5071       5070  
      4940       4941       4952       4951       5061       5062       5073       5072  
      4941       4942       4953       4952       5062       5063       5074       5073  
      4942       4943       4954       4953       5063       5064       5075       5074  
      4943       4944       4955       4954       5064       5065       5076       5075  
      4944       4945       4956       4955       5065       5066       5077       5076  
      4945       4946       4957       4956       5066       5067       5078       5077  
      4946       4947       4958       4957       5067       5068       5079       5078  
      4947       4948       4959       4958       5068       5069       5080       5079  
      4948       4949       4960       4959       5069       5070       5081       5080  
      4949       4950       4961       4960       5070       5071       5082       5081  
      4962       4963       4974       4973       5083       5084       5095       5094  
      4963       4964       4975       4974       5084       5085       5096       5095  
      4964       4965       4976       4975       5085       5086       5097       5096  
      4965       4966       4977       4976       5086       5087       5098       5097  
      4966       4967       4978       4977       5087       5088       5099       5098  
      4967       4968       4979       4978       5088       5089       5100       5099  
      4968       4969       4980       4979       5089       5090       5101       5100  
      4969       4970       4981       4980       5090       5091       5102       5101  
      4970       4971       4982       4981       5091       5092       5103       5102  
      4971       4972       4983       4982       5092       5093       5104       5103  
      4973       4974       4985       4984       5094       5095       5106       5105  
      4974       4975       4986       4985       5095       5096       5107       5106  
      4975       4976       4987       4986       5096       5097       5108       5107  
      4976       4977       4988       4987       5097       5098       5109       5108  
      4977       4978       4989       4988       5098       5099       5110       5109  
      4978       4979       4990       4989       5099       5100       5111       5110  
      4979       4980       4991       4990       5100       5101       5112       5111  
      4980       4981       4992       4991       5101       5102       5113       5112  
      4981       4982       4993       4992       5102       5103       5114       5113  
      4982       4983       4994       4993       5103       5104       5115       5114  
      4984       4985       4996       4995       5105       5106       5117       5116  
      4985       4986       4997       4996       5106       5107       5118       5117  
      4986       4987       4998       4997       5107       5108       5119       5118  
      4987       4988       4999       4998       5108       5109       5120       5119  
      4988       4989       5000       4999       5109       5110       5121       5120  
      4989       4990       5001       5000       5110       5111       5122       5121  
      4990       4991       5002       5001       5111       5112       5123       5122  
      4991       4992       5003       5002       5112       5113       5124       5123  
      4992       4993       5004       5003       5113       5114       5125       5124  
      4993       4994       5005       5004       5114       5115       5126       5125  
      4995       4996       5007       5006       5116       5117       5128       5127  
      4996       4997       5008       5007       5117       5118       5129       5128  
      4997       4998       5009       5008       5118       5119       5130       5129  
      4998       4999       5010       5009       5119       5120       5131       5130  
      4999       5000       5011       5010       5120       5121       5132       5131  
      5000       5001       5012       5011       5121       5122       5133       5132  
      5001       5002       5013       5012       5122       5123       5134       5133  
      5002       5003       5014       5013       5123       5124       5135       5134  
      5003       5004       5015       5014       5124       5125       5136       5135  
      5004       5005       5016       5015       5125       5126       5137       5136  
      5006       5007       5018       5017       5127       5128       5139       5138  
      5007       5008       5019       5018       5128       5129       5140       5139  
      5008       5009       5020       5019       5129       5130       5141       5140  
      5009       5010       5021       5020       5130       5131       5142       5141  
      5010       5011       5022       5021       5131       5132       5143       5142  
      5011       5012       5023       5022       5132       5133       5144       5143  
      5012       5013       5024       5023       5133       5134       5145       5144  
      5013       5014       5025       5024       5134       5135       5146       5145  
      5014       5015       5026       5025       5135       5136       5147       5146  
      5015       5016       5027       5026       5136       5137       5148       5147  
      5017       5018       5029       5028       5138       5139       5150       5149  
      5018       5019       5030       5029       5139       5140       5151       5150  
      5019       5020       5031       5030       5140       5141       5152       5151  
      5020       5021       5032       5031       5141       5142       5153       5152  
      5021       5022       5033       5032       5142       5143       5154       5153  
      5022       5023       5034       5033       5143       5144       5155       5154  
      5023       5024       5035       5034       5144       5145       5156       5155  
      5024       5025       5036       5035       5145       5146       5157       5156  
      5025       5026       5037       5036       5146       5147       5158       5157  
      5026       5027       5038       5037       5147       5148       5159       5158  
      5028       5029       5040       5039       5149       5150       5161       5160  
      5029       5030       5041       5040       5150       5151       5162       5161  
      5030       5031       5042       5041       5151       5152       5163       5162  
      5031       5032       5043       5042       5152       5153       5164       5163  
      5032       5033       5044       5043       5153       5154       5165       5164  
      5033       5034       5045       5044       5154       5155       5166       5165  
      5034       5035       5046       5045       5155       5156       5167       5166  
      5035       5036       5047       5046       5156       5157       5168       5167  
      5036       5037       5048       5047       5157       5158       5169       5168  
      5037       5038       5049       5048       5158       5159       5170       5169  
      5039       5040       5051       5050       5160       5161       5172       5171  
      5040       5041       5052       5051       5161       5162       5173       5172  
      5041       5042       5053       5052       5162       5163       5174       5173  
      5042       5043       5054       5053       5163       5164       5175       5174  
      5043       5044       5055       5054       5164       5165       5176       5175  
      5044       5045       5056       5055       5165       5166       5177       5176  
      5045       5046       5057       5056       5166       5167       5178       5177  
      5046       5047       5058       5057       5167       5168       5179       5178  
      5047       5048       5059       5058       5168       5169       5180       5179  
      5048       5049       5060       5059       5169       5170       5181       5180  
      5050       5051       5062       5061       5171       5172       5183       5182  
      5051       5052       5063       5062       5172       5173       5184       5183  
      5052       5053       5064       5063       5173       5174       5185       5184  
      5053       5054       5065       5064       5174       5175       5186       5185  
      5054       5055       5066       5065       5175       5176       5187       5186  
      5055       5056       5067       5066       5176       5177       5188       5187  
      5056       5057       5068       5067       5177       5178       5189       5188  
      5057       5058       5069       5068       5178       5179       5190       5189  
      5058       5059       5070       5069       5179       5180       5191       5190  
      5059       5060       5071       5070       5180       5181       5192       5191  
      5061       5062       5073       5072       5182       5183       5194       5193  
      5062       5063       5074       5073       5183       5184       5195       5194  
      5063       5064       5075       5074       5184       5185       5196       5195  
      5064       5065       5076       5075       5185       5186       5197       5196  
      5065       5066       5077       5076       5186       5187       5198       5197  
      5066       5067       5078       5077       5187       5188       5199       5198  
      5067       5068       5079       5078       5188       5189       5200       5199  
      5068       5069       5080       5079       5189       5190       5201       5200  
      5069       5070       5081       5080       5190       5191       5202       5201  
      5070       5071       5082       5081       5191       5192       5203       5202  
      5083       5084       5095       5094       5204       5205       5216       5215  
      5084       5085       5096       5095       5205       5206       5217       5216  
      5085       5086       5097       5096       5206       5207       5218       5217  
      5086       5087       5098       5097       5207       5208       5219       5218  
      5087       5088       5099       5098       5208       5209       5220       5219  
      5088       5089       5100       5099       5209       5210       5221       5220  
      5089       5090       5101       5100       5210       5211       5222       5221  
      5090       5091       5102       5101       5211       5212       5223       5222  
      5091       5092       5103       5102       5212       5213       5224       5223  
      5092       5093       5104       5103       5213       5214       5225       5224  
      5094       5095       5106       5105       5215       5216       5227       5226  
      5095       5096       5107       5106       5216       5217       5228       5227  
      5096       5097       5108       5107       5217       5218       5229       5228  
      5097       5098       5109       5108       5218       5219       5230       5229  
      5098       5099       5110       5109       5219       5220       5231       5230  
      5099       5100       5111       5110       5220       5221       5232       5231  
      5100       5101       5112       5111       5221       5222       5233       5232  
      5101       5102       5113       5112       5222       5223       5234       5233  
      5102       5103       5114       5113       5223       5224       5235       5234  
      5103       5104       5115       5114       5224       5225       5236       5235  
      5105       5106       5117       5116       5226       5227       5238       5237  
      5106       5107       5118       5117       5227       5228       5239       5238  
      5107       5108       5119       5118       5228       5229       5240       5239  
      5108       5109       5120       5119       5229       5230       5241       5240  
      5109       5110       5121       5120       5230       5231       5242       5241  
      5110       5111       5122       5121       5231       5232       5243       5242  
      5111       5112       5123       5122       5232       5233       5244       5243  
      5112       5113       5124       5123       5233       5234       5245       5244  
      5113       5114       5125       5124       5234       5235       5246       5245  
      5114       5115       5126       5125       5235       5236       5247       5246  
      5116       5117       5128       5127       5237       5238       5249       5248  
      5117       5118       5129       5128       5238       5239       5250       5249  
      5118       5119       5130       5129       5239       5240       5251       5250  
      5119       5120       5131       5130       5240       5241       5252       5251  
      5120       5121       5132       5131       5241       5242       5253       5252  
      5121       5122       5133       5132       5242       5243       5254       5253  
      5122       5123       5134       5133       5243       5244       5255       5254  
      5123       5124       5135       5134       5244       5245       5256       5255  
      5124       5125       5136       5135       5245       5246       5257       5256  
      5125       5126       5137       5136       5246       5247       5258       5257  
      5127       5128       5139       5138       5248       5249       5260       5259  
      5128       5129       5140       5139       5249       5250       5261       5260  
      5129       5130       5141       5140       5250       5251       5262       5261  
      5130       5131       5142       5141       5251       5252       5263       5262  
      5131       5132       5143       5142       5252       5253       5264       5263  
      5132       5133       5144       5143       5253       5254       5265       5264  
      5133       5134       5145       5144       5254       5255       5266       5265  
      5134       5135       5146       5145       5255       5256       5267       5266  
      5135       5136       5147       5146       5256       5257       5268       5267  
      5136       5137       5148       5147       5257       5258       5269       5268  
      5138       5139       5150       5149       5259       5260       5271       5270  
      5139       5140       5151       5150       5260       5261       5272       5271  
      5140       5141       5152       5151       5261       5262       5273       5272  
      5141       5142       5153       5152       5262       5263       5274       5273  
      5142       5143       5154       5153       5263       5264       5275       5274  
      5143       5144       5155       5154       5264       5265       5276       5275  
      5144       5145       5156       5155       5265       5266       5277       5276  
      5145       5146       5157       5156       5266       5267       5278       5277  
      5146       5147       5158       5157       5267       5268       5279       5278  
      5147       5148       5159       5158       5268       5269       5280       5279  
      5149       5150       5161       5160       5270       5271       5282       5281  
      5150       5151       5162       5161       5271       5272       5283       5282  
      5151       5152       5163       5162       5272       5273       5284       5283  
      5152       5153       5164       5163       5273       5274       5285       5284  
      5153       5154       5165       5164       5274       5275       5286       5285  
      5154       5155       5166       5165       5275       5276       5287       5286  
      5155       5156       5167       5166       5276       5277       5288       5287  
      5156       5157       5168       5167       5277       5278       5289       5288  
      5157       5158       5169       5168       5278       5279       5290       5289  
      5158       5159       5170       5169       5279       5280       5291       5290  
      5160       5161       5172       5171       5281       5282       5293       5292  
      5161       5162       5173       5172       5282       5283       5294       5293  
      5162       5163       5174       5173       5283       5284       5295       5294  
      5163       5164       5175       5174       5284       5285       5296       5295  
      5164       5165       5176       5175       5285       5286       5297       5296  
      5165       5166       5177       5176       5286       5287       5298       5297  
      5166       5167       5178       5177       5287       5288       5299       5298  
      5167       5168       5179       5178       5288       5289       5300       5299  
      5168       5169       5180       5179       5289       5290       5301       5300  
      5169       5170       5181       5180       5290       5291       5302       5301  
      5171       5172       5183       5182       5292       5293       5304       5303  
      5172       5173       5184       5183       5293       5294       5305       5304  
      5173       5174       5185       5184       5294       5295       5306       5305  
      5174       5175       5186       5185       5295       5296       5307       5306  
      5175       5176       5187       5186       5296       5297       5308       5307  
      5176       5177       5188       5187       5297       5298       5309       5308  
      5177       5178       5189       5188       5298       5299       5310       5309  
      5178       5179       5190       5189       5299       5300       5311       5310  
      5179       5180       5191       5190       5300       5301       5312       5311  
      5180       5181       5192       5191       5301       5302       5313       5312  
      5182       5183       5194       5193       5303       5304       5315       5314  
      5183       5184       5195       5194       5304       5305       5316       5315  
      5184       5185       5196       5195       5305       5306       5317       5316  
      5185       5186       5197       5196       5306       5307       5318       5317  
      5186       5187       5198       5197       5307       5308       5319       5318  
      5187       5188       5199       5198       5308       5309       5320       5319  
      5188       5189       5200       5199       5309       5310       5321       5320  
      5189       5190       5201       5200       5310       5311       5322       5321  
      5190       5191       5202       5201       5311       5312       5323       5322  
      5191       5192       5203       5202       5312       5313       5324       5323  
      5204       5205       5216       5215       5325       5326       5337       5336  
      5205       5206       5217       5216       5326       5327       5338       5337  
      5206       5207       5218       5217       5327       5328       5339       5338  
      5207       5208       5219       5218       5328       5329       5340       5339  
      5208       5209       5220       5219       5329       5330       5341       5340  
      5209       5210       5221       5220       5330       5331       5342       5341  
      5210       5211       5222       5221       5331       5332       5343       5342  
      5211       5212       5223       5222       5332       5333       5344       5343  
      5212       5213       5224       5223       5333       5334       5345       5344  
      5213       5214       5225       5224       5334       5335       5346       5345  
      5215       5216       5227       5226       5336       5337       5348       5347  
      5216       5217       5228       5227       5337       5338       5349       5348  
      5217       5218       5229       5228       5338       5339       5350       5349  
      5218       5219       5230       5229       5339       5340       5351       5350  
      5219       5220       5231       5230       5340       5341       5352       5351  
      5220       5221       5232       5231       5341       5342       5353       5352  
      5221       5222       5233       5232       5342       5343       5354       5353  
      5222       5223       5234       5233       5343       5344       5355       5354  
      5223       5224       5235       5234       5344       5345       5356       5355  
      5224       5225       5236       5235       5345       5346       5357       5356  
      5226       5227       5238       5237       5347       5348       5359       5358  
      5227       5228       5239       5238       5348       5349       5360       5359  
      5228       5229       5240       5239       5349       5350       5361       5360  
      5229       5230       5241       5240       5350       5351       5362       5361  
      5230       5231       5242       5241       5351       5352       5363       5362  
      5231       5232       5243       5242       5352       5353       5364       5363  
      5232       5233       5244       5243       5353       5354       5365       5364  
      5233       5234       5245       5244       5354       5355       5366       5365  
      5234       5235       5246       5245       5355       5356       5367       5366  
      5235       5236       5247       5246       5356       5357       5368       5367  
      5237       5238       5249       5248       5358       5359       5370       5369  
      5238       5239       5250       5249       5359       5360       5371       5370  
      5239       5240       5251       5250       5360       5361       5372       5371  
      5240       5241       5252       5251       5361       5362       5373       5372  
      5241       5242       5253       5252       5362       5363       5374       5373  
      5242       5243       5254       5253       5363       5364       5375       5374  
      5243       5244       5255       5254       5364       5365       5376       5375  
      5244       5245       5256       5255       5365       5366       5377       5376  
      5245       5246       5257       5256       5366       5367       5378       5377  
      5246       5247       5258       5257       5367       5368       5379       5378  
      5248       5249       5260       5259       5369       5370       5381       5380  
      5249       5250       5261       5260       5370       5371       5382       5381  
      5250       5251       5262       5261       5371       5372       5383       5382  
      5251       5252       5263       5262       5372       5373       5384       5383  
      5252       5253       5264       5263       5373       5374       5385       5384  
      5253       5254       5265       5264       5374       5375       5386       5385  
      5254       5255       5266       5265       5375       5376       5387       5386  
      5255       5256       5267       5266       5376       5377       5388       5387  
      5256       5257       5268       5267       5377       5378       5389       5388  
      5257       5258       5269       5268       5378       5379       5390       5389  
      5259       5260       5271       5270       5380       5381       5392       5391  
      5260       5261       5272       5271       5381       5382       5393       5392  
      5261       5262       5273       5272       5382       5383       5394       5393  
      5262       5263       5274       5273       5383       5384       5395       5394  
      5263       5264       5275       5274       5384       5385       5396       5395  
      5264       5265       5276       5275       5385       5386       5397       5396  
      5265       5266       5277       5276       5386       5387       5398       5397  
      5266       5267       5278       5277       5387       5388       5399       5398  
      5267       5268       5279       5278       5388       5389       5400       5399  
      5268       5269       5280       5279       5389       5390       5401       5400  
      5270       5271       5282       5281       5391       5392       5403       5402  
      5271       5272       5283       5282       5392       5393       5404       5403  
      5272       5273       5284       5283       5393       5394       5405       5404  
      5273       5274       5285       5284       5394       5395       5406       5405  
      5274       5275       5286       5285       5395       5396       5407       5406  
      5275       5276       5287       5286       5396       5397       5408       5407  
      5276       5277       5288       5287       5397       5398       5409       5408  
      5277       5278       5289       5288       5398       5399       5410       5409  
      5278       5279       5290       5289       5399       5400       5411       5410  
      5279       5280       5291       5290       5400       5401       5412       5411  
      5281       5282       5293       5292       5402       5403       5414       5413  
      5282       5283       5294       5293       5403       5404       5415       5414  
      5283       5284       5295       5294       5404       5405       5416       5415  
      5284       5285       5296       5295       5405       5406       5417       5416  
      5285       5286       5297       5296       5406       5407       5418       5417  
      5286       5287       5298       5297       5407       5408       5419       5418  
      5287       5288       5299       5298       5408       5409       5420       5419  
      5288       5289       5300       5299       5409       5410       5421       5420  
      5289       5290       5301       5300       5410       5411       5422       5421  
      5290       5291       5302       5301       5411       5412       5423       5422  
      5292       5293       5304       5303       5413       5414       5425       5424  
      5293       5294       5305       5304       5414       5415       5426       5425  
      5294       5295       5306       5305       5415       5416       5427       5426  
      5295       5296       5307       5306       5416       5417       5428       5427  
      5296       5297       5308       5307       5417       5418       5429       5428  
      5297       5298       5309       5308       5418       5419       5430       5429  
      5298       5299       5310       5309       5419       5420       5431       5430  
      5299       5300       5311       5310       5420       5421       5432       5431  
      5300       5301       5312       5311       5421       5422       5433       5432  
      5301       5302       5313       5312       5422       5423       5434       5433  
      5303       5304       5315       5314       5424       5425       5436       5435  
      5304       5305       5316       5315       5425       5426       5437       5436  
      5305       5306       5317       5316       5426       5427       5438       5437  
      5306       5307       5318       5317       5427       5428       5439       5438  
      5307       5308       5319       5318       5428       5429       5440       5439  
      5308       5309       5320       5319       5429       5430       5441       5440  
      5309       5310       5321       5320       5430       5431       5442       5441  
      5310       5311       5322       5321       5431       5432       5443       5442  
      5311       5312       5323       5322       5432       5433       5444       5443  
      5312       5313       5324       5323       5433       5434       5445       5444  
      5325       5326       5337       5336       5446       5447       5458       5457  
      5326       5327       5338       5337       5447       5448       5459       5458  
      5327       5328       5339       5338       5448       5449       5460       5459  
      5328       5329       5340       5339       5449       5450       5461       5460  
      5329       5330       5341       5340       5450       5451       5462       5461  
      5330       5331       5342       5341       5451       5452       5463       5462  
      5331       5332       5343       5342       5452       5453       5464       5463  
      5332       5333       5344       5343       5453       5454       5465       5464  
      5333       5334       5345       5344       5454       5455       5466       5465  
      5334       5335       5346       5345       5455       5456       5467       5466  
      5336       5337       5348       5347       5457       5458       5469       5468  
      5337       5338       5349       5348       5458       5459       5470       5469  
      5338       5339       5350       5349       5459       5460       5471       5470  
      5339       5340       5351       5350       5460       5461       5472       5471  
      5340       5341       5352       5351       5461       5462       5473       5472  
      5341       5342       5353       5352       5462       5463       5474       5473  
      5342       5343       5354       5353       5463       5464       5475       5474  
      5343       5344       5355       5354       5464       5465       5476       5475  
      5344       5345       5356       5355       5465       5466       5477       5476  
      5345       5346       5357       5356       5466       5467       5478       5477  
      5347       5348       5359       5358       5468       5469       5480       5479  
      5348       5349       5360       5359       5469       5470       5481       5480  
      5349       5350       5361       5360       5470       5471       5482       5481  
      5350       5351       5362       5361       5471       5472       5483       5482  
      5351       5352       5363       5362       5472       5473       5484       5483  
      5352       5353       5364       5363       5473       5474       5485       5484  
      5353       5354       5365       5364       5474       5475       5486       5485  
      5354       5355       5366       5365       5475       5476       5487       5486  
      5355       5356       5367       5366       5476       5477       5488       5487  
      5356       5357       5368       5367       5477       5478       5489       5488  
      5358       5359       5370       5369       5479       5480       5491       5490  
      5359       5360       5371       5370       5480       5481       5492       5491  
      5360       5361       5372       5371       5481       5482       5493       5492  
      5361       5362       5373       5372       5482       5483       5494       5493  
      5362       5363       5374       5373       5483       5484       5495       5494  
      5363       5364       5375       5374       5484       5485       5496       5495  
      5364       5365       5376       5375       5485       5486       5497       5496  
      5365       5366       5377       5376       5486       5487       5498       5497  
      5366       5367       5378       5377       5487       5488       5499       5498  
      5367       5368       5379       5378       5488       5489       5500       5499  
      5369       5370       5381       5380       5490       5491       5502       5501  
      5370       5371       5382       5381       5491       5492       5503       5502  
      5371       5372       5383       5382       5492       5493       5504       5503  
      5372       5373       5384       5383       5493       5494       5505       5504  
      5373       5374       5385       5384       5494       5495       5506       5505  
      5374       5375       5386       5385       5495       5496       5507       5506  
      5375       5376       5387       5386       5496       5497       5508       5507  
      5376       5377       5388       5387       5497       5498       5509       5508  
      5377       5378       5389       5388       5498       5499       5510       5509  
      5378       5379       5390       5389       5499       5500       5511       5510  
      5380       5381       5392       5391       5501       5502       5513       5512  
      5381       5382       5393       5392       5502       5503       5514       5513  
      5382       5383       5394       5393       5503       5504       5515       5514  
      5383       5384       5395       5394       5504       5505       5516       5515  
      5384       5385       5396       5395       5505       5506       5517       5516  
      5385       5386       5397       5396       5506       5507       5518       5517  
      5386       5387       5398       5397       5507       5508       5519       5518  
      5387       5388       5399       5398       5508       5509       5520       5519  
      5388       5389       5400       5399       5509       5510       5521       5520  
      5389       5390       5401       5400       5510       5511       5522       5521  
      5391       5392       5403       5402       5512       5513       5524       5523  
      5392       5393       5404       5403       5513       5514       5525       5524  
      5393       5394       5405       5404       5514       5515       5526       5525  
      5394       5395       5406       5405       5515       5516       5527       5526  
      5395       5396       5407       5406       5516       5517       5528       5527  
      5396       5397       5408       5407       5517       5518       5529       5528  
      5397       5398       5409       5408       5518       5519       5530       5529  
      5398       5399       5410       5409       5519       5520       5531       5530  
      5399       5400       5411       5410       5520       5521       5532       5531  
      5400       5401       5412       5411       5521       5522       5533       5532  
      5402       5403       5414       5413       5523       5524       5535       5534  
      5403       5404       5415       5414       5524       5525       5536       5535  
      5404       5405       5416       5415       5525       5526       5537       5536  
      5405       5406       5417       5416       5526       5527       5538       5537  
      5406       5407       5418       5417       5527       5528       5539       5538  
      5407       5408       5419       5418       5528       5529       5540       5539  
      5408       5409       5420       5419       5529       5530       5541       5540  
      5409       5410       5421       5420       5530       5531       5542       5541  
      5410       5411       5422       5421       5531       5532       5543       5542  
      5411       5412       5423       5422       5532       5533       5544       5543  
      5413       5414       5425       5424       5534       5535       5546       5545  
      5414       5415       5426       5425       5535       5536       5547       5546  
      5415       5416       5427       5426       5536       5537       5548       5547  
      5416       5417       5428       5427       5537       5538       5549       5548  
      5417       5418       5429       5428       5538       5539       5550       5549  
      5418       5419       5430       5429       5539       5540       5551       5550  
      5419       5420       5431       5430       5540       5541       5552       5551  
      5420       5421       5432       5431       5541       5542       5553       5552  
      5421       5422       5433       5432       5542       5543       5554       5553  
      5422       5423       5434       5433       5543       5544       5555       5554  
      5424       5425       5436       5435       5545       5546       5557       5556  
      5425       5426       5437       5436       5546       5547       5558       5557  
      5426       5427       5438       5437       5547       5548       5559       5558  
      5427       5428       5439       5438       5548       5549       5560       5559  
      5428       5429       5440       5439       5549       5550       5561       5560  
      5429       5430       5441       5440       5550       5551       5562       5561  
      5430       5431       5442       5441       5551       5552       5563       5562  
      5431       5432       5443       5442       5552       5553       5564       5563  
      5432       5433       5444       5443       5553       5554       5565       5564  
      5433       5434       5445       5444       5554       5555       5566       5565  
      5446       5447       5458       5457       5567       5568       5579       5578  
      5447       5448       5459       5458       5568       5569       5580       5579  
      5448       5449       5460       5459       5569       5570       5581       5580  
      5449       5450       5461       5460       5570       5571       5582       5581  
      5450       5451       5462       5461       5571       5572       5583       5582  
      5451       5452       5463       5462       5572       5573       5584       5583  
      5452       5453       5464       5463       5573       5574       5585       5584  
      5453       5454       5465       5464       5574       5575       5586       5585  
      5454       5455       5466       5465       5575       5576       5587       5586  
      5455       5456       5467       5466       5576       5577       5588       5587  
      5457       5458       5469       5468       5578       5579       5590       5589  
      5458       5459       5470       5469       5579       5580       5591       5590  
      5459       5460       5471       5470       5580       5581       5592       5591  
      5460       5461       5472       5471       5581       5582       5593       5592  
      5461       5462       5473       5472       5582       5583       5594       5593  
      5462       5463       5474       5473       5583       5584       5595       5594  
      5463       5464       5475       5474       5584       5585       5596       5595  
      5464       5465       5476       5475       5585       5586       5597       5596  
      5465       5466       5477       5476       5586       5587       5598       5597  
      5466       5467       5478       5477       5587       5588       5599       5598  
      5468       5469       5480       5479       5589       5590       5601       5600  
      5469       5470       5481       5480       5590       5591       5602       5601  
      5470       5471       5482       5481       5591       5592       5603       5602  
      5471       5472       5483       5482       5592       5593       5604       5603  
      5472       5473       5484       5483       5593       5594       5605       5604  
      5473       5474       5485       5484       5594       5595       5606       5605  
      5474       5475       5486       5485       5595       5596       5607       5606  
      5475       5476       5487       5486       5596       5597       5608       5607  
      5476       5477       5488       5487       5597       5598       5609       5608  
      5477       5478       5489       5488       5598       5599       5610       5609  
      5479       5480       5491       5490       5600       5601       5612       5611  
      5480       5481       5492       5491       5601       5602       5613       5612  
      5481       5482       5493       5492       5602       5603       5614       5613  
      5482       5483       5494       5493       5603       5604       5615       5614  
      5483       5484       5495       5494       5604       5605       5616       5615  
      5484       5485       5496       5495       5605       5606       5617       5616  
      5485       5486       5497       5496       5606       5607       5618       5617  
      5486       5487       5498       5497       5607       5608       5619       5618  
      5487       5488       5499       5498       5608       5609       5620       5619  
      5488       5489       5500       5499       5609       5610       5621       5620  
      5490       5491       5502       5501       5611       5612       5623       5622  
      5491       5492       5503       5502       5612       5613       5624       5623  
      5492       5493       5504       5503       5613       5614       5625       5624  
      5493       5494       5505       5504       5614       5615       5626       5625  
      5494       5495       5506       5505       5615       5616       5627       5626  
      5495       5496       5507       5506       5616       5617       5628       5627  
      5496       5497       5508       5507       5617       5618       5629       5628  
      5497       5498       5509       5508       5618       5619       5630       5629  
      5498       5499       5510       5509       5619       5620       5631       5630  
      5499       5500       5511       5510       5620       5621       5632       5631  
      5501       5502       5513       5512       5622       5623       5634       5633  
      5502       5503       5514       5513       5623       5624       5635       5634  
      5503       5504       5515       5514       5624       5625       5636       5635  
      5504       5505       5516       5515       5625       5626       5637       5636  
      5505       5506       5517       5516       5626       5627       5638       5637  
      5506       5507       5518       5517       5627       5628       5639       5638  
      5507       5508       5519       5518       5628       5629       5640       5639  
      5508       5509       5520       5519       5629       5630       5641       5640  
      5509       5510       5521       5520       5630       5631       5642       5641  
      5510       5511       5522       5521       5631       5632       5643       5642  
      5512       5513       5524       5523       5633       5634       5645       5644  
      5513       5514       5525       5524       5634       5635       5646       5645  
      5514       5515       5526       5525       5635       5636       5647       5646  
      5515       5516       5527       5526       5636       5637       5648       5647  
      5516       5517       5528       5527       5637       5638       5649       5648  
      5517       5518       5529       5528       5638       5639       5650       5649  
      5518       5519       5530       5529       5639       5640       5651       5650  
      5519       5520       5531       5530       5640       5641       5652       5651  
      5520       5521       5532       5531       5641       5642       5653       5652  
      5521       5522       5533       5532       5642       5643       5654       5653  
      5523       5524       5535       5534       5644       5645       5656       5655  
      5524       5525       5536       5535       5645       5646       5657       5656  
      5525       5526       5537       5536       5646       5647       5658       5657  
      5526       5527       5538       5537       5647       5648       5659       5658  
      5527       5528       5539       5538       5648       5649       5660       5659  
      5528       5529       5540       5539       5649       5650       5661       5660  
      5529       5530       5541       5540       5650       5651       5662       5661  
      5530       5531       5542       5541       5651       5652       5663       5662  
      5531       5532       5543       5542       5652       5653       5664       5663  
      5532       5533       5544       5543       5653       5654       5665       5664  
      5534       5535       5546       5545       5655       5656       5667       5666  
      5535       5536       5547       5546       5656       5657       5668       5667  
      5536       5537       5548       5547       5657       5658       5669       5668  
      5537       5538       5549       5548       5658       5659       5670       5669  
      5538       5539       5550       5549       5659       5660       5671       5670  
      5539       5540       5551       5550       5660       5661       5672       5671  
      5540       5541       5552       5551       5661       5662       5673       5672  
      5541       5542       5553       5552       5662       5663       5674       5673  
      5542       5543       5554       5553       5663       5664       5675       5674  
      5543       5544       5555       5554       5664       5665       5676       5675  
      5545       5546       5557       5556       5666       5667       5678       5677  
      5546       5547       5558       5557       5667       5668       5679       5678  
      5547       5548       5559       5558       5668       5669       5680       5679  
      5548       5549       5560       5559       5669       5670       5681       5680  
      5549       5550       5561       5560       5670       5671       5682       5681  
      5550       5551       5562       5561       5671       5672       5683       5682  
      5551       5552       5563       5562       5672       5673       5684       5683  
      5552       5553       5564       5563       5673       5674       5685       5684  
      5553       5554       5565       5564       5674       5675       5686       5685  
      5554       5555       5566       5565       5675       5676       5687       5686  
      5567       5568       5579       5578       5688       5689       5700       5699  
      5568       5569       5580       5579       5689       5690       5701       5700  
      5569       5570       5581       5580       5690       5691       5702       5701  
      5570       5571       5582       5581       5691       5692       5703       5702  
      5571       5572       5583       5582       5692       5693       5704       5703  
      5572       5573       5584       5583       5693       5694       5705       5704  
      5573       5574       5585       5584       5694       5695       5706       5705  
      5574       5575       5586       5585       5695       5696       5707       5706  
      5575       5576       5587       5586       5696       5697       5708       5707  
      5576       5577       5588       5587       5697       5698       5709       5708  
      5578       5579       5590       5589       5699       5700       5711       5710  
      5579       5580       5591       5590       5700       5701       5712       5711  
      5580       5581       5592       5591       5701       5702       5713       5712  
      5581       5582       5593       5592       5702       5703       5714       5713  
      5582       5583       5594       5593       5703       5704       5715       5714  
      5583       5584       5595       5594       5704       5705       5716       5715  
      5584       5585       5596       5595       5705       5706       5717       5716  
      5585       5586       5597       5596       5706       5707       5718       5717  
      5586       5587       5598       5597       5707       5708       5719       5718  
      5587       5588       5599       5598       5708       5709       5720       5719  
      5589       5590       5601       5600       5710       5711       5722       5721  
      5590       5591       5602       5601       5711       5712       5723       5722  
      5591       5592       5603       5602       5712       5713       5724       5723  
      5592       5593       5604       5603       5713       5714       5725       5724  
      5593       5594       5605       5604       5714       5715       5726       5725  
      5594       5595       5606       5605       5715       5716       5727       5726  
      5595       5596       5607       5606       5716       5717       5728       5727  
      5596       5597       5608       5607       5717       5718       5729       5728  
      5597       5598       5609       5608       5718       5719       5730       5729  
      5598       5599       5610       5609       5719       5720       5731       5730  
      5600       5601       5612       5611       5721       5722       5733       5732  
      5601       5602       5613       5612       5722       5723       5734       5733  
      5602       5603       5614       5613       5723       5724       5735       5734  
      5603       5604       5615       5614       5724       5725       5736       5735  
      5604       5605       5616       5615       5725       5726       5737       5736  
      5605       5606       5617       5616       5726       5727       5738       5737  
      5606       5607       5618       5617       5727       5728       5739       5738  
      5607       5608       5619       5618       5728       5729       5740       5739  
      5608       5609       5620       5619       5729       5730       5741       5740  
      5609       5610       5621       5620       5730       5731       5742       5741  
      5611       5612       5623       5622       5732       5733       5744       5743  
      5612       5613       5624       5623       5733       5734       5745       5744  
      5613       5614       5625       5624       5734       5735       5746       5745  
      5614       5615       5626       5625       5735       5736       5747       5746  
      5615       5616       5627       5626       5736       5737       5748       5747  
      5616       5617       5628       5627       5737       5738       5749       5748  
      5617       5618       5629       5628       5738       5739       5750       5749  
      5618       5619       5630       5629       5739       5740       5751       5750  
      5619       5620       5631       5630       5740       5741       5752       5751  
      5620       5621       5632       5631       5741       5742       5753       5752  
      5622       5623       5634       5633       5743       5744       5755       5754  
      5623       5624       5635       5634       5744       5745       5756       5755  
      5624       5625       5636       5635       5745       5746       5757       5756  
      5625       5626       5637       5636       5746       5747       5758       5757  
      5626       5627       5638       5637       5747       5748       5759       5758  
      5627       5628       5639       5638       5748       5749       5760       5759  
      5628       5629       5640       5639       5749       5750       5761       5760  
      5629       5630       5641       5640       5750       5751       5762       5761  
      5630       5631       5642       5641       5751       5752       5763       5762  
      5631       5632       5643       5642       5752       5753       5764       5763  
      5633       5634       5645       5644       5754       5755       5766       5765  
      5634       5635       5646       5645       5755       5756       5767       5766  
      5635       5636       5647       5646       5756       5757       5768       5767  
      5636       5637       5648       5647       5757       5758       5769       5768  
      5637       5638       5649       5648       5758       5759       5770       5769  
      5638       5639       5650       5649       5759       5760       5771       5770  
      5639       5640       5651       5650       5760       5761       5772       5771  
      5640       5641       5652       5651       5761       5762       5773       5772  
      5641       5642       5653       5652       5762       5763       5774       5773  
      5642       5643       5654       5653       5763       5764       5775       5774  
      5644       5645       5656       5655       5765       5766       5777       5776  
      5645       5646       5657       5656       5766       5767       5778       5777  
      5646       5647       5658       5657       5767       5768       5779       5778  
      5647       5648       5659       5658       5768       5769       5780       5779  
      5648       5649       5660       5659       5769       5770       5781       5780  
      5649       5650       5661       5660       5770       5771       5782       5781  
      5650       5651       5662       5661       5771       5772       5783       5782  
      5651       5652       5663       5662       5772       5773       5784       5783  
      5652       5653       5664       5663       5773       5774       5785       5784  
      5653       5654       5665       5664       5774       5775       5786       5785  
      5655       5656       5667       5666       5776       5777       5788       5787  
      5656       5657       5668       5667       5777       5778       5789       5788  
      5657       5658       5669       5668       5778       5779       5790       5789  
      5658       5659       5670       5669       5779       5780       5791       5790  
      5659       5660       5671       5670       5780       5781       5792       5791  
      5660       5661       5672       5671       5781       5782       5793       5792  
      5661       5662       5673       5672       5782       5783       5794       5793  
      5662       5663       5674       5673       5783       5784       5795       5794  
      5663       5664       5675       5674       5784       5785       5796       5795  
      5664       5665       5676       5675       5785       5786       5797       5796  
      5666       5667       5678       5677       5787       5788       5799       5798  
      5667       5668       5679       5678       5788       5789       5800       5799  
      5668       5669       5680       5679       5789       5790       5801       5800  
      5669       5670       5681       5680       5790       5791       5802       5801  
      5670       5671       5682       5681       5791       5792       5803       5802  
      5671       5672       5683       5682       5792       5793       5804       5803  
      5672       5673       5684       5683       5793       5794       5805       5804  
      5673       5674       5685       5684       5794       5795       5806       5805  
      5674       5675       5686       5685       5795       5796       5807       5806  
      5675       5676       5687       5686       5796       5797       5808       5807  
      5688       5689       5700       5699       5809       5810       5821       5820  
      5689       5690       5701       5700       5810       5811       5822       5821  
      5690       5691       5702       5701       5811       5812       5823       5822  
      5691       5692       5703       5702       5812       5813       5824       5823  
      5692       5693       5704       5703       5813       5814       5825       5824  
      5693       5694       5705       5704       5814       5815       5826       5825  
      5694       5695       5706       5705       5815       5816       5827       5826  
      5695       5696       5707       5706       5816       5817       5828       5827  
      5696       5697       5708       5707       5817       5818       5829       5828  
      5697       5698       5709       5708       5818       5819       5830       5829  
      5699       5700       5711       5710       5820       5821       5832       5831  
      5700       5701       5712       5711       5821       5822       5833       5832  
      5701       5702       5713       5712       5822       5823       5834       5833  
      5702       5703       5714       5713       5823       5824       5835       5834  
      5703       5704       5715       5714       5824       5825       5836       5835  
      5704       5705       5716       5715       5825       5826       5837       5836  
      5705       5706       5717       5716       5826       5827       5838       5837  
      5706       5707       5718       5717       5827       5828       5839       5838  
      5707       5708       5719       5718       5828       5829       5840       5839  
      5708       5709       5720       5719       5829       5830       5841       5840  
      5710       5711       5722       5721       5831       5832       5843       5842  
      5711       5712       5723       5722       5832       5833       5844       5843  
      5712       5713       5724       5723       5833       5834       5845       5844  
      5713       5714       5725       5724       5834       5835       5846       5845  
      5714       5715       5726       5725       5835       5836       5847       5846  
      5715       5716       5727       5726       5836       5837       5848       5847  
      5716       5717       5728       5727       5837       5838       5849       5848  
      5717       5718       5729       5728       5838       5839       5850       5849  
      5718       5719       5730       5729       5839       5840       5851       5850  
      5719       5720       5731       5730       5840       5841       5852       5851  
      5721       5722       5733       5732       5842       5843       5854       5853  
      5722       5723       5734       5733       5843       5844       5855       5854  
      5723       5724       5735       5734       5844       5845       5856       5855  
      5724       5725       5736       5735       5845       5846       5857       5856  
      5725       5726       5737       5736       5846       5847       5858       5857  
      5726       5727       5738       5737       5847       5848       5859       5858  
      5727       5728       5739       5738       5848       5849       5860       5859  
      5728       5729       5740       5739       5849       5850       5861       5860  
      5729       5730       5741       5740       5850       5851       5862       5861  
      5730       5731       5742       5741       5851       5852       5863       5862  
      5732       5733       5744       5743       5853       5854       5865       5864  
      5733       5734       5745       5744       5854       5855       5866       5865  
      5734       5735       5746       5745       5855       5856       5867       5866  
      5735       5736       5747       5746       5856       5857       5868       5867  
      5736       5737       5748       5747       5857       5858       5869       5868  
      5737       5738       5749       5748       5858       5859       5870       5869  
      5738       5739       5750       5749       5859       5860       5871       5870  
      5739       5740       5751       5750       5860       5861       5872       5871  
      5740       5741       5752       5751       5861       5862       5873       5872  
      5741       5742       5753       5752       5862       5863       5874       5873  
      5743       5744       5755       5754       5864       5865       5876       5875  
      5744       5745       5756       5755       5865       5866       5877       5876  
      5745       5746       5757       5756       5866       5867       5878       5877  
      5746       5747       5758       5757       5867       5868       5879       5878  
      5747       5748       5759       5758       5868       5869       5880       5879  
      5748       5749       5760       5759       5869       5870       5881       5880  
      5749       5750       5761       5760       5870       5871       5882       5881  
      5750       5751       5762       5761       5871       5872       5883       5882  
      5751       5752       5763       5762       5872       5873       5884       5883  
      5752       5753       5764       5763       5873       5874       5885       5884  
      5754       5755       5766       5765       5875       5876       5887       5886  
      5755       5756       5767       5766       5876       5877       5888       5887  
      5756       5757       5768       5767       5877       5878       5889       5888  
      5757       5758       5769       5768       5878       5879       5890       5889  
      5758       5759       5770       5769       5879       5880       5891       5890  
      5759       5760       5771       5770       5880       5881       5892       5891  
      5760       5761       5772       5771       5881       5882       5893       5892  
      5761       5762       5773       5772       5882       5883       5894       5893  
      5762       5763       5774       5773       5883       5884       5895       5894  
      5763       5764       5775       5774       5884       5885       5896       5895  
      5765       5766       5777       5776       5886       5887       5898       5897  
      5766       5767       5778       5777       5887       5888       5899       5898  
      5767       5768       5779       5778       5888       5889       5900       5899  
      5768       5769       5780       5779       5889       5890       5901       5900  
      5769       5770       5781       5780       5890       5891       5902       5901  
      5770       5771       5782       5781       5891       5892       5903       5902  
      5771       5772       5783       5782       5892       5893       5904       5903  
      5772       5773       5784       5783       5893       5894       5905       5904  
      5773       5774       5785       5784       5894       5895       5906       5905  
      5774       5775       5786       5785       5895       5896       5907       5906  
      5776       5777       5788       5787       5897       5898       5909       5908  
      5777       5778       5789       5788       5898       5899       5910       5909  
      5778       5779       5790       5789       5899       5900       5911       5910  
      5779       5780       5791       5790       5900       5901       5912       5911  
      5780       5781       5792       5791       5901       5902       5913       5912  
      5781       5782       5793       5792       5902       5903       5914       5913  
      5782       5783       5794       5793       5903       5904       5915       5914  
      5783       5784       5795       5794       5904       5905       5916       5915  
      5784       5785       5796       5795       5905       5906       5917       5916  
      5785       5786       5797       5796       5906       5907       5918       5917  
      5787       5788       5799       5798       5908       5909       5920       5919  
      5788       5789       5800       5799       5909       5910       5921       5920  
      5789       5790       5801       5800       5910       5911       5922       5921  
      5790       5791       5802       5801       5911       5912       5923       5922  
      5791       5792       5803       5802       5912       5913       5924       5923  
      5792       5793       5804       5803       5913       5914       5925       5924  
      5793       5794       5805       5804       5914       5915       5926       5925  
      5794       5795       5806       5805       5915       5916       5927       5926  
      5795       5796       5807       5806       5916       5917       5928       5927  
      5796       5797       5808       5807       5917       5918       5929       5928  
      5809       5810       5821       5820       5930       5931       5942       5941  
      5810       5811       5822       5821       5931       5932       5943       5942  
      5811       5812       5823       5822       5932       5933       5944       5943  
      5812       5813       5824       5823       5933       5934       5945       5944  
      5813       5814       5825       5824       5934       5935       5946       5945  
      5814       5815       5826       5825       5935       5936       5947       5946  
      5815       5816       5827       5826       5936       5937       5948       5947  
      5816       5817       5828       5827       5937       5938       5949       5948  
      5817       5818       5829       5828       5938       5939       5950       5949  
      5818       5819       5830       5829       5939       5940       5951       5950  
      5820       5821       5832       5831       5941       5942       5953       5952  
      5821       5822       5833       5832       5942       5943       5954       5953  
      5822       5823       5834       5833       5943       5944       5955       5954  
      5823       5824       5835       5834       5944       5945       5956       5955  
      5824       5825       5836       5835       5945       5946       5957       5956  
      5825       5826       5837       5836       5946       5947       5958       5957  
      5826       5827       5838       5837       5947       5948       5959       5958  
      5827       5828       5839       5838       5948       5949       5960       5959  
      5828       5829       5840       5839       5949       5950       5961       5960  
      5829       5830       5841       5840       5950       5951       5962       5961  
      5831       5832       5843       5842       5952       5953       5964       5963  
      5832       5833       5844       5843       5953       5954       5965       5964  
      5833       5834       5845       5844       5954       5955       5966       5965  
      5834       5835       5846       5845       5955       5956       5967       5966  
      5835       5836       5847       5846       5956       5957       5968       5967  
      5836       5837       5848       5847       5957       5958       5969       5968  
      5837       5838       5849       5848       5958       5959       5970       5969  
      5838       5839       5850       5849       5959       5960       5971       5970  
      5839       5840       5851       5850       5960       5961       5972       5971  
      5840       5841       5852       5851       5961       5962       5973       5972  
      5842       5843       5854       5853       5963       5964       5975       5974  
      5843       5844       5855       5854       5964       5965       5976       5975  
      5844       5845       5856       5855       5965       5966       5977       5976  
      5845       5846       5857       5856       5966       5967       5978       5977  
      5846       5847       5858       5857       5967       5968       5979       5978  
      5847       5848       5859       5858       5968       5969       5980       5979  
      5848       5849       5860       5859       5969       5970       5981       5980  
      5849       5850       5861       5860       5970       5971       5982       5981  
      5850       5851       5862       5861       5971       5972       5983       5982  
      5851       5852       5863       5862       5972       5973       5984       5983  
      5853       5854       5865       5864       5974       5975       5986       5985  
      5854       5855       5866       5865       5975       5976       5987       5986  
      5855       5856       5867       5866       5976       5977       5988       5987  
      5856       5857       5868       5867       5977       5978       5989       5988  
      5857       5858       5869       5868       5978       5979       5990       5989  
      5858       5859       5870       5869       5979       5980       5991       5990  
      5859       5860       5871       5870       5980       5981       5992       5991  
      5860       5861       5872       5871       5981       5982       5993       5992  
      5861       5862       5873       5872       5982       5983       5994       5993  
      5862       5863       5874       5873       5983       5984       5995       5994  
      5864       5865       5876       5875       5985       5986       5997       5996  
      5865       5866       5877       5876       5986       5987       5998       5997  
      5866       5867       5878       5877       5987       5988       5999       5998  
      5867       5868       5879       5878       5988       5989       6000       5999  
      5868       5869       5880       5879       5989       5990       6001       6000  
      5869       5870       5881       5880       5990       5991       6002       6001  
      5870       5871       5882       5881       5991       5992       6003       6002  
      5871       5872       5883       5882       5992       5993       6004       6003  
      5872       5873       5884       5883       5993       5994       6005       6004  
      5873       5874       5885       5884       5994       5995       6006       6005  
      5875       5876       5887       5886       5996       5997       6008       6007  
      5876       5877       5888       5887       5997       5998       6009       6008  
      5877       5878       5889       5888       5998       5999       6010       6009  
      5878       5879       5890       5889       5999       6000       6011       6010  
      5879       5880       5891       5890       6000       6001       6012       6011  
      5880       5881       5892       5891       6001       6002       6013       6012  
      5881       5882       5893       5892       6002       6003       6014       6013  
      5882       5883       5894       5893       6003       6004       6015       6014  
      5883       5884       5895       5894       6004       6005       6016       6015  
      5884       5885       5896       5895       6005       6006       6017       6016  
      5886       5887       5898       5897       6007       6008       6019       6018  
      5887       5888       5899       5898       6008       6009       6020       6019  
      5888       5889       5900       5899       6009       6010       6021       6020  
      5889       5890       5901       5900       6010       6011       6022       6021  
      5890       5891       5902       5901       6011       6012       6023       6022  
      5891       5892       5903       5902       6012       6013       6024       6023  
      5892       5893       5904       5903       6013       6014       6025       6024  
      5893       5894       5905       5904       6014       6015       6026       6025  
      5894       5895       5906       5905       6015       6016       6027       6026  
      5895       5896       5907       5906       6016       6017       6028       6027  
      5897       5898       5909       5908       6018       6019       6030       6029  
      5898       5899       5910       5909       6019       6020       6031       6030  
      5899       5900       5911       5910       6020       6021       6032       6031  
      5900       5901       5912       5911       6021       6022       6033       6032  
      5901       5902       5913       5912       6022       6023       6034       6033  
      5902       5903       5914       5913       6023       6024       6035       6034  
      5903       5904       5915       5914       6024       6025       6036       6035  
      5904       5905       5916       5915       6025       6026       6037       6036  
      5905       5906       5917       5916       6026       6027       6038       6037  
      5906       5907       5918       5917       6027       6028       6039       6038  
      5908       5909       5920       5919       6029       6030       6041       6040  
      5909       5910       5921       5920       6030       6031       6042       6041  
      5910       5911       5922       5921       6031       6032       6043       6042  
      5911       5912       5923       5922       6032       6033       6044       6043  
      5912       5913       5924       5923       6033       6034       6045       6044  
      5913       5914       5925       5924       6034       6035       6046       6045  
      5914       5915       5926       5925       6035       6036       6047       6046  
      5915       5916       5927       5926       6036       6037       6048       6047  
      5916       5917       5928       5927       6037       6038       6049       6048  
      5917       5918       5929       5928       6038       6039       6050       6049  
      5930       5931       5942       5941       6051       6052       6063       6062  
      5931       5932       5943       5942       6052       6053       6064       6063  
      5932       5933       5944       5943       6053       6054       6065       6064  
      5933       5934       5945       5944       6054       6055       6066       6065  
      5934       5935       5946       5945       6055       6056       6067       6066  
      5935       5936       5947       5946       6056       6057       6068       6067  
      5936       5937       5948       5947       6057       6058       6069       6068  
      5937       5938       5949       5948       6058       6059       6070       6069  
      5938       5939       5950       5949       6059       6060       6071       6070  
      5939       5940       5951       5950       6060       6061       6072       6071  
      5941       5942       5953       5952       6062       6063       6074       6073  
      5942       5943       5954       5953       6063       6064       6075       6074  
      5943       5944       5955       5954       6064       6065       6076       6075  
      5944       5945       5956       5955       6065       6066       6077       6076  
      5945       5946       5957       5956       6066       6067       6078       6077  
      5946       5947       5958       5957       6067       6068       6079       6078  
      5947       5948       5959       5958       6068       6069       6080       6079  
      5948       5949       5960       5959       6069       6070       6081       6080  
      5949       5950       5961       5960       6070       6071       6082       6081  
      5950       5951       5962       5961       6071       6072       6083       6082  
      5952       5953       5964       5963       6073       6074       6085       6084  
      5953       5954       5965       5964       6074       6075       6086       6085  
      5954       5955       5966       5965       6075       6076       6087       6086  
      5955       5956       5967       5966       6076       6077       6088       6087  
      5956       5957       5968       5967       6077       6078       6089       6088  
      5957       5958       5969       5968       6078       6079       6090       6089  
      5958       5959       5970       5969       6079       6080       6091       6090  
      5959       5960       5971       5970       6080       6081       6092       6091  
      5960       5961       5972       5971       6081       6082       6093       6092  
      5961       5962       5973       5972       6082       6083       6094       6093  
      5963       5964       5975       5974       6084       6085       6096       6095  
      5964       5965       5976       5975       6085       6086       6097       6096  
      5965       5966       5977       5976       6086       6087       6098       6097  
      5966       5967       5978       5977       6087       6088       6099       6098  
      5967       5968       5979       5978       6088       6089       6100       6099  
      5968       5969       5980       5979       6089       6090       6101       6100  
      5969       5970       5981       5980       6090       6091       6102       6101  
      5970       5971       5982       5981       6091       6092       6103       6102  
      5971       5972       5983       5982       6092       6093       6104       6103  
      5972       5973       5984       5983       6093       6094       6105       6104  
      5974       5975       5986       5985       6095       6096       6107       6106  
      5975       5976       5987       5986       6096       6097       6108       6107  
      5976       5977       5988       5987       6097       6098       6109       6108  
      5977       5978       5989       5988       6098       6099       6110       6109  
      5978       5979       5990       5989       6099       6100       6111       6110  
      5979       5980       5991       5990       6100       6101       6112       6111  
      5980       5981       5992       5991       6101       6102       6113       6112  
      5981       5982       5993       5992       6102       6103       6114       6113  
      5982       5983       5994       5993       6103       6104       6115       6114  
      5983       5984       5995       5994       6104       6105       6116       6115  
      5985       5986       5997       5996       6106       6107       6118       6117  
      5986       5987       5998       5997       6107       6108       6119       6118  
      5987       5988       5999       5998       6108       6109       6120       6119  
      5988       5989       6000       5999       6109       6110       6121       6120  
      5989       5990       6001       6000       6110       6111       6122       6121  
      5990       5991       6002       6001       6111       6112       6123       6122  
      5991       5992       6003       6002       6112       6113       6124       6123  
      5992       5993       6004       6003       6113       6114       6125       6124  
      5993       5994       6005       6004       6114       6115       6126       6125  
      5994       5995       6006       6005       6115       6116       6127       6126  
      5996       5997       6008       6007       6117       6118       6129       6128  
      5997       5998       6009       6008       6118       6119       6130       6129  
      5998       5999       6010       6009       6119       6120       6131       6130  
      5999       6000       6011       6010       6120       6121       6132       6131  
      6000       6001       6012       6011       6121       6122       6133       6132  
      6001       6002       6013       6012       6122       6123       6134       6133  
      6002       6003       6014       6013       6123       6124       6135       6134  
      6003       6004       6015       6014       6124       6125       6136       6135  
      6004       6005       6016       6015       6125       6126       6137       6136  
      6005       6006       6017       6016       6126       6127       6138       6137  
      6007       6008       6019       6018       6128       6129       6140       6139  
      6008       6009       6020       6019       6129       6130       6141       6140  
      6009       6010       6021       6020       6130       6131       6142       6141  
      6010       6011       6022       6021       6131       6132       6143       6142  
      6011       6012       6023       6022       6132       6133       6144       6143  
      6012       6013       6024       6023       6133       6134       6145       6144  
      6013       6014       6025       6024       6134       6135       6146       6145  
      6014       6015       6026       6025       6135       6136       6147       6146  
      6015       6016       6027       6026       6136       6137       6148       6147  
      6016       6017       6028       6027       6137       6138       6149       6148  
      6018       6019       6030       6029       6139       6140       6151       6150  
      6019       6020       6031       6030       6140       6141       6152       6151  
      6020       6021       6032       6031       6141       6142       6153       6152  
      6021       6022       6033       6032       6142       6143       6154       6153  
      6022       6023       6034       6033       6143       6144       6155       6154  
      6023       6024       6035       6034       6144       6145       6156       6155  
      6024       6025       6036       6035       6145       6146       6157       6156  
      6025       6026       6037       6036       6146       6147       6158       6157  
      6026       6027       6038       6037       6147       6148       6159       6158  
      6027       6028       6039       6038       6148       6149       6160       6159  
      6029       6030       6041       6040       6150       6151       6162       6161  
      6030       6031       6042       6041       6151       6152       6163       6162  
      6031       6032       6043       6042       6152       6153       6164       6163  
      6032       6033       6044       6043       6153       6154       6165       6164  
      6033       6034       6045       6044       6154       6155       6166       6165  
      6034       6035       6046       6045       6155       6156       6167       6166  
      6035       6036       6047       6046       6156       6157       6168       6167  
      6036       6037       6048       6047       6157       6158       6169       6168  
      6037       6038       6049       6048       6158       6159       6170       6169  
      6038       6039       6050       6049       6159       6160       6171       6170  
      6051       6052       6063       6062       6172       6173       6184       6183  
      6052       6053       6064       6063       6173       6174       6185       6184  
      6053       6054       6065       6064       6174       6175       6186       6185  
      6054       6055       6066       6065       6175       6176       6187       6186  
      6055       6056       6067       6066       6176       6177       6188       6187  
      6056       6057       6068       6067       6177       6178       6189       6188  
      6057       6058       6069       6068       6178       6179       6190       6189  
      6058       6059       6070       6069       6179       6180       6191       6190  
      6059       6060       6071       6070       6180       6181       6192       6191  
      6060       6061       6072       6071       6181       6182       6193       6192  
      6062       6063       6074       6073       6183       6184       6195       6194  
      6063       6064       6075       6074       6184       6185       6196       6195  
      6064       6065       6076       6075       6185       6186       6197       6196  
      6065       6066       6077       6076       6186       6187       6198       6197  
      6066       6067       6078       6077       6187       6188       6199       6198  
      6067       6068       6079       6078       6188       6189       6200       6199  
      6068       6069       6080       6079       6189       6190       6201       6200  
      6069       6070       6081       6080       6190       6191       6202       6201  
      6070       6071       6082       6081       6191       6192       6203       6202  
      6071       6072       6083       6082       6192       6193       6204       6203  
      6073       6074       6085       6084       6194       6195       6206       6205  
      6074       6075       6086       6085       6195       6196       6207       6206  
      6075       6076       6087       6086       6196       6197       6208       6207  
      6076       6077       6088       6087       6197       6198       6209       6208  
      6077       6078       6089       6088       6198       6199       6210       6209  
      6078       6079       6090       6089       6199       6200       6211       6210  
      6079       6080       6091       6090       6200       6201       6212       6211  
      6080       6081       6092       6091       6201       6202       6213       6212  
      6081       6082       6093       6092       6202       6203       6214       6213  
      6082       6083       6094       6093       6203       6204       6215       6214  
      6084       6085       6096       6095       6205       6206       6217       6216  
      6085       6086       6097       6096       6206       6207       6218       6217  
      6086       6087       6098       6097       6207       6208       6219       6218  
      6087       6088       6099       6098       6208       6209       6220       6219  
      6088       6089       6100       6099       6209       6210       6221       6220  
      6089       6090       6101       6100       6210       6211       6222       6221  
      6090       6091       6102       6101       6211       6212       6223       6222  
      6091       6092       6103       6102       6212       6213       6224       6223  
      6092       6093       6104       6103       6213       6214       6225       6224  
      6093       6094       6105       6104       6214       6215       6226       6225  
      6095       6096       6107       6106       6216       6217       6228       6227  
      6096       6097       6108       6107       6217       6218       6229       6228  
      6097       6098       6109       6108       6218       6219       6230       6229  
      6098       6099       6110       6109       6219       6220       6231       6230  
      6099       6100       6111       6110       6220       6221       6232       6231  
      6100       6101       6112       6111       6221       6222       6233       6232  
      6101       6102       6113       6112       6222       6223       6234       6233  
      6102       6103       6114       6113       6223       6224       6235       6234  
      6103       6104       6115       6114       6224       6225       6236       6235  
      6104       6105       6116       6115       6225       6226       6237       6236  
      6106       6107       6118       6117       6227       6228       6239       6238  
      6107       6108       6119       6118       6228       6229       6240       6239  
      6108       6109       6120       6119       6229       6230       6241       6240  
      6109       6110       6121       6120       6230       6231       6242       6241  
      6110       6111       6122       6121       6231       6232       6243       6242  
      6111       6112       6123       6122       6232       6233       6244       6243  
      6112       6113       6124       6123       6233       6234       6245       6244  
      6113       6114       6125       6124       6234       6235       6246       6245  
      6114       6115       6126       6125       6235       6236       6247       6246  
      6115       6116       6127       6126       6236       6237       6248       6247  
      6117       6118       6129       6128       6238       6239       6250       6249  
      6118       6119       6130       6129       6239       6240       6251       6250  
      6119       6120       6131       6130       6240       6241       6252       6251  
      6120       6121       6132       6131       6241       6242       6253       6252  
      6121       6122       6133       6132       6242       6243       6254       6253  
      6122       6123       6134       6133       6243       6244       6255       6254  
      6123       6124       6135       6134       6244       6245       6256       6255  
      6124       6125       6136       6135       6245       6246       6257       6256  
      6125       6126       6137       6136       6246       6247       6258       6257  
      6126       6127       6138       6137       6247       6248       6259       6258  
      6128       6129       6140       6139       6249       6250       6261       6260  
      6129       6130       6141       6140       6250       6251       6262       6261  
      6130       6131       6142       6141       6251       6252       6263       6262  
      6131       6132       6143       6142       6252       6253       6264       6263  
      6132       6133       6144       6143       6253       6254       6265       6264  
      6133       6134       6145       6144       6254       6255       6266       6265  
      6134       6135       6146       6145       6255       6256       6267       6266  
      6135       6136       6147       6146       6256       6257       6268       6267  
      6136       6137       6148       6147       6257       6258       6269       6268  
      6137       6138       6149       6148       6258       6259       6270       6269  
      6139       6140       6151       6150       6260       6261       6272       6271  
      6140       6141       6152       6151       6261       6262       6273       6272  
      6141       6142       6153       6152       6262       6263       6274       6273  
      6142       6143       6154       6153       6263       6264       6275       6274  
      6143       6144       6155       6154       6264       6265       6276       6275  
      6144       6145       6156       6155       6265       6266       6277       6276  
      6145       6146       6157       6156       6266       6267       6278       6277  
      6146       6147       6158       6157       6267       6268       6279       6278  
      6147       6148       6159       6158       6268       6269       6280       6279  
      6148       6149       6160       6159       6269       6270       6281       6280  
      6150       6151       6162       6161       6271       6272       6283       6282  
      6151       6152       6163       6162       6272       6273       6284       6283  
      6152       6153       6164       6163       6273       6274       6285       6284  
      6153       6154       6165       6164       6274       6275       6286       6285  
      6154       6155       6166       6165       6275       6276       6287       6286  
      6155       6156       6167       6166       6276       6277       6288       6287  
      6156       6157       6168       6167       6277       6278       6289       6288  
      6157       6158       6169       6168       6278       6279       6290       6289  
      6158       6159       6170       6169       6279       6280       6291       6290  
      6159       6160       6171       6170       6280       6281       6292       6291  
      6172       6173       6184       6183       6293       6294       6305       6304  
      6173       6174       6185       6184       6294       6295       6306       6305  
      6174       6175       6186       6185       6295       6296       6307       6306  
      6175       6176       6187       6186       6296       6297       6308       6307  
      6176       6177       6188       6187       6297       6298       6309       6308  
      6177       6178       6189       6188       6298       6299       6310       6309  
      6178       6179       6190       6189       6299       6300       6311       6310  
      6179       6180       6191       6190       6300       6301       6312       6311  
      6180       6181       6192       6191       6301       6302       6313       6312  
      6181       6182       6193       6192       6302       6303       6314       6313  
      6183       6184       6195       6194       6304       6305       6316       6315  
      6184       6185       6196       6195       6305       6306       6317       6316  
      6185       6186       6197       6196       6306       6307       6318       6317  
      6186       6187       6198       6197       6307       6308       6319       6318  
      6187       6188       6199       6198       6308       6309       6320       6319  
      6188       6189       6200       6199       6309       6310       6321       6320  
      6189       6190       6201       6200       6310       6311       6322       6321  
      6190       6191       6202       6201       6311       6312       6323       6322  
      6191       6192       6203       6202       6312       6313       6324       6323  
      6192       6193       6204       6203       6313       6314       6325       6324  
      6194       6195       6206       6205       6315       6316       6327       6326  
      6195       6196       6207       6206       6316       6317       6328       6327  
      6196       6197       6208       6207       6317       6318       6329       6328  
      6197       6198       6209       6208       6318       6319       6330       6329  
      6198       6199       6210       6209       6319       6320       6331       6330  
      6199       6200       6211       6210       6320       6321       6332       6331  
      6200       6201       6212       6211       6321       6322       6333       6332  
      6201       6202       6213       6212       6322       6323       6334       6333  
      6202       6203       6214       6213       6323       6324       6335       6334  
      6203       6204       6215       6214       6324       6325       6336       6335  
      6205       6206       6217       6216       6326       6327       6338       6337  
      6206       6207       6218       6217       6327       6328       6339       6338  
      6207       6208       6219       6218       6328       6329       6340       6339  
      6208       6209       6220       6219       6329       6330       6341       6340  
      6209       6210       6221       6220       6330       6331       6342       6341  
      6210       6211       6222       6221       6331       6332       6343       6342  
      6211       6212       6223       6222       6332       6333       6344       6343  
      6212       6213       6224       6223       6333       6334       6345       6344  
      6213       6214       6225       6224       6334       6335       6346       6345  
      6214       6215       6226       6225       6335       6336       6347       6346  
      6216       6217       6228       6227       6337       6338       6349       6348  
      6217       6218       6229       6228       6338       6339       6350       6349  
      6218       6219       6230       6229       6339       6340       6351       6350  
      6219       6220       6231       6230       6340       6341       6352       6351  
      6220       6221       6232       6231       6341       6342       6353       6352  
      6221       6222       6233       6232       6342       6343       6354       6353  
      6222       6223       6234       6233       6343       6344       6355       6354  
      6223       6224       6235       6234       6344       6345       6356       6355  
      6224       6225       6236       6235       6345       6346       6357       6356  
      6225       6226       6237       6236       6346       6347       6358       6357  
      6227       6228       6239       6238       6348       6349       6360       6359  
      6228       6229       6240       6239       6349       6350       6361       6360  
      6229       6230       6241       6240       6350       6351       6362       6361  
      6230       6231       6242       6241       6351       6352       6363       6362  
      6231       6232       6243       6242       6352       6353       6364       6363  
      6232       6233       6244       6243       6353       6354       6365       6364  
      6233       6234       6245       6244       6354       6355       6366       6365  
      6234       6235       6246       6245       6355       6356       6367       6366  
      6235       6236       6247       6246       6356       6357       6368       6367  
      6236       6237       6248       6247       6357       6358       6369       6368  
      6238       6239       6250       6249       6359       6360       6371       6370  
      6239       6240       6251       6250       6360       6361       6372       6371  
      6240       6241       6252       6251       6361       6362       6373       6372  
      6241       6242       6253       6252       6362       6363       6374       6373  
      6242       6243       6254       6253       6363       6364       6375       6374  
      6243       6244       6255       6254       6364       6365       6376       6375  
      6244       6245       6256       6255       6365       6366       6377       6376  
      6245       6246       6257       6256       6366       6367       6378       6377  
      6246       6247       6258       6257       6367       6368       6379       6378  
      6247       6248       6259       6258       6368       6369       6380       6379  
      6249       6250       6261       6260       6370       6371       6382       6381  
      6250       6251       6262       6261       6371       6372       6383       6382  
      6251       6252       6263       6262       6372       6373       6384       6383  
      6252       6253       6264       6263       6373       6374       6385       6384  
      6253       6254       6265       6264       6374       6375       6386       6385  
      6254       6255       6266       6265       6375       6376       6387       6386  
      6255       6256       6267       6266       6376       6377       6388       6387  
      6256       6257       6268       6267       6377       6378       6389       6388  
      6257       6258       6269       6268       6378       6379       6390       6389  
      6258       6259       6270       6269       6379       6380       6391       6390  
      6260       6261       6272       6271       6381       6382       6393       6392  
      6261       6262       6273       6272       6382       6383       6394       6393  
      6262       6263       6274       6273       6383       6384       6395       6394  
      6263       6264       6275       6274       6384       6385       6396       6395  
      6264       6265       6276       6275       6385       6386       6397       6396  
      6265       6266       6277       6276       6386       6387       6398       6397  
      6266       6267       6278       6277       6387       6388       6399       6398  
      6267       6268       6279       6278       6388       6389       6400       6399  
      6268       6269       6280       6279       6389       6390       6401       6400  
      6269       6270       6281       6280       6390       6391       6402       6401  
      6271       6272       6283       6282       6392       6393       6404       6403  
      6272       6273       6284       6283       6393       6394       6405       6404  
      6273       6274       6285       6284       6394       6395       6406       6405  
      6274       6275       6286       6285       6395       6396       6407       6406  
      6275       6276       6287       6286       6396       6397       6408       6407  
      6276       6277       6288       6287       6397       6398       6409       6408  
      6277       6278       6289       6288       6398       6399       6410       6409  
      6278       6279       6290       6289       6399       6400       6411       6410  
      6279       6280       6291       6290       6400       6401       6412       6411  
      6280       6281       6292       6291       6401       6402       6413       6412  
      6293       6294       6305       6304       6414       6415       6426       6425  
      6294       6295       6306       6305       6415       6416       6427       6426  
      6295       6296       6307       6306       6416       6417       6428       6427  
      6296       6297       6308       6307       6417       6418       6429       6428  
      6297       6298       6309       6308       6418       6419       6430       6429  
      6298       6299       6310       6309       6419       6420       6431       6430  
      6299       6300       6311       6310       6420       6421       6432       6431  
      6300       6301       6312       6311       6421       6422       6433       6432  
      6301       6302       6313       6312       6422       6423       6434       6433  
      6302       6303       6314       6313       6423       6424       6435       6434  
      6304       6305       6316       6315       6425       6426       6437       6436  
      6305       6306       6317       6316       6426       6427       6438       6437  
      6306       6307       6318       6317       6427       6428       6439       6438  
      6307       6308       6319       6318       6428       6429       6440       6439  
      6308       6309       6320       6319       6429       6430       6441       6440  
      6309       6310       6321       6320       6430       6431       6442       6441  
      6310       6311       6322       6321       6431       6432       6443       6442  
      6311       6312       6323       6322       6432       6433       6444       6443  
      6312       6313       6324       6323       6433       6434       6445       6444  
      6313       6314       6325       6324       6434       6435       6446       6445  
      6315       6316       6327       6326       6436       6437       6448       6447  
      6316       6317       6328       6327       6437       6438       6449       6448  
      6317       6318       6329       6328       6438       6439       6450       6449  
      6318       6319       6330       6329       6439       6440       6451       6450  
      6319       6320       6331       6330       6440       6441       6452       6451  
      6320       6321       6332       6331       6441       6442       6453       6452  
      6321       6322       6333       6332       6442       6443       6454       6453  
      6322       6323       6334       6333       6443       6444       6455       6454  
      6323       6324       6335       6334       6444       6445       6456       6455  
      6324       6325       6336       6335       6445       6446       6457       6456  
      6326       6327       6338       6337       6447       6448       6459       6458  
      6327       6328       6339       6338       6448       6449       6460       6459  
      6328       6329       6340       6339       6449       6450       6461       6460  
      6329       6330       6341       6340       6450       6451       6462       6461  
      6330       6331       6342       6341       6451       6452       6463       6462  
      6331       6332       6343       6342       6452       6453       6464       6463  
      6332       6333       6344       6343       6453       6454       6465       6464  
      6333       6334       6345       6344       6454       6455       6466       6465  
      6334       6335       6346       6345       6455       6456       6467       6466  
      6335       6336       6347       6346       6456       6457       6468       6467  
      6337       6338       6349       6348       6458       6459       6470       6469  
      6338       6339       6350       6349       6459       6460       6471       6470  
      6339       6340       6351       6350       6460       6461       6472       6471  
      6340       6341       6352       6351       6461       6462       6473       6472  
      6341       6342       6353       6352       6462       6463       6474       6473  
      6342       6343       6354       6353       6463       6464       6475       6474  
      6343       6344       6355       6354       6464       6465       6476       6475  
      6344       6345       6356       6355       6465       6466       6477       6476  
      6345       6346       6357       6356       6466       6467       6478       6477  
      6346       6347       6358       6357       6467       6468       6479       6478  
      6348       6349       6360       6359       6469       6470       6481       6480  
      6349       6350       6361       6360       6470       6471       6482       6481  
      6350       6351       6362       6361       6471       6472       6483       6482  
      6351       6352       6363       6362       6472       6473       6484       6483  
      6352       6353       6364       6363       6473       6474       6485       6484  
      6353       6354       6365       6364       6474       6475       6486       6485  
      6354       6355       6366       6365       6475       6476       6487       6486  
      6355       6356       6367       6366       6476       6477       6488       6487  
      6356       6357       6368       6367       6477       6478       6489       6488  
      6357       6358       6369       6368       6478       6479       6490       6489  
      6359       6360       6371       6370       6480       6481       6492       6491  
      6360       6361       6372       6371       6481       6482       6493       6492  
      6361       6362       6373       6372       6482       6483       6494       6493  
      6362       6363       6374       6373       6483       6484       6495       6494  
      6363       6364       6375       6374       6484       6485       6496       6495  
      6364       6365       6376       6375       6485       6486       6497       6496  
      6365       6366       6377       6376       6486       6487       6498       6497  
      6366       6367       6378       6377       6487       6488       6499       6498  
      6367       6368       6379       6378       6488       6489       6500       6499  
      6368       6369       6380       6379       6489       6490       6501       6500  
      6370       6371       6382       6381       6491       6492       6503       6502  
      6371       6372       6383       6382       6492       6493       6504       6503  
      6372       6373       6384       6383       6493       6494       6505       6504  
      6373       6374       6385       6384       6494       6495       6506       6505  
      6374       6375       6386       6385       6495       6496       6507       6506  
      6375       6376       6387       6386       6496       6497       6508       6507  
      6376       6377       6388       6387       6497       6498       6509       6508  
      6377       6378       6389       6388       6498       6499       6510       6509  
      6378       6379       6390       6389       6499       6500       6511       6510  
      6379       6380       6391       6390       6500       6501       6512       6511  
      6381       6382       6393       6392       6502       6503       6514       6513  
      6382       6383       6394       6393       6503       6504       6515       6514  
      6383       6384       6395       6394       6504       6505       6516       6515  
      6384       6385       6396       6395       6505       6506       6517       6516  
      6385       6386       6397       6396       6506       6507       6518       6517  
      6386       6387       6398       6397       6507       6508       6519       6518  
      6387       6388       6399       6398       6508       6509       6520       6519  
      6388       6389       6400       6399       6509       6510       6521       6520  
      6389       6390       6401       6400       6510       6511       6522       6521  
      6390       6391       6402       6401       6511       6512       6523       6522  
      6392       6393       6404       6403       6513       6514       6525       6524  
      6393       6394       6405       6404       6514       6515       6526       6525  
      6394       6395       6406       6405       6515       6516       6527       6526  
      6395       6396       6407       6406       6516       6517       6528       6527  
      6396       6397       6408       6407       6517       6518       6529       6528  
      6397       6398       6409       6408       6518       6519       6530       6529  
      6398       6399       6410       6409       6519       6520       6531       6530  
      6399       6400       6411       6410       6520       6521       6532       6531  
      6400       6401       6412       6411       6521       6522       6533       6532  
      6401       6402       6413       6412       6522       6523       6534       6533  
      6414       6415       6426       6425       6535       6536       6547       6546  
      6415       6416       6427       6426       6536       6537       6548       6547  
      6416       6417       6428       6427       6537       6538       6549       6548  
      6417       6418       6429       6428       6538       6539       6550       6549  
      6418       6419       6430       6429       6539       6540       6551       6550  
      6419       6420       6431       6430       6540       6541       6552       6551  
      6420       6421       6432       6431       6541       6542       6553       6552  
      6421       6422       6433       6432       6542       6543       6554       6553  
      6422       6423       6434       6433       6543       6544       6555       6554  
      6423       6424       6435       6434       6544       6545       6556       6555  
      6425       6426       6437       6436       6546       6547       6558       6557  
      6426       6427       6438       6437       6547       6548       6559       6558  
      6427       6428       6439       6438       6548       6549       6560       6559  
      6428       6429       6440       6439       6549       6550       6561       6560  
      6429       6430       6441       6440       6550       6551       6562       6561  
      6430       6431       6442       6441       6551       6552       6563       6562  
      6431       6432       6443       6442       6552       6553       6564       6563  
      6432       6433       6444       6443       6553       6554       6565       6564  
      6433       6434       6445       6444       6554       6555       6566       6565  
      6434       6435       6446       6445       6555       6556       6567       6566  
      6436       6437       6448       6447       6557       6558       6569       6568  
      6437       6438       6449       6448       6558       6559       6570       6569  
      6438       6439       6450       6449       6559       6560       6571       6570  
      6439       6440       6451       6450       6560       6561       6572       6571  
      6440       6441       6452       6451       6561       6562       6573       6572  
      6441       6442       6453       6452       6562       6563       6574       6573  
      6442       6443       6454       6453       6563       6564       6575       6574  
      6443       6444       6455       6454       6564       6565       6576       6575  
      6444       6445       6456       6455       6565       6566       6577       6576  
      6445       6446       6457       6456       6566       6567       6578       6577  
      6447       6448       6459       6458       6568       6569       6580       6579  
      6448       6449       6460       6459       6569       6570       6581       6580  
      6449       6450       6461       6460       6570       6571       6582       6581  
      6450       6451       6462       6461       6571       6572       6583       6582  
      6451       6452       6463       6462       6572       6573       6584       6583  
      6452       6453       6464       6463       6573       6574       6585       6584  
      6453       6454       6465       6464       6574       6575       6586       6585  
      6454       6455       6466       6465       6575       6576       6587       6586  
      6455       6456       6467       6466       6576       6577       6588       6587  
      6456       6457       6468       6467       6577       6578       6589       6588  
      6458       6459       6470       6469       6579       6580       6591       6590  
      6459       6460       6471       6470       6580       6581       6592       6591  
      6460       6461       6472       6471       6581       6582       6593       6592  
      6461       6462       6473       6472       6582       6583       6594       6593  
      6462       6463       6474       6473       6583       6584       6595       6594  
      6463       6464       6475       6474       6584       6585       6596       6595  
      6464       6465       6476       6475       6585       6586       6597       6596  
      6465       6466       6477       6476       6586       6587       6598       6597  
      6466       6467       6478       6477       6587       6588       6599       6598  
      6467       6468       6479       6478       6588       6589       6600       6599  
      6469       6470       6481       6480       6590       6591       6602       6601  
      6470       6471       6482       6481       6591       6592       6603       6602  
      6471       6472       6483       6482       6592       6593       6604       6603  
      6472       6473       6484       6483       6593       6594       6605       6604  
      6473       6474       6485       6484       6594       6595       6606       6605  
      6474       6475       6486       6485       6595       6596       6607       6606  
      6475       6476       6487       6486       6596       6597       6608       6607  
      6476       6477       6488       6487       6597       6598       6609       6608  
      6477       6478       6489       6488       6598       6599       6610       6609  
      6478       6479       6490       6489       6599       6600       6611       6610  
      6480       6481       6492       6491       6601       6602       6613       6612  
      6481       6482       6493       6492       6602       6603       6614       6613  
      6482       6483       6494       6493       6603       6604       6615       6614  
      6483       6484       6495       6494       6604       6605       6616       6615  
      6484       6485       6496       6495       6605       6606       6617       6616  
      6485       6486       6497       6496       6606       6607       6618       6617  
      6486       6487       6498       6497       6607       6608       6619       6618  
      6487       6488       6499       6498       6608       6609       6620       6619  
      6488       6489       6500       6499       6609       6610       6621       6620  
      6489       6490       6501       6500       6610       6611       6622       6621  
      6491       6492       6503       6502       6612       6613       6624       6623  
      6492       6493       6504       6503       6613       6614       6625       6624  
      6493       6494       6505       6504       6614       6615       6626       6625  
      6494       6495       6506       6505       6615       6616       6627       6626  
      6495       6496       6507       6506       6616       6617       6628       6627  
      6496       6497       6508       6507       6617       6618       6629       6628  
      6497       6498       6509       6508       6618       6619       6630       6629  
      6498       6499       6510       6509       6619       6620       6631       6630  
      6499       6500       6511       6510       6620       6621       6632       6631  
      6500       6501       6512       6511       6621       6622       6633       6632  
      6502       6503       6514       6513       6623       6624       6635       6634  
      6503       6504       6515       6514       6624       6625       6636       6635  
      6504       6505       6516       6515       6625       6626       6637       6636  
      6505       6506       6517       6516       6626       6627       6638       6637  
      6506       6507       6518       6517       6627       6628       6639       6638  
      6507       6508       6519       6518       6628       6629       6640       6639  
      6508       6509       6520       6519       6629       6630       6641       6640  
      6509       6510       6521       6520       6630       6631       6642       6641  
      6510       6511       6522       6521       6631       6632       6643       6642  
      6511       6512       6523       6522       6632       6633       6644       6643  
      6513       6514       6525       6524       6634       6635       6646       6645  
      6514       6515       6526       6525       6635       6636       6647       6646  
      6515       6516       6527       6526       6636       6637       6648       6647  
      6516       6517       6528       6527       6637       6638       6649       6648  
      6517       6518       6529       6528       6638       6639       6650       6649  
      6518       6519       6530       6529       6639       6640       6651       6650  
      6519       6520       6531       6530       6640       6641       6652       6651  
      6520       6521       6532       6531       6641       6642       6653       6652  
      6521       6522       6533       6532       6642       6643       6654       6653  
      6522       6523       6534       6533       6643       6644       6655       6654  
      6535       6536       6547       6546       6656       6657       6668       6667  
      6536       6537       6548       6547       6657       6658       6669       6668  
      6537       6538       6549       6548       6658       6659       6670       6669  
      6538       6539       6550       6549       6659       6660       6671       6670  
      6539       6540       6551       6550       6660       6661       6672       6671  
      6540       6541       6552       6551       6661       6662       6673       6672  
      6541       6542       6553       6552       6662       6663       6674       6673  
      6542       6543       6554       6553       6663       6664       6675       6674  
      6543       6544       6555       6554       6664       6665       6676       6675  
      6544       6545       6556       6555       6665       6666       6677       6676  
      6546       6547       6558       6557       6667       6668       6679       6678  
      6547       6548       6559       6558       6668       6669       6680       6679  
      6548       6549       6560       6559       6669       6670       6681       6680  
      6549       6550       6561       6560       6670       6671       6682       6681  
      6550       6551       6562       6561       6671       6672       6683       6682  
      6551       6552       6563       6562       6672       6673       6684       6683  
      6552       6553       6564       6563       6673       6674       6685       6684  
      6553       6554       6565       6564       6674       6675       6686       6685  
      6554       6555       6566       6565       6675       6676       6687       6686  
      6555       6556       6567       6566       6676       6677       6688       6687  
      6557       6558       6569       6568       6678       6679       6690       6689  
      6558       6559       6570       6569       6679       6680       6691       6690  
      6559       6560       6571       6570       6680       6681       6692       6691  
      6560       6561       6572       6571       6681       6682       6693       6692  
      6561       6562       6573       6572       6682       6683       6694       6693  
      6562       6563       6574       6573       6683       6684       6695       6694  
      6563       6564       6575       6574       6684       6685       6696       6695  
      6564       6565       6576       6575       6685       6686       6697       6696  
      6565       6566       6577       6576       6686       6687       6698       6697  
      6566       6567       6578       6577       6687       6688       6699       6698  
      6568       6569       6580       6579       6689       6690       6701       6700  
      6569       6570       6581       6580       6690       6691       6702       6701  
      6570       6571       6582       6581       6691       6692       6703       6702  
      6571       6572       6583       6582       6692       6693       6704       6703  
      6572       6573       6584       6583       6693       6694       6705       6704  
      6573       6574       6585       6584       6694       6695       6706       6705  
      6574       6575       6586       6585       6695       6696       6707       6706  
      6575       6576       6587       6586       6696       6697       6708       6707  
      6576       6577       6588       6587       6697       6698       6709       6708  
      6577       6578       6589       6588       6698       6699       6710       6709  
      6579       6580       6591       6590       6700       6701       6712       6711  
      6580       6581       6592       6591       6701       6702       6713       6712  
      6581       6582       6593       6592       6702       6703       6714       6713  
      6582       6583       6594       6593       6703       6704       6715       6714  
      6583       6584       6595       6594       6704       6705       6716       6715  
      6584       6585       6596       6595       6705       6706       6717       6716  
      6585       6586       6597       6596       6706       6707       6718       6717  
      6586       6587       6598       6597       6707       6708       6719       6718  
      6587       6588       6599       6598       6708       6709       6720       6719  
      6588       6589       6600       6599       6709       6710       6721       6720  
      6590       6591       6602       6601       6711       6712       6723       6722  
      6591       6592       6603       6602       6712       6713       6724       6723  
      6592       6593       6604       6603       6713       6714       6725       6724  
      6593       6594       6605       6604       6714       6715       6726       6725  
      6594       6595       6606       6605       6715       6716       6727       6726  
      6595       6596       6607       6606       6716       6717       6728       6727  
      6596       6597       6608       6607       6717       6718       6729       6728  
      6597       6598       6609       6608       6718       6719       6730       6729  
      6598       6599       6610       6609       6719       6720       6731       6730  
      6599       6600       6611       6610       6720       6721       6732       6731  
      6601       6602       6613       6612       6722       6723       6734       6733  
      6602       6603       6614       6613       6723       6724       6735       6734  
      6603       6604       6615       6614       6724       6725       6736       6735  
      6604       6605       6616       6615       6725       6726       6737       6736  
      6605       6606       6617       6616       6726       6727       6738       6737  
      6606       6607       6618       6617       6727       6728       6739       6738  
      6607       6608       6619       6618       6728       6729       6740       6739  
      6608       6609       6620       6619       6729       6730       6741       6740  
      6609       6610       6621       6620       6730       6731       6742       6741  
      6610       6611       6622       6621       6731       6732       6743       6742  
      6612       6613       6624       6623       6733       6734       6745       6744  
      6613       6614       6625       6624       6734       6735       6746       6745  
      6614       6615       6626       6625       6735       6736       6747       6746  
      6615       6616       6627       6626       6736       6737       6748       6747  
      6616       6617       6628       6627       6737       6738       6749       6748  
      6617       6618       6629       6628       6738       6739       6750       6749  
      6618       6619       6630       6629       6739       6740       6751       6750  
      6619       6620       6631       6630       6740       6741       6752       6751  
      6620       6621       6632       6631       6741       6742       6753       6752  
      6621       6622       6633       6632       6742       6743       6754       6753  
      6623       6624       6635       6634       6744       6745       6756       6755  
      6624       6625       6636       6635       6745       6746       6757       6756  
      6625       6626       6637       6636       6746       6747       6758       6757  
      6626       6627       6638       6637       6747       6748       6759       6758  
      6627       6628       6639       6638       6748       6749       6760       6759  
      6628       6629       6640       6639       6749       6750       6761       6760  
      6629       6630       6641       6640       6750       6751       6762       6761  
      6630       6631       6642       6641       6751       6752       6763       6762  
      6631       6632       6643       6642       6752       6753       6764       6763  
      6632       6633       6644       6643       6753       6754       6765       6764  
      6634       6635       6646       6645       6755       6756       6767       6766  
      6635       6636       6647       6646       6756       6757       6768       6767  
      6636       6637       6648       6647       6757       6758       6769       6768  
      6637       6638       6649       6648       6758       6759       6770       6769  
      6638       6639       6650       6649       6759       6760       6771       6770  
      6639       6640       6651       6650       6760       6761       6772       6771  
      6640       6641       6652       6651       6761       6762       6773       6772  
      6641       6642       6653       6652       6762       6763       6774       6773  
      6642       6643       6654       6653       6763       6764       6775       6774  
      6643       6644       6655       6654       6764       6765       6776       6775  
      6656       6657       6668       6667       6777       6778       6789       6788  
      6657       6658       6669       6668       6778       6779       6790       6789  
      6658       6659       6670       6669       6779       6780       6791       6790  
      6659       6660       6671       6670       6780       6781       6792       6791  
      6660       6661       6672       6671       6781       6782       6793       6792  
      6661       6662       6673       6672       6782       6783       6794       6793  
      6662       6663       6674       6673       6783       6784       6795       6794  
      6663       6664       6675       6674       6784       6785       6796       6795  
      6664       6665       6676       6675       6785       6786       6797       6796  
      6665       6666       6677       6676       6786       6787       6798       6797  
      6667       6668       6679       6678       6788       6789       6800       6799  
      6668       6669       6680       6679       6789       6790       6801       6800  
      6669       6670       6681       6680       6790       6791       6802       6801  
      6670       6671       6682       6681       6791       6792       6803       6802  
      6671       6672       6683       6682       6792       6793       6804       6803  
      6672       6673       6684       6683       6793       6794       6805       6804  
      6673       6674       6685       6684       6794       6795       6806       6805  
      6674       6675       6686       6685       6795       6796       6807       6806  
      6675       6676       6687       6686       6796       6797       6808       6807  
      6676       6677       6688       6687       6797       6798       6809       6808  
      6678       6679       6690       6689       6799       6800       6811       6810  
      6679       6680       6691       6690       6800       6801       6812       6811  
      6680       6681       6692       6691       6801       6802       6813       6812  
      6681       6682       6693       6692       6802       6803       6814       6813  
      6682       6683       6694       6693       6803       6804       6815       6814  
      6683       6684       6695       6694       6804       6805       6816       6815  
      6684       6685       6696       6695       6805       6806       6817       6816  
      6685       6686       6697       6696       6806       6807       6818       6817  
      6686       6687       6698       6697       6807       6808       6819       6818  
      6687       6688       6699       6698       6808       6809       6820       6819  
      6689       6690       6701       6700       6810       6811       6822       6821  
      6690       6691       6702       6701       6811       6812       6823       6822  
      6691       6692       6703       6702       6812       6813       6824       6823  
      6692       6693       6704       6703       6813       6814       6825       6824  
      6693       6694       6705       6704       6814       6815       6826       6825  
      6694       6695       6706       6705       6815       6816       6827       6826  
      6695       6696       6707       6706       6816       6817       6828       6827  
      6696       6697       6708       6707       6817       6818       6829       6828  
      6697       6698       6709       6708       6818       6819       6830       6829  
      6698       6699       6710       6709       6819       6820       6831       6830  
      6700       6701       6712       6711       6821       6822       6833       6832  
      6701       6702       6713       6712       6822       6823       6834       6833  
      6702       6703       6714       6713       6823       6824       6835       6834  
      6703       6704       6715       6714       6824       6825       6836       6835  
      6704       6705       6716       6715       6825       6826       6837       6836  
      6705       6706       6717       6716       6826       6827       6838       6837  
      6706       6707       6718       6717       6827       6828       6839       6838  
      6707       6708       6719       6718       6828       6829       6840       6839  
      6708       6709       6720       6719       6829       6830       6841       6840  
      6709       6710       6721       6720       6830       6831       6842       6841  
      6711       6712       6723       6722       6832       6833       6844       6843  
      6712       6713       6724       6723       6833       6834       6845       6844  
      6713       6714       6725       6724       6834       6835       6846       6845  
      6714       6715       6726       6725       6835       6836       6847       6846  
      6715       6716       6727       6726       6836       6837       6848       6847  
      6716       6717       6728       6727       6837       6838       6849       6848  
      6717       6718       6729       6728       6838       6839       6850       6849  
      6718       6719       6730       6729       6839       6840       6851       6850  
      6719       6720       6731       6730       6840       6841       6852       6851  
      6720       6721       6732       6731       6841       6842       6853       6852  
      6722       6723       6734       6733       6843       6844       6855       6854  
      6723       6724       6735       6734       6844       6845       6856       6855  
      6724       6725       6736       6735       6845       6846       6857       6856  
      6725       6726       6737       6736       6846       6847       6858       6857  
      6726       6727       6738       6737       6847       6848       6859       6858  
      6727       6728       6739       6738       6848       6849       6860       6859  
      6728       6729       6740       6739       6849       6850       6861       6860  
      6729       6730       6741       6740       6850       6851       6862       6861  
      6730       6731       6742       6741       6851       6852       6863       6862  
      6731       6732       6743       6742       6852       6853       6864       6863  
      6733       6734       6745       6744       6854       6855       6866       6865  
      6734       6735       6746       6745       6855       6856       6867       6866  
      6735       6736       6747       6746       6856       6857       6868       6867  
      6736       6737       6748       6747       6857       6858       6869       6868  
      6737       6738       6749       6748       6858       6859       6870       6869  
      6738       6739       6750       6749       6859       6860       6871       6870  
      6739       6740       6751       6750       6860       6861       6872       6871  
      6740       6741       6752       6751       6861       6862       6873       6872  
      6741       6742       6753       6752       6862       6863       6874       6873  
      6742       6743       6754       6753       6863       6864       6875       6874  
      6744       6745       6756       6755       6865       6866       6877       6876  
      6745       6746       6757       6756       6866       6867       6878       6877  
      6746       6747       6758       6757       6867       6868       6879       6878  
      6747       6748       6759       6758       6868       6869       6880       6879  
      6748       6749       6760       6759       6869       6870       6881       6880  
      6749       6750       6761       6760       6870       6871       6882       6881  
      6750       6751       6762       6761       6871       6872       6883       6882  
      6751       6752       6763       6762       6872       6873       6884       6883  
      6752       6753       6764       6763       6873       6874       6885       6884  
      6753       6754       6765       6764       6874       6875       6886       6885  
      6755       6756       6767       6766       6876       6877       6888       6887  
      6756       6757       6768       6767       6877       6878       6889       6888  
      6757       6758       6769       6768       6878       6879       6890       6889  
      6758       6759       6770       6769       6879       6880       6891       6890  
      6759       6760       6771       6770       6880       6881       6892       6891  
      6760       6761       6772       6771       6881       6882       6893       6892  
      6761       6762       6773       6772       6882       6883       6894       6893  
      6762       6763       6774       6773       6883       6884       6895       6894  
      6763       6764       6775       6774       6884       6885       6896       6895  
      6764       6765       6776       6775       6885       6886       6897       6896  
      6777       6778       6789       6788       6898       6899       6910       6909  
      6778       6779       6790       6789       6899       6900       6911       6910  
      6779       6780       6791       6790       6900       6901       6912       6911  
      6780       6781       6792       6791       6901       6902       6913       6912  
      6781       6782       6793       6792       6902       6903       6914       6913  
      6782       6783       6794       6793       6903       6904       6915       6914  
      6783       6784       6795       6794       6904       6905       6916       6915  
      6784       6785       6796       6795       6905       6906       6917       6916  
      6785       6786       6797       6796       6906       6907       6918       6917  
      6786       6787       6798       6797       6907       6908       6919       6918  
      6788       6789       6800       6799       6909       6910       6921       6920  
      6789       6790       6801       6800       6910       6911       6922       6921  
      6790       6791       6802       6801       6911       6912       6923       6922  
      6791       6792       6803       6802       6912       6913       6924       6923  
      6792       6793       6804       6803       6913       6914       6925       6924  
      6793       6794       6805       6804       6914       6915       6926       6925  
      6794       6795       6806       6805       6915       6916       6927       6926  
      6795       6796       6807       6806       6916       6917       6928       6927  
      6796       6797       6808       6807       6917       6918       6929       6928  
      6797       6798       6809       6808       6918       6919       6930       6929  
      6799       6800       6811       6810       6920       6921       6932       6931  
      6800       6801       6812       6811       6921       6922       6933       6932  
      6801       6802       6813       6812       6922       6923       6934       6933  
      6802       6803       6814       6813       6923       6924       6935       6934  
      6803       6804       6815       6814       6924       6925       6936       6935  
      6804       6805       6816       6815       6925       6926       6937       6936  
      6805       6806       6817       6816       6926       6927       6938       6937  
      6806       6807       6818       6817       6927       6928       6939       6938  
      6807       6808       6819       6818       6928       6929       6940       6939  
      6808       6809       6820       6819       6929       6930       6941       6940  
      6810       6811       6822       6821       6931       6932       6943       6942  
      6811       6812       6823       6822       6932       6933       6944       6943  
      6812       6813       6824       6823       6933       6934       6945       6944  
      6813       6814       6825       6824       6934       6935       6946       6945  
      6814       6815       6826       6825       6935       6936       6947       6946  
      6815       6816       6827       6826       6936       6937       6948       6947  
      6816       6817       6828       6827       6937       6938       6949       6948  
      6817       6818       6829       6828       6938       6939       6950       6949  
      6818       6819       6830       6829       6939       6940       6951       6950  
      6819       6820       6831       6830       6940       6941       6952       6951  
      6821       6822       6833       6832       6942       6943       6954       6953  
      6822       6823       6834       6833       6943       6944       6955       6954  
      6823       6824       6835       6834       6944       6945       6956       6955  
      6824       6825       6836       6835       6945       6946       6957       6956  
      6825       6826       6837       6836       6946       6947       6958       6957  
      6826       6827       6838       6837       6947       6948       6959       6958  
      6827       6828       6839       6838       6948       6949       6960       6959  
      6828       6829       6840       6839       6949       6950       6961       6960  
      6829       6830       6841       6840       6950       6951       6962       6961  
      6830       6831       6842       6841       6951       6952       6963       6962  
      6832       6833       6844       6843       6953       6954       6965       6964  
      6833       6834       6845       6844       6954       6955       6966       6965  
      6834       6835       6846       6845       6955       6956       6967       6966  
      6835       6836       6847       6846       6956       6957       6968       6967  
      6836       6837       6848       6847       6957       6958       6969       6968  
      6837       6838       6849       6848       6958       6959       6970       6969  
      6838       6839       6850       6849       6959       6960       6971       6970  
      6839       6840       6851       6850       6960       6961       6972       6971  
      6840       6841       6852       6851       6961       6962       6973       6972  
      6841       6842       6853       6852       6962       6963       6974       6973  
      6843       6844       6855       6854       6964       6965       6976       6975  
      6844       6845       6856       6855       6965       6966       6977       6976  
      6845       6846       6857       6856       6966       6967       6978       6977  
      6846       6847       6858       6857       6967       6968       6979       6978  
      6847       6848       6859       6858       6968       6969       6980       6979  
      6848       6849       6860       6859       6969       6970       6981       6980  
      6849       6850       6861       6860       6970       6971       6982       6981  
      6850       6851       6862       6861       6971       6972       6983       6982  
      6851       6852       6863       6862       6972       6973       6984       6983  
      6852       6853       6864       6863       6973       6974       6985       6984  
      6854       6855       6866       6865       6975       6976       6987       6986  
      6855       6856       6867       6866       6976       6977       6988       6987  
      6856       6857       6868       6867       6977       6978       6989       6988  
      6857       6858       6869       6868       6978       6979       6990       6989  
      6858       6859       6870       6869       6979       6980       6991       6990  
      6859       6860       6871       6870       6980       6981       6992       6991  
      6860       6861       6872       6871       6981       6982       6993       6992  
      6861       6862       6873       6872       6982       6983       6994       6993  
      6862       6863       6874       6873       6983       6984       6995       6994  
      6863       6864       6875       6874       6984       6985       6996       6995  
      6865       6866       6877       6876       6986       6987       6998       6997  
      6866       6867       6878       6877       6987       6988       6999       6998  
      6867       6868       6879       6878       6988       6989       7000       6999  
      6868       6869       6880       6879       6989       6990       7001       7000  
      6869       6870       6881       6880       6990       6991       7002       7001  
      6870       6871       6882       6881       6991       6992       7003       7002  
      6871       6872       6883       6882       6992       6993       7004       7003  
      6872       6873       6884       6883       6993       6994       7005       7004  
      6873       6874       6885       6884       6994       6995       7006       7005  
      6874       6875       6886       6885       6995       6996       7007       7006  
      6876       6877       6888       6887       6997       6998       7009       7008  
      6877       6878       6889       6888       6998       6999       7010       7009  
      6878       6879       6890       6889       6999       7000       7011       7010  
      6879       6880       6891       6890       7000       7001       7012       7011  
      6880       6881       6892       6891       7001       7002       7013       7012  
      6881       6882       6893       6892       7002       7003       7014       7013  
      6882       6883       6894       6893       7003       7004       7015       7014  
      6883       6884       6895       6894       7004       7005       7016       7015  
      6884       6885       6896       6895       7005       7006       7017       7016  
      6885       6886       6897       6896       7006       7007       7018       7017  
      6898       6899       6910       6909       7019       7020       7031       7030  
      6899       6900       6911       6910       7020       7021       7032       7031  
      6900       6901       6912       6911       7021       7022       7033       7032  
      6901       6902       6913       6912       7022       7023       7034       7033  
      6902       6903       6914       6913       7023       7024       7035       7034  
      6903       6904       6915       6914       7024       7025       7036       7035  
      6904       6905       6916       6915       7025       7026       7037       7036  
      6905       6906       6917       6916       7026       7027       7038       7037  
      6906       6907       6918       6917       7027       7028       7039       7038  
      6907       6908       6919       6918       7028       7029       7040       7039  
      6909       6910       6921       6920       7030       7031       7042       7041  
      6910       6911       6922       6921       7031       7032       7043       7042  
      6911       6912       6923       6922       7032       7033       7044       7043  
      6912       6913       6924       6923       7033       7034       7045       7044  
      6913       6914       6925       6924       7034       7035       7046       7045  
      6914       6915       6926       6925       7035       7036       7047       7046  
      6915       6916       6927       6926       7036       7037       7048       7047  
      6916       6917       6928       6927       7037       7038       7049       7048  
      6917       6918       6929       6928       7038       7039       7050       7049  
      6918       6919       6930       6929       7039       7040       7051       7050  
      6920       6921       6932       6931       7041       7042       7053       7052  
      6921       6922       6933       6932       7042       7043       7054       7053  
      6922       6923       6934       6933       7043       7044       7055       7054  
      6923       6924       6935       6934       7044       7045       7056       7055  
      6924       6925       6936       6935       7045       7046       7057       7056  
      6925       6926       6937       6936       7046       7047       7058       7057  
      6926       6927       6938       6937       7047       7048       7059       7058  
      6927       6928       6939       6938       7048       7049       7060       7059  
      6928       6929       6940       6939       7049       7050       7061       7060  
      6929       6930       6941       6940       7050       7051       7062       7061  
      6931       6932       6943       6942       7052       7053       7064       7063  
      6932       6933       6944       6943       7053       7054       7065       7064  
      6933       6934       6945       6944       7054       7055       7066       7065  
      6934       6935       6946       6945       7055       7056       7067       7066  
      6935       6936       6947       6946       7056       7057       7068       7067  
      6936       6937       6948       6947       7057       7058       7069       7068  
      6937       6938       6949       6948       7058       7059       7070       7069  
      6938       6939       6950       6949       7059       7060       7071       7070  
      6939       6940       6951       6950       7060       7061       7072       7071  
      6940       6941       6952       6951       7061       7062       7073       7072  
      6942       6943       6954       6953       7063       7064       7075       7074  
      6943       6944       6955       6954       7064       7065       7076       7075  
      6944       6945       6956       6955       7065       7066       7077       7076  
      6945       6946       6957       6956       7066       7067       7078       7077  
      6946       6947       6958       6957       7067       7068       7079       7078  
      6947       6948       6959       6958       7068       7069       7080       7079  
      6948       6949       6960       6959       7069       7070       7081       7080  
      6949       6950       6961       6960       7070       7071       7082       7081  
      6950       6951       6962       6961       7071       7072       7083       7082  
      6951       6952       6963       6962       7072       7073       7084       7083  
      6953       6954       6965       6964       7074       7075       7086       7085  
      6954       6955       6966       6965       7075       7076       7087       7086  
      6955       6956       6967       6966       7076       7077       7088       7087  
      6956       6957       6968       6967       7077       7078       7089       7088  
      6957       6958       6969       6968       7078       7079       7090       7089  
      6958       6959       6970       6969       7079       7080       7091       7090  
      6959       6960       6971       6970       7080       7081       7092       7091  
      6960       6961       6972       6971       7081       7082       7093       7092  
      6961       6962       6973       6972       7082       7083       7094       7093  
      6962       6963       6974       6973       7083       7084       7095       7094  
      6964       6965       6976       6975       7085       7086       7097       7096  
      6965       6966       6977       6976       7086       7087       7098       7097  
      6966       6967       6978       6977       7087       7088       7099       7098  
      6967       6968       6979       6978       7088       7089       7100       7099  
      6968       6969       6980       6979       7089       7090       7101       7100  
      6969       6970       6981       6980       7090       7091       7102       7101  
      6970       6971       6982       6981       7091       7092       7103       7102  
      6971       6972       6983       6982       7092       7093       7104       7103  
      6972       6973       6984       6983       7093       7094       7105       7104  
      6973       6974       6985       6984       7094       7095       7106       7105  
      6975       6976       6987       6986       7096       7097       7108       7107  
      6976       6977       6988       6987       7097       7098       7109       7108  
      6977       6978       6989       6988       7098       7099       7110       7109  
      6978       6979       6990       6989       7099       7100       7111       7110  
      6979       6980       6991       6990       7100       7101       7112       7111  
      6980       6981       6992       6991       7101       7102       7113       7112  
      6981       6982       6993       6992       7102       7103       7114       7113  
      6982       6983       6994       6993       7103       7104       7115       7114  
      6983       6984       6995       6994       7104       7105       7116       7115  
      6984       6985       6996       6995       7105       7106       7117       7116  
      6986       6987       6998       6997       7107       7108       7119       7118  
      6987       6988       6999       6998       7108       7109       7120       7119  
      6988       6989       7000       6999       7109       7110       7121       7120  
      6989       6990       7001       7000       7110       7111       7122       7121  
      6990       6991       7002       7001       7111       7112       7123       7122  
      6991       6992       7003       7002       7112       7113       7124       7123  
      6992       6993       7004       7003       7113       7114       7125       7124  
      6993       6994       7005       7004       7114       7115       7126       7125  
      6994       6995       7006       7005       7115       7116       7127       7126  
      6995       6996       7007       7006       7116       7117       7128       7127  
      6997       6998       7009       7008       7118       7119       7130       7129  
      6998       6999       7010       7009       7119       7120       7131       7130  
      6999       7000       7011       7010       7120       7121       7132       7131  
      7000       7001       7012       7011       7121       7122       7133       7132  
      7001       7002       7013       7012       7122       7123       7134       7133  
      7002       7003       7014       7013       7123       7124       7135       7134  
      7003       7004       7015       7014       7124       7125       7136       7135  
      7004       7005       7016       7015       7125       7126       7137       7136  
      7005       7006       7017       7016       7126       7127       7138       7137  
      7006       7007       7018       7017       7127       7128       7139       7138  
      7019       7020       7031       7030       7140       7141       7152       7151  
      7020       7021       7032       7031       7141       7142       7153       7152  
      7021       7022       7033       7032       7142       7143       7154       7153  
      7022       7023       7034       7033       7143       7144       7155       7154  
      7023       7024       7035       7034       7144       7145       7156       7155  
      7024       7025       7036       7035       7145       7146       7157       7156  
      7025       7026       7037       7036       7146       7147       7158       7157  
      7026       7027       7038       7037       7147       7148       7159       7158  
      7027       7028       7039       7038       7148       7149       7160       7159  
      7028       7029       7040       7039       7149       7150       7161       7160  
      7030       7031       7042       7041       7151       7152       7163       7162  
      7031       7032       7043       7042       7152       7153       7164       7163  
      7032       7033       7044       7043       7153       7154       7165       7164  
      7033       7034       7045       7044       7154       7155       7166       7165  
      7034       7035       7046       7045       7155       7156       7167       7166  
      7035       7036       7047       7046       7156       7157       7168       7167  
      7036       7037       7048       7047       7157       7158       7169       7168  
      7037       7038       7049       7048       7158       7159       7170       7169  
      7038       7039       7050       7049       7159       7160       7171       7170  
      7039       7040       7051       7050       7160       7161       7172       7171  
      7041       7042       7053       7052       7162       7163       7174       7173  
      7042       7043       7054       7053       7163       7164       7175       7174  
      7043       7044       7055       7054       7164       7165       7176       7175  
      7044       7045       7056       7055       7165       7166       7177       7176  
      7045       7046       7057       7056       7166       7167       7178       7177  
      7046       7047       7058       7057       7167       7168       7179       7178  
      7047       7048       7059       7058       7168       7169       7180       7179  
      7048       7049       7060       7059       7169       7170       7181       7180  
      7049       7050       7061       7060       7170       7171       7182       7181  
      7050       7051       7062       7061       7171       7172       7183       7182  
      7052       7053       7064       7063       7173       7174       7185       7184  
      7053       7054       7065       7064       7174       7175       7186       7185  
      7054       7055       7066       7065       7175       7176       7187       7186  
      7055       7056       7067       7066       7176       7177       7188       7187  
      7056       7057       7068       7067       7177       7178       7189       7188  
      7057       7058       7069       7068       7178       7179       7190       7189  
      7058       7059       7070       7069       7179       7180       7191       7190  
      7059       7060       7071       7070       7180       7181       7192       7191  
      7060       7061       7072       7071       7181       7182       7193       7192  
      7061       7062       7073       7072       7182       7183       7194       7193  
      7063       7064       7075       7074       7184       7185       7196       7195  
      7064       7065       7076       7075       7185       7186       7197       7196  
      7065       7066       7077       7076       7186       7187       7198       7197  
      7066       7067       7078       7077       7187       7188       7199       7198  
      7067       7068       7079       7078       7188       7189       7200       7199  
      7068       7069       7080       7079       7189       7190       7201       7200  
      7069       7070       7081       7080       7190       7191       7202       7201  
      7070       7071       7082       7081       7191       7192       7203       7202  
      7071       7072       7083       7082       7192       7193       7204       7203  
      7072       7073       7084       7083       7193       7194       7205       7204  
      7074       7075       7086       7085       7195       7196       7207       7206  
      7075       7076       7087       7086       7196       7197       7208       7207  
      7076       7077       7088       7087       7197       7198       7209       7208  
      7077       7078       7089       7088       7198       7199       7210       7209  
      7078       7079       7090       7089       7199       7200       7211       7210  
      7079       7080       7091       7090       7200       7201       7212       7211  
      7080       7081       7092       7091       7201       7202       7213       7212  
      7081       7082       7093       7092       7202       7203       7214       7213  
      7082       7083       7094       7093       7203       7204       7215       7214  
      7083       7084       7095       7094       7204       7205       7216       7215  
      7085       7086       7097       7096       7206       7207       7218       7217  
      7086       7087       7098       7097       7207       7208       7219       7218  
      7087       7088       7099       7098       7208       7209       7220       7219  
      7088       7089       7100       7099       7209       7210       7221       7220  
      7089       7090       7101       7100       7210       7211       7222       7221  
      7090       7091       7102       7101       7211       7212       7223       7222  
      7091       7092       7103       7102       7212       7213       7224       7223  
      7092       7093       7104       7103       7213       7214       7225       7224  
      7093       7094       7105       7104       7214       7215       7226       7225  
      7094       7095       7106       7105       7215       7216       7227       7226  
      7096       7097       7108       7107       7217       7218       7229       7228  
      7097       7098       7109       7108       7218       7219       7230       7229  
      7098       7099       7110       7109       7219       7220       7231       7230  
      7099       7100       7111       7110       7220       7221       7232       7231  
      7100       7101       7112       7111       7221       7222       7233       7232  
      7101       7102       7113       7112       7222       7223       7234       7233  
      7102       7103       7114       7113       7223       7224       7235       7234  
      7103       7104       7115       7114       7224       7225       7236       7235  
      7104       7105       7116       7115       7225       7226       7237       7236  
      7105       7106       7117       7116       7226       7227       7238       7237  
      7107       7108       7119       7118       7228       7229       7240       7239  
      7108       7109       7120       7119       7229       7230       7241       7240  
      7109       7110       7121       7120       7230       7231       7242       7241  
      7110       7111       7122       7121       7231       7232       7243       7242  
      7111       7112       7123       7122       7232       7233       7244       7243  
      7112       7113       7124       7123       7233       7234       7245       7244  
      7113       7114       7125       7124       7234       7235       7246       7245  
      7114       7115       7126       7125       7235       7236       7247       7246  
      7115       7116       7127       7126       7236       7237       7248       7247  
      7116       7117       7128       7127       7237       7238       7249       7248  
      7118       7119       7130       7129       7239       7240       7251       7250  
      7119       7120       7131       7130       7240       7241       7252       7251  
      7120       7121       7132       7131       7241       7242       7253       7252  
      7121       7122       7133       7132       7242       7243       7254       7253  
      7122       7123       7134       7133       7243       7244       7255       7254  
      7123       7124       7135       7134       7244       7245       7256       7255  
      7124       7125       7136       7135       7245       7246       7257       7256  
      7125       7126       7137       7136       7246       7247       7258       7257  
      7126       7127       7138       7137       7247       7248       7259       7258  
      7127       7128       7139       7138       7248       7249       7260       7259  
      7140       7141       7152       7151       7261       7262       7273       7272  
      7141       7142       7153       7152       7262       7263       7274       7273  
      7142       7143       7154       7153       7263       7264       7275       7274  
      7143       7144       7155       7154       7264       7265       7276       7275  
      7144       7145       7156       7155       7265       7266       7277       7276  
      7145       7146       7157       7156       7266       7267       7278       7277  
      7146       7147       7158       7157       7267       7268       7279       7278  
      7147       7148       7159       7158       7268       7269       7280       7279  
      7148       7149       7160       7159       7269       7270       7281       7280  
      7149       7150       7161       7160       7270       7271       7282       7281  
      7151       7152       7163       7162       7272       7273       7284       7283  
      7152       7153       7164       7163       7273       7274       7285       7284  
      7153       7154       7165       7164       7274       7275       7286       7285  
      7154       7155       7166       7165       7275       7276       7287       7286  
      7155       7156       7167       7166       7276       7277       7288       7287  
      7156       7157       7168       7167       7277       7278       7289       7288  
      7157       7158       7169       7168       7278       7279       7290       7289  
      7158       7159       7170       7169       7279       7280       7291       7290  
      7159       7160       7171       7170       7280       7281       7292       7291  
      7160       7161       7172       7171       7281       7282       7293       7292  
      7162       7163       7174       7173       7283       7284       7295       7294  
      7163       7164       7175       7174       7284       7285       7296       7295  
      7164       7165       7176       7175       7285       7286       7297       7296  
      7165       7166       7177       7176       7286       7287       7298       7297  
      7166       7167       7178       7177       7287       7288       7299       7298  
      7167       7168       7179       7178       7288       7289       7300       7299  
      7168       7169       7180       7179       7289       7290       7301       7300  
      7169       7170       7181       7180       7290       7291       7302       7301  
      7170       7171       7182       7181       7291       7292       7303       7302  
      7171       7172       7183       7182       7292       7293       7304       7303  
      7173       7174       7185       7184       7294       7295       7306       7305  
      7174       7175       7186       7185       7295       7296       7307       7306  
      7175       7176       7187       7186       7296       7297       7308       7307  
      7176       7177       7188       7187       7297       7298       7309       7308  
      7177       7178       7189       7188       7298       7299       7310       7309  
      7178       7179       7190       7189       7299       7300       7311       7310  
      7179       7180       7191       7190       7300       7301       7312       7311  
      7180       7181       7192       7191       7301       7302       7313       7312  
      7181       7182       7193       7192       7302       7303       7314       7313  
      7182       7183       7194       7193       7303       7304       7315       7314  
      7184       7185       7196       7195       7305       7306       7317       7316  
      7185       7186       7197       7196       7306       7307       7318       7317  
      7186       7187       7198       7197       7307       7308       7319       7318  
      7187       7188       7199       7198       7308       7309       7320       7319  
      7188       7189       7200       7199       7309       7310       7321       7320  
      7189       7190       7201       7200       7310       7311       7322       7321  
      7190       7191       7202       7201       7311       7312       7323       7322  
      7191       7192       7203       7202       7312       7313       7324       7323  
      7192       7193       7204       7203       7313       7314       7325       7324  
      7193       7194       7205       7204       7314       7315       7326       7325  
      7195       7196       7207       7206       7316       7317       7328       7327  
      7196       7197       7208       7207       7317       7318       7329       7328  
      7197       7198       7209       7208       7318       7319       7330       7329  
      7198       7199       7210       7209       7319       7320       7331       7330  
      7199       7200       7211       7210       7320       7321       7332       7331  
      7200       7201       7212       7211       7321       7322       7333       7332  
      7201       7202       7213       7212       7322       7323       7334       7333  
      7202       7203       7214       7213       7323       7324       7335       7334  
      7203       7204       7215       7214       7324       7325       7336       7335  
      7204       7205       7216       7215       7325       7326       7337       7336  
      7206       7207       7218       7217       7327       7328       7339       7338  
      7207       7208       7219       7218       7328       7329       7340       7339  
      7208       7209       7220       7219       7329       7330       7341       7340  
      7209       7210       7221       7220       7330       7331       7342       7341  
      7210       7211       7222       7221       7331       7332       7343       7342  
      7211       7212       7223       7222       7332       7333       7344       7343  
      7212       7213       7224       7223       7333       7334       7345       7344  
      7213       7214       7225       7224       7334       7335       7346       7345  
      7214       7215       7226       7225       7335       7336       7347       7346  
      7215       7216       7227       7226       7336       7337       7348       7347  
      7217       7218       7229       7228       7338       7339       7350       7349  
      7218       7219       7230       7229       7339       7340       7351       7350  
      7219       7220       7231       7230       7340       7341       7352       7351  
      7220       7221       7232       7231       7341       7342       7353       7352  
      7221       7222       7233       7232       7342       7343       7354       7353  
      7222       7223       7234       7233       7343       7344       7355       7354  
      7223       7224       7235       7234       7344       7345       7356       7355  
      7224       7225       7236       7235       7345       7346       7357       7356  
      7225       7226       7237       7236       7346       7347       7358       7357  
      7226       7227       7238       7237       7347       7348       7359       7358  
      7228       7229       7240       7239       7349       7350       7361       7360  
      7229       7230       7241       7240       7350       7351       7362       7361  
      7230       7231       7242       7241       7351       7352       7363       7362  
      7231       7232       7243       7242       7352       7353       7364       7363  
      7232       7233       7244       7243       7353       7354       7365       7364  
      7233       7234       7245       7244       7354       7355       7366       7365  
      7234       7235       7246       7245       7355       7356       7367       7366  
      7235       7236       7247       7246       7356       7357       7368       7367  
      7236       7237       7248       7247       7357       7358       7369       7368  
      7237       7238       7249       7248       7358       7359       7370       7369  
      7239       7240       7251       7250       7360       7361       7372       7371  
      7240       7241       7252       7251       7361       7362       7373       7372  
      7241       7242       7253       7252       7362       7363       7374       7373  
      7242       7243       7254       7253       7363       7364       7375       7374  
      7243       7244       7255       7254       7364       7365       7376       7375  
      7244       7245       7256       7255       7365       7366       7377       7376  
      7245       7246       7257       7256       7366       7367       7378       7377  
      7246       7247       7258       7257       7367       7368       7379       7378  
      7247       7248       7259       7258       7368       7369       7380       7379  
      7248       7249       7260       7259       7369       7370       7381       7380  
      7261       7262       7273       7272       7382       7383       7394       7393  
      7262       7263       7274       7273       7383       7384       7395       7394  
      7263       7264       7275       7274       7384       7385       7396       7395  
      7264       7265       7276       7275       7385       7386       7397       7396  
      7265       7266       7277       7276       7386       7387       7398       7397  
      7266       7267       7278       7277       7387       7388       7399       7398  
      7267       7268       7279       7278       7388       7389       7400       7399  
      7268       7269       7280       7279       7389       7390       7401       7400  
      7269       7270       7281       7280       7390       7391       7402       7401  
      7270       7271       7282       7281       7391       7392       7403       7402  
      7272       7273       7284       7283       7393       7394       7405       7404  
      7273       7274       7285       7284       7394       7395       7406       7405  
      7274       7275       7286       7285       7395       7396       7407       7406  
      7275       7276       7287       7286       7396       7397       7408       7407  
      7276       7277       7288       7287       7397       7398       7409       7408  
      7277       7278       7289       7288       7398       7399       7410       7409  
      7278       7279       7290       7289       7399       7400       7411       7410  
      7279       7280       7291       7290       7400       7401       7412       7411  
      7280       7281       7292       7291       7401       7402       7413       7412  
      7281       7282       7293       7292       7402       7403       7414       7413  
      7283       7284       7295       7294       7404       7405       7416       7415  
      7284       7285       7296       7295       7405       7406       7417       7416  
      7285       7286       7297       7296       7406       7407       7418       7417  
      7286       7287       7298       7297       7407       7408       7419       7418  
      7287       7288       7299       7298       7408       7409       7420       7419  
      7288       7289       7300       7299       7409       7410       7421       7420  
      7289       7290       7301       7300       7410       7411       7422       7421  
      7290       7291       7302       7301       7411       7412       7423       7422  
      7291       7292       7303       7302       7412       7413       7424       7423  
      7292       7293       7304       7303       7413       7414       7425       7424  
      7294       7295       7306       7305       7415       7416       7427       7426  
      7295       7296       7307       7306       7416       7417       7428       7427  
      7296       7297       7308       7307       7417       7418       7429       7428  
      7297       7298       7309       7308       7418       7419       7430       7429  
      7298       7299       7310       7309       7419       7420       7431       7430  
      7299       7300       7311       7310       7420       7421       7432       7431  
      7300       7301       7312       7311       7421       7422       7433       7432  
      7301       7302       7313       7312       7422       7423       7434       7433  
      7302       7303       7314       7313       7423       7424       7435       7434  
      7303       7304       7315       7314       7424       7425       7436       7435  
      7305       7306       7317       7316       7426       7427       7438       7437  
      7306       7307       7318       7317       7427       7428       7439       7438  
      7307       7308       7319       7318       7428       7429       7440       7439  
      7308       7309       7320       7319       7429       7430       7441       7440  
      7309       7310       7321       7320       7430       7431       7442       7441  
      7310       7311       7322       7321       7431       7432       7443       7442  
      7311       7312       7323       7322       7432       7433       7444       7443  
      7312       7313       7324       7323       7433       7434       7445       7444  
      7313       7314       7325       7324       7434       7435       7446       7445  
      7314       7315       7326       7325       7435       7436       7447       7446  
      7316       7317       7328       7327       7437       7438       7449       7448  
      7317       7318       7329       7328       7438       7439       7450       7449  
      7318       7319       7330       7329       7439       7440       7451       7450  
      7319       7320       7331       7330       7440       7441       7452       7451  
      7320       7321       7332       7331       7441       7442       7453       7452  
      7321       7322       7333       7332       7442       7443       7454       7453  
      7322       7323       7334       7333       7443       7444       7455       7454  
      7323       7324       7335       7334       7444       7445       7456       7455  
      7324       7325       7336       7335       7445       7446       7457       7456  
      7325       7326       7337       7336       7446       7447       7458       7457  
      7327       7328       7339       7338       7448       7449       7460       7459  
      7328       7329       7340       7339       7449       7450       7461       7460  
      7329       7330       7341       7340       7450       7451       7462       7461  
      7330       7331       7342       7341       7451       7452       7463       7462  
      7331       7332       7343       7342       7452       7453       7464       7463  
      7332       7333       7344       7343       7453       7454       7465       7464  
      7333       7334       7345       7344       7454       7455       7466       7465  
      7334       7335       7346       7345       7455       7456       7467       7466  
      7335       7336       7347       7346       7456       7457       7468       7467  
      7336       7337       7348       7347       7457       7458       7469       7468  
      7338       7339       7350       7349       7459       7460       7471       7470  
      7339       7340       7351       7350       7460       7461       7472       7471  
      7340       7341       7352       7351       7461       7462       7473       7472  
      7341       7342       7353       7352       7462       7463       7474       7473  
      7342       7343       7354       7353       7463       7464       7475       7474  
      7343       7344       7355       7354       7464       7465       7476       7475  
      7344       7345       7356       7355       7465       7466       7477       7476  
      7345       7346       7357       7356       7466       7467       7478       7477  
      7346       7347       7358       7357       7467       7468       7479       7478  
      7347       7348       7359       7358       7468       7469       7480       7479  
      7349       7350       7361       7360       7470       7471       7482       7481  
      7350       7351       7362       7361       7471       7472       7483       7482  
      7351       7352       7363       7362       7472       7473       7484       7483  
      7352       7353       7364       7363       7473       7474       7485       7484  
      7353       7354       7365       7364       7474       7475       7486       7485  
      7354       7355       7366       7365       7475       7476       7487       7486  
      7355       7356       7367       7366       7476       7477       7488       7487  
      7356       7357       7368       7367       7477       7478       7489       7488  
      7357       7358       7369       7368       7478       7479       7490       7489  
      7358       7359       7370       7369       7479       7480       7491       7490  
      7360       7361       7372       7371       7481       7482       7493       7492  
      7361       7362       7373       7372       7482       7483       7494       7493  
      7362       7363       7374       7373       7483       7484       7495       7494  
      7363       7364       7375       7374       7484       7485       7496       7495  
      7364       7365       7376       7375       7485       7486       7497       7496  
      7365       7366       7377       7376       7486       7487       7498       7497  
      7366       7367       7378       7377       7487       7488       7499       7498  
      7367       7368       7379       7378       7488       7489       7500       7499  
      7368       7369       7380       7379       7489       7490       7501       7500  
      7369       7370       7381       7380       7490       7491       7502       7501  
      7382       7383       7394       7393       7503       7504       7515       7514  
      7383       7384       7395       7394       7504       7505       7516       7515  
      7384       7385       7396       7395       7505       7506       7517       7516  
      7385       7386       7397       7396       7506       7507       7518       7517  
      7386       7387       7398       7397       7507       7508       7519       7518  
      7387       7388       7399       7398       7508       7509       7520       7519  
      7388       7389       7400       7399       7509       7510       7521       7520  
      7389       7390       7401       7400       7510       7511       7522       7521  
      7390       7391       7402       7401       7511       7512       7523       7522  
      7391       7392       7403       7402       7512       7513       7524       7523  
      7393       7394       7405       7404       7514       7515       7526       7525  
      7394       7395       7406       7405       7515       7516       7527       7526  
      7395       7396       7407       7406       7516       7517       7528       7527  
      7396       7397       7408       7407       7517       7518       7529       7528  
      7397       7398       7409       7408       7518       7519       7530       7529  
      7398       7399       7410       7409       7519       7520       7531       7530  
      7399       7400       7411       7410       7520       7521       7532       7531  
      7400       7401       7412       7411       7521       7522       7533       7532  
      7401       7402       7413       7412       7522       7523       7534       7533  
      7402       7403       7414       7413       7523       7524       7535       7534  
      7404       7405       7416       7415       7525       7526       7537       7536  
      7405       7406       7417       7416       7526       7527       7538       7537  
      7406       7407       7418       7417       7527       7528       7539       7538  
      7407       7408       7419       7418       7528       7529       7540       7539  
      7408       7409       7420       7419       7529       7530       7541       7540  
      7409       7410       7421       7420       7530       7531       7542       7541  
      7410       7411       7422       7421       7531       7532       7543       7542  
      7411       7412       7423       7422       7532       7533       7544       7543  
      7412       7413       7424       7423       7533       7534       7545       7544  
      7413       7414       7425       7424       7534       7535       7546       7545  
      7415       7416       7427       7426       7536       7537       7548       7547  
      7416       7417       7428       7427       7537       7538       7549       7548  
      7417       7418       7429       7428       7538       7539       7550       7549  
      7418       7419       7430       7429       7539       7540       7551       7550  
      7419       7420       7431       7430       7540       7541       7552       7551  
      7420       7421       7432       7431       7541       7542       7553       7552  
      7421       7422       7433       7432       7542       7543       7554       7553  
      7422       7423       7434       7433       7543       7544       7555       7554  
      7423       7424       7435       7434       7544       7545       7556       7555  
      7424       7425       7436       7435       7545       7546       7557       7556  
      7426       7427       7438       7437       7547       7548       7559       7558  
      7427       7428       7439       7438       7548       7549       7560       7559  
      7428       7429       7440       7439       7549       7550       7561       7560  
      7429       7430       7441       7440       7550       7551       7562       7561  
      7430       7431       7442       7441       7551       7552       7563       7562  
      7431       7432       7443       7442       7552       7553       7564       7563  
      7432       7433       7444       7443       7553       7554       7565       7564  
      7433       7434       7445       7444       7554       7555       7566       7565  
      7434       7435       7446       7445       7555       7556       7567       7566  
      7435       7436       7447       7446       7556       7557       7568       7567  
      7437       7438       7449       7448       7558       7559       7570       7569  
      7438       7439       7450       7449       7559       7560       7571       7570  
      7439       7440       7451       7450       7560       7561       7572       7571  
      7440       7441       7452       7451       7561       7562       7573       7572  
      7441       7442       7453       7452       7562       7563       7574       7573  
      7442       7443       7454       7453       7563       7564       7575       7574  
      7443       7444       7455       7454       7564       7565       7576       7575  
      7444       7445       7456       7455       7565       7566       7577       7576  
      7445       7446       7457       7456       7566       7567       7578       7577  
      7446       7447       7458       7457       7567       7568       7579       7578  
      7448       7449       7460       7459       7569       7570       7581       7580  
      7449       7450       7461       7460       7570       7571       7582       7581  
      7450       7451       7462       7461       7571       7572       7583       7582  
      7451       7452       7463       7462       7572       7573       7584       7583  
      7452       7453       7464       7463       7573       7574       7585       7584  
      7453       7454       7465       7464       7574       7575       7586       7585  
      7454       7455       7466       7465       7575       7576       7587       7586  
      7455       7456       7467       7466       7576       7577       7588       7587  
      7456       7457       7468       7467       7577       7578       7589       7588  
      7457       7458       7469       7468       7578       7579       7590       7589  
      7459       7460       7471       7470       7580       7581       7592       7591  
      7460       7461       7472       7471       7581       7582       7593       7592  
      7461       7462       7473       7472       7582       7583       7594       7593  
      7462       7463       7474       7473       7583       7584       7595       7594  
      7463       7464       7475       7474       7584       7585       7596       7595  
      7464       7465       7476       7475       7585       7586       7597       7596  
      7465       7466       7477       7476       7586       7587       7598       7597  
      7466       7467       7478       7477       7587       7588       7599       7598  
      7467       7468       7479       7478       7588       7589       7600       7599  
      7468       7469       7480       7479       7589       7590       7601       7600  
      7470       7471       7482       7481       7591       7592       7603       7602  
      7471       7472       7483       7482       7592       7593       7604       7603  
      7472       7473       7484       7483       7593       7594       7605       7604  
      7473       7474       7485       7484       7594       7595       7606       7605  
      7474       7475       7486       7485       7595       7596       7607       7606  
      7475       7476       7487       7486       7596       7597       7608       7607  
      7476       7477       7488       7487       7597       7598       7609       7608  
      7477       7478       7489       7488       7598       7599       7610       7609  
      7478       7479       7490       7489       7599       7600       7611       7610  
      7479       7480       7491       7490       7600       7601       7612       7611  
      7481       7482       7493       7492       7602       7603       7614       7613  
      7482       7483       7494       7493       7603       7604       7615       7614  
      7483       7484       7495       7494       7604       7605       7616       7615  
      7484       7485       7496       7495       7605       7606       7617       7616  
      7485       7486       7497       7496       7606       7607       7618       7617  
      7486       7487       7498       7497       7607       7608       7619       7618  
      7487       7488       7499       7498       7608       7609       7620       7619  
      7488       7489       7500       7499       7609       7610       7621       7620  
      7489       7490       7501       7500       7610       7611       7622       7621  
      7490       7491       7502       7501       7611       7612       7623       7622  
      7503       7504       7515       7514       7624       7625       7636       7635  
      7504       7505       7516       7515       7625       7626       7637       7636  
      7505       7506       7517       7516       7626       7627       7638       7637  
      7506       7507       7518       7517       7627       7628       7639       7638  
      7507       7508       7519       7518       7628       7629       7640       7639  
      7508       7509       7520       7519       7629       7630       7641       7640  
      7509       7510       7521       7520       7630       7631       7642       7641  
      7510       7511       7522       7521       7631       7632       7643       7642  
      7511       7512       7523       7522       7632       7633       7644       7643  
      7512       7513       7524       7523       7633       7634       7645       7644  
      7514       7515       7526       7525       7635       7636       7647       7646  
      7515       7516       7527       7526       7636       7637       7648       7647  
      7516       7517       7528       7527       7637       7638       7649       7648  
      7517       7518       7529       7528       7638       7639       7650       7649  
      7518       7519       7530       7529       7639       7640       7651       7650  
      7519       7520       7531       7530       7640       7641       7652       7651  
      7520       7521       7532       7531       7641       7642       7653       7652  
      7521       7522       7533       7532       7642       7643       7654       7653  
      7522       7523       7534       7533       7643       7644       7655       7654  
      7523       7524       7535       7534       7644       7645       7656       7655  
      7525       7526       7537       7536       7646       7647       7658       7657  
      7526       7527       7538       7537       7647       7648       7659       7658  
      7527       7528       7539       7538       7648       7649       7660       7659  
      7528       7529       7540       7539       7649       7650       7661       7660  
      7529       7530       7541       7540       7650       7651       7662       7661  
      7530       7531       7542       7541       7651       7652       7663       7662  
      7531       7532       7543       7542       7652       7653       7664       7663  
      7532       7533       7544       7543       7653       7654       7665       7664  
      7533       7534       7545       7544       7654       7655       7666       7665  
      7534       7535       7546       7545       7655       7656       7667       7666  
      7536       7537       7548       7547       7657       7658       7669       7668  
      7537       7538       7549       7548       7658       7659       7670       7669  
      7538       7539       7550       7549       7659       7660       7671       7670  
      7539       7540       7551       7550       7660       7661       7672       7671  
      7540       7541       7552       7551       7661       7662       7673       7672  
      7541       7542       7553       7552       7662       7663       7674       7673  
      7542       7543       7554       7553       7663       7664       7675       7674  
      7543       7544       7555       7554       7664       7665       7676       7675  
      7544       7545       7556       7555       7665       7666       7677       7676  
      7545       7546       7557       7556       7666       7667       7678       7677  
      7547       7548       7559       7558       7668       7669       7680       7679  
      7548       7549       7560       7559       7669       7670       7681       7680  
      7549       7550       7561       7560       7670       7671       7682       7681  
      7550       7551       7562       7561       7671       7672       7683       7682  
      7551       7552       7563       7562       7672       7673       7684       7683  
      7552       7553       7564       7563       7673       7674       7685       7684  
      7553       7554       7565       7564       7674       7675       7686       7685  
      7554       7555       7566       7565       7675       7676       7687       7686  
      7555       7556       7567       7566       7676       7677       7688       7687  
      7556       7557       7568       7567       7677       7678       7689       7688  
      7558       7559       7570       7569       7679       7680       7691       7690  
      7559       7560       7571       7570       7680       7681       7692       7691  
      7560       7561       7572       7571       7681       7682       7693       7692  
      7561       7562       7573       7572       7682       7683       7694       7693  
      7562       7563       7574       7573       7683       7684       7695       7694  
      7563       7564       7575       7574       7684       7685       7696       7695  
      7564       7565       7576       7575       7685       7686       7697       7696  
      7565       7566       7577       7576       7686       7687       7698       7697  
      7566       7567       7578       7577       7687       7688       7699       7698  
      7567       7568       7579       7578       7688       7689       7700       7699  
      7569       7570       7581       7580       7690       7691       7702       7701  
      7570       7571       7582       7581       7691       7692       7703       7702  
      7571       7572       7583       7582       7692       7693       7704       7703  
      7572       7573       7584       7583       7693       7694       7705       7704  
      7573       7574       7585       7584       7694       7695       7706       7705  
      7574       7575       7586       7585       7695       7696       7707       7706  
      7575       7576       7587       7586       7696       7697       7708       7707  
      7576       7577       7588       7587       7697       7698       7709       7708  
      7577       7578       7589       7588       7698       7699       7710       7709  
      7578       7579       7590       7589       7699       7700       7711       7710  
      7580       7581       7592       7591       7701       7702       7713       7712  
      7581       7582       7593       7592       7702       7703       7714       7713  
      7582       7583       7594       7593       7703       7704       7715       7714  
      7583       7584       7595       7594       7704       7705       7716       7715  
      7584       7585       7596       7595       7705       7706       7717       7716  
      7585       7586       7597       7596       7706       7707       7718       7717  
      7586       7587       7598       7597       7707       7708       7719       7718  
      7587       7588       7599       7598       7708       7709       7720       7719  
      7588       7589       7600       7599       7709       7710       7721       7720  
      7589       7590       7601       7600       7710       7711       7722       7721  
      7591       7592       7603       7602       7712       7713       7724       7723  
      7592       7593       7604       7603       7713       7714       7725       7724  
      7593       7594       7605       7604       7714       7715       7726       7725  
      7594       7595       7606       7605       7715       7716       7727       7726  
      7595       7596       7607       7606       7716       7717       7728       7727  
      7596       7597       7608       7607       7717       7718       7729       7728  
      7597       7598       7609       7608       7718       7719       7730       7729  
      7598       7599       7610       7609       7719       7720       7731       7730  
      7599       7600       7611       7610       7720       7721       7732       7731  
      7600       7601       7612       7611       7721       7722       7733       7732  
      7602       7603       7614       7613       7723       7724       7735       7734  
      7603       7604       7615       7614       7724       7725       7736       7735  
      7604       7605       7616       7615       7725       7726       7737       7736  
      7605       7606       7617       7616       7726       7727       7738       7737  
      7606       7607       7618       7617       7727       7728       7739       7738  
      7607       7608       7619       7618       7728       7729       7740       7739  
      7608       7609       7620       7619       7729       7730       7741       7740  
      7609       7610       7621       7620       7730       7731       7742       7741  
      7610       7611       7622       7621       7731       7732       7743       7742  
      7611       7612       7623       7622       7732       7733       7744       7743  
      7624       7625       7636       7635       7745       7746       7757       7756  
      7625       7626       7637       7636       7746       7747       7758       7757  
      7626       7627       7638       7637       7747       7748       7759       7758  
      7627       7628       7639       7638       7748       7749       7760       7759  
      7628       7629       7640       7639       7749       7750       7761       7760  
      7629       7630       7641       7640       7750       7751       7762       7761  
      7630       7631       7642       7641       7751       7752       7763       7762  
      7631       7632       7643       7642       7752       7753       7764       7763  
      7632       7633       7644       7643       7753       7754       7765       7764  
      7633       7634       7645       7644       7754       7755       7766       7765  
      7635       7636       7647       7646       7756       7757       7768       7767  
      7636       7637       7648       7647       7757       7758       7769       7768  
      7637       7638       7649       7648       7758       7759       7770       7769  
      7638       7639       7650       7649       7759       7760       7771       7770  
      7639       7640       7651       7650       7760       7761       7772       7771  
      7640       7641       7652       7651       7761       7762       7773       7772  
      7641       7642       7653       7652       7762       7763       7774       7773  
      7642       7643       7654       7653       7763       7764       7775       7774  
      7643       7644       7655       7654       7764       7765       7776       7775  
      7644       7645       7656       7655       7765       7766       7777       7776  
      7646       7647       7658       7657       7767       7768       7779       7778  
      7647       7648       7659       7658       7768       7769       7780       7779  
      7648       7649       7660       7659       7769       7770       7781       7780  
      7649       7650       7661       7660       7770       7771       7782       7781  
      7650       7651       7662       7661       7771       7772       7783       7782  
      7651       7652       7663       7662       7772       7773       7784       7783  
      7652       7653       7664       7663       7773       7774       7785       7784  
      7653       7654       7665       7664       7774       7775       7786       7785  
      7654       7655       7666       7665       7775       7776       7787       7786  
      7655       7656       7667       7666       7776       7777       7788       7787  
      7657       7658       7669       7668       7778       7779       7790       7789  
      7658       7659       7670       7669       7779       7780       7791       7790  
      7659       7660       7671       7670       7780       7781       7792       7791  
      7660       7661       7672       7671       7781       7782       7793       7792  
      7661       7662       7673       7672       7782       7783       7794       7793  
      7662       7663       7674       7673       7783       7784       7795       7794  
      7663       7664       7675       7674       7784       7785       7796       7795  
      7664       7665       7676       7675       7785       7786       7797       7796  
      7665       7666       7677       7676       7786       7787       7798       7797  
      7666       7667       7678       7677       7787       7788       7799       7798  
      7668       7669       7680       7679       7789       7790       7801       7800  
      7669       7670       7681       7680       7790       7791       7802       7801  
      7670       7671       7682       7681       7791       7792       7803       7802  
      7671       7672       7683       7682       7792       7793       7804       7803  
      7672       7673       7684       7683       7793       7794       7805       7804  
      7673       7674       7685       7684       7794       7795       7806       7805  
      7674       7675       7686       7685       7795       7796       7807       7806  
      7675       7676       7687       7686       7796       7797       7808       7807  
      7676       7677       7688       7687       7797       7798       7809       7808  
      7677       7678       7689       7688       7798       7799       7810       7809  
      7679       7680       7691       7690       7800       7801       7812       7811  
      7680       7681       7692       7691       7801       7802       7813       7812  
      7681       7682       7693       7692       7802       7803       7814       7813  
      7682       7683       7694       7693       7803       7804       7815       7814  
      7683       7684       7695       7694       7804       7805       7816       7815  
      7684       7685       7696       7695       7805       7806       7817       7816  
      7685       7686       7697       7696       7806       7807       7818       7817  
      7686       7687       7698       7697       7807       7808       7819       7818  
      7687       7688       7699       7698       7808       7809       7820       7819  
      7688       7689       7700       7699       7809       7810       7821       7820  
      7690       7691       7702       7701       7811       7812       7823       7822  
      7691       7692       7703       7702       7812       7813       7824       7823  
      7692       7693       7704       7703       7813       7814       7825       7824  
      7693       7694       7705       7704       7814       7815       7826       7825  
      7694       7695       7706       7705       7815       7816       7827       7826  
      7695       7696       7707       7706       7816       7817       7828       7827  
      7696       7697       7708       7707       7817       7818       7829       7828  
      7697       7698       7709       7708       7818       7819       7830       7829  
      7698       7699       7710       7709       7819       7820       7831       7830  
      7699       7700       7711       7710       7820       7821       7832       7831  
      7701       7702       7713       7712       7822       7823       7834       7833  
      7702       7703       7714       7713       7823       7824       7835       7834  
      7703       7704       7715       7714       7824       7825       7836       7835  
      7704       7705       7716       7715       7825       7826       7837       7836  
      7705       7706       7717       7716       7826       7827       7838       7837  
      7706       7707       7718       7717       7827       7828       7839       7838  
      7707       7708       7719       7718       7828       7829       7840       7839  
      7708       7709       7720       7719       7829       7830       7841       7840  
      7709       7710       7721       7720       7830       7831       7842       7841  
      7710       7711       7722       7721       7831       7832       7843       7842  
      7712       7713       7724       7723       7833       7834       7845       7844  
      7713       7714       7725       7724       7834       7835       7846       7845  
      7714       7715       7726       7725       7835       7836       7847       7846  
      7715       7716       7727       7726       7836       7837       7848       7847  
      7716       7717       7728       7727       7837       7838       7849       7848  
      7717       7718       7729       7728       7838       7839       7850       7849  
      7718       7719       7730       7729       7839       7840       7851       7850  
      7719       7720       7731       7730       7840       7841       7852       7851  
      7720       7721       7732       7731       7841       7842       7853       7852  
      7721       7722       7733       7732       7842       7843       7854       7853  
      7723       7724       7735       7734       7844       7845       7856       7855  
      7724       7725       7736       7735       7845       7846       7857       7856  
      7725       7726       7737       7736       7846       7847       7858       7857  
      7726       7727       7738       7737       7847       7848       7859       7858  
      7727       7728       7739       7738       7848       7849       7860       7859  
      7728       7729       7740       7739       7849       7850       7861       7860  
      7729       7730       7741       7740       7850       7851       7862       7861  
      7730       7731       7742       7741       7851       7852       7863       7862  
      7731       7732       7743       7742       7852       7853       7864       7863  
      7732       7733       7744       7743       7853       7854       7865       7864  
      7745       7746       7757       7756       7866       7867       7878       7877  
      7746       7747       7758       7757       7867       7868       7879       7878  
      7747       7748       7759       7758       7868       7869       7880       7879  
      7748       7749       7760       7759       7869       7870       7881       7880  
      7749       7750       7761       7760       7870       7871       7882       7881  
      7750       7751       7762       7761       7871       7872       7883       7882  
      7751       7752       7763       7762       7872       7873       7884       7883  
      7752       7753       7764       7763       7873       7874       7885       7884  
      7753       7754       7765       7764       7874       7875       7886       7885  
      7754       7755       7766       7765       7875       7876       7887       7886  
      7756       7757       7768       7767       7877       7878       7889       7888  
      7757       7758       7769       7768       7878       7879       7890       7889  
      7758       7759       7770       7769       7879       7880       7891       7890  
      7759       7760       7771       7770       7880       7881       7892       7891  
      7760       7761       7772       7771       7881       7882       7893       7892  
      7761       7762       7773       7772       7882       7883       7894       7893  
      7762       7763       7774       7773       7883       7884       7895       7894  
      7763       7764       7775       7774       7884       7885       7896       7895  
      7764       7765       7776       7775       7885       7886       7897       7896  
      7765       7766       7777       7776       7886       7887       7898       7897  
      7767       7768       7779       7778       7888       7889       7900       7899  
      7768       7769       7780       7779       7889       7890       7901       7900  
      7769       7770       7781       7780       7890       7891       7902       7901  
      7770       7771       7782       7781       7891       7892       7903       7902  
      7771       7772       7783       7782       7892       7893       7904       7903  
      7772       7773       7784       7783       7893       7894       7905       7904  
      7773       7774       7785       7784       7894       7895       7906       7905  
      7774       7775       7786       7785       7895       7896       7907       7906  
      7775       7776       7787       7786       7896       7897       7908       7907  
      7776       7777       7788       7787       7897       7898       7909       7908  
      7778       7779       7790       7789       7899       7900       7911       7910  
      7779       7780       7791       7790       7900       7901       7912       7911  
      7780       7781       7792       7791       7901       7902       7913       7912  
      7781       7782       7793       7792       7902       7903       7914       7913  
      7782       7783       7794       7793       7903       7904       7915       7914  
      7783       7784       7795       7794       7904       7905       7916       7915  
      7784       7785       7796       7795       7905       7906       7917       7916  
      7785       7786       7797       7796       7906       7907       7918       7917  
      7786       7787       7798       7797       7907       7908       7919       7918  
      7787       7788       7799       7798       7908       7909       7920       7919  
      7789       7790       7801       7800       7910       7911       7922       7921  
      7790       7791       7802       7801       7911       7912       7923       7922  
      7791       7792       7803       7802       7912       7913       7924       7923  
      7792       7793       7804       7803       7913       7914       7925       7924  
      7793       7794       7805       7804       7914       7915       7926       7925  
      7794       7795       7806       7805       7915       7916       7927       7926  
      7795       7796       7807       7806       7916       7917       7928       7927  
      7796       7797       7808       7807       7917       7918       7929       7928  
      7797       7798       7809       7808       7918       7919       7930       7929  
      7798       7799       7810       7809       7919       7920       7931       7930  
      7800       7801       7812       7811       7921       7922       7933       7932  
      7801       7802       7813       7812       7922       7923       7934       7933  
      7802       7803       7814       7813       7923       7924       7935       7934  
      7803       7804       7815       7814       7924       7925       7936       7935  
      7804       7805       7816       7815       7925       7926       7937       7936  
      7805       7806       7817       7816       7926       7927       7938       7937  
      7806       7807       7818       7817       7927       7928       7939       7938  
      7807       7808       7819       7818       7928       7929       7940       7939  
      7808       7809       7820       7819       7929       7930       7941       7940  
      7809       7810       7821       7820       7930       7931       7942       7941  
      7811       7812       7823       7822       7932       7933       7944       7943  
      7812       7813       7824       7823       7933       7934       7945       7944  
      7813       7814       7825       7824       7934       7935       7946       7945  
      7814       7815       7826       7825       7935       7936       7947       7946  
      7815       7816       7827       7826       7936       7937       7948       7947  
      7816       7817       7828       7827       7937       7938       7949       7948  
      7817       7818       7829       7828       7938       7939       7950       7949  
      7818       7819       7830       7829       7939       7940       7951       7950  
      7819       7820       7831       7830       7940       7941       7952       7951  
      7820       7821       7832       7831       7941       7942       7953       7952  
      7822       7823       7834       7833       7943       7944       7955       7954  
      7823       7824       7835       7834       7944       7945       7956       7955  
      7824       7825       7836       7835       7945       7946       7957       7956  
      7825       7826       7837       7836       7946       7947       7958       7957  
      7826       7827       7838       7837       7947       7948       7959       7958  
      7827       7828       7839       7838       7948       7949       7960       7959  
      7828       7829       7840       7839       7949       7950       7961       7960  
      7829       7830       7841       7840       7950       7951       7962       7961  
      7830       7831       7842       7841       7951       7952       7963       7962  
      7831       7832       7843       7842       7952       7953       7964       7963  
      7833       7834       7845       7844       7954       7955       7966       7965  
      7834       7835       7846       7845       7955       7956       7967       7966  
      7835       7836       7847       7846       7956       7957       7968       7967  
      7836       7837       7848       7847       7957       7958       7969       7968  
      7837       7838       7849       7848       7958       7959       7970       7969  
      7838       7839       7850       7849       7959       7960       7971       7970  
      7839       7840       7851       7850       7960       7961       7972       7971  
      7840       7841       7852       7851       7961       7962       7973       7972  
      7841       7842       7853       7852       7962       7963       7974       7973  
      7842       7843       7854       7853       7963       7964       7975       7974  
      7844       7845       7856       7855       7965       7966       7977       7976  
      7845       7846       7857       7856       7966       7967       7978       7977  
      7846       7847       7858       7857       7967       7968       7979       7978  
      7847       7848       7859       7858       7968       7969       7980       7979  
      7848       7849       7860       7859       7969       7970       7981       7980  
      7849       7850       7861       7860       7970       7971       7982       7981  
      7850       7851       7862       7861       7971       7972       7983       7982  
      7851       7852       7863       7862       7972       7973       7984       7983  
      7852       7853       7864       7863       7973       7974       7985       7984  
      7853       7854       7865       7864       7974       7975       7986       7985  
      7866       7867       7878       7877       7987       7988       7999       7998  
      7867       7868       7879       7878       7988       7989       8000       7999  
      7868       7869       7880       7879       7989       7990       8001       8000  
      7869       7870       7881       7880       7990       7991       8002       8001  
      7870       7871       7882       7881       7991       7992       8003       8002  
      7871       7872       7883       7882       7992       7993       8004       8003  
      7872       7873       7884       7883       7993       7994       8005       8004  
      7873       7874       7885       7884       7994       7995       8006       8005  
      7874       7875       7886       7885       7995       7996       8007       8006  
      7875       7876       7887       7886       7996       7997       8008       8007  
      7877       7878       7889       7888       7998       7999       8010       8009  
      7878       7879       7890       7889       7999       8000       8011       8010  
      7879       7880       7891       7890       8000       8001       8012       8011  
      7880       7881       7892       7891       8001       8002       8013       8012  
      7881       7882       7893       7892       8002       8003       8014       8013  
      7882       7883       7894       7893       8003       8004       8015       8014  
      7883       7884       7895       7894       8004       8005       8016       8015  
      7884       7885       7896       7895       8005       8006       8017       8016  
      7885       7886       7897       7896       8006       8007       8018       8017  
      7886       7887       7898       7897       8007       8008       8019       8018  
      7888       7889       7900       7899       8009       8010       8021       8020  
      7889       7890       7901       7900       8010       8011       8022       8021  
      7890       7891       7902       7901       8011       8012       8023       8022  
      7891       7892       7903       7902       8012       8013       8024       8023  
      7892       7893       7904       7903       8013       8014       8025       8024  
      7893       7894       7905       7904       8014       8015       8026       8025  
      7894       7895       7906       7905       8015       8016       8027       8026  
      7895       7896       7907       7906       8016       8017       8028       8027  
      7896       7897       7908       7907       8017       8018       8029       8028  
      7897       7898       7909       7908       8018       8019       8030       8029  
      7899       7900       7911       7910       8020       8021       8032       8031  
      7900       7901       7912       7911       8021       8022       8033       8032  
      7901       7902       7913       7912       8022       8023       8034       8033  
      7902       7903       7914       7913       8023       8024       8035       8034  
      7903       7904       7915       7914       8024       8025       8036       8035  
      7904       7905       7916       7915       8025       8026       8037       8036  
      7905       7906       7917       7916       8026       8027       8038       8037  
      7906       7907       7918       7917       8027       8028       8039       8038  
      7907       7908       7919       7918       8028       8029       8040       8039  
      7908       7909       7920       7919       8029       8030       8041       8040  
      7910       7911       7922       7921       8031       8032       8043       8042  
      7911       7912       7923       7922       8032       8033       8044       8043  
      7912       7913       7924       7923       8033       8034       8045       8044  
      7913       7914       7925       7924       8034       8035       8046       8045  
      7914       7915       7926       7925       8035       8036       8047       8046  
      7915       7916       7927       7926       8036       8037       8048       8047  
      7916       7917       7928       7927       8037       8038       8049       8048  
      7917       7918       7929       7928       8038       8039       8050       8049  
      7918       7919       7930       7929       8039       8040       8051       8050  
      7919       7920       7931       7930       8040       8041       8052       8051  
      7921       7922       7933       7932       8042       8043       8054       8053  
      7922       7923       7934       7933       8043       8044       8055       8054  
      7923       7924       7935       7934       8044       8045       8056       8055  
      7924       7925       7936       7935       8045       8046       8057       8056  
      7925       7926       7937       7936       8046       8047       8058       8057  
      7926       7927       7938       7937       8047       8048       8059       8058  
      7927       7928       7939       7938       8048       8049       8060       8059  
      7928       7929       7940       7939       8049       8050       8061       8060  
      7929       7930       7941       7940       8050       8051       8062       8061  
      7930       7931       7942       7941       8051       8052       8063       8062  
      7932       7933       7944       7943       8053       8054       8065       8064  
      7933       7934       7945       7944       8054       8055       8066       8065  
      7934       7935       7946       7945       8055       8056       8067       8066  
      7935       7936       7947       7946       8056       8057       8068       8067  
      7936       7937       7948       7947       8057       8058       8069       8068  
      7937       7938       7949       7948       8058       8059       8070       8069  
      7938       7939       7950       7949       8059       8060       8071       8070  
      7939       7940       7951       7950       8060       8061       8072       8071  
      7940       7941       7952       7951       8061       8062       8073       8072  
      7941       7942       7953       7952       8062       8063       8074       8073  
      7943       7944       7955       7954       8064       8065       8076       8075  
      7944       7945       7956       7955       8065       8066       8077       8076  
      7945       7946       7957       7956       8066       8067       8078       8077  
      7946       7947       7958       7957       8067       8068       8079       8078  
      7947       7948       7959       7958       8068       8069       8080       8079  
      7948       7949       7960       7959       8069       8070       8081       8080  
      7949       7950       7961       7960       8070       8071       8082       8081  
      7950       7951       7962       7961       8071       8072       8083       8082  
      7951       7952       7963       7962       8072       8073       8084       8083  
      7952       7953       7964       7963       8073       8074       8085       8084  
      7954       7955       7966       7965       8075       8076       8087       8086  
      7955       7956       7967       7966       8076       8077       8088       8087  
      7956       7957       7968       7967       8077       8078       8089       8088  
      7957       7958       7969       7968       8078       8079       8090       8089  
      7958       7959       7970       7969       8079       8080       8091       8090  
      7959       7960       7971       7970       8080       8081       8092       8091  
      7960       7961       7972       7971       8081       8082       8093       8092  
      7961       7962       7973       7972       8082       8083       8094       8093  
      7962       7963       7974       7973       8083       8084       8095       8094  
      7963       7964       7975       7974       8084       8085       8096       8095  
      7965       7966       7977       7976       8086       8087       8098       8097  
      7966       7967       7978       7977       8087       8088       8099       8098  
      7967       7968       7979       7978       8088       8089       8100       8099  
      7968       7969       7980       7979       8089       8090       8101       8100  
      7969       7970       7981       7980       8090       8091       8102       8101  
      7970       7971       7982       7981       8091       8092       8103       8102  
      7971       7972       7983       7982       8092       8093       8104       8103  
      7972       7973       7984       7983       8093       8094       8105       8104  
      7973       7974       7985       7984       8094       8095       8106       8105  
      7974       7975       7986       7985       8095       8096       8107       8106  
      7987       7988       7999       7998       8108       8109       8120       8119  
      7988       7989       8000       7999       8109       8110       8121       8120  
      7989       7990       8001       8000       8110       8111       8122       8121  
      7990       7991       8002       8001       8111       8112       8123       8122  
      7991       7992       8003       8002       8112       8113       8124       8123  
      7992       7993       8004       8003       8113       8114       8125       8124  
      7993       7994       8005       8004       8114       8115       8126       8125  
      7994       7995       8006       8005       8115       8116       8127       8126  
      7995       7996       8007       8006       8116       8117       8128       8127  
      7996       7997       8008       8007       8117       8118       8129       8128  
      7998       7999       8010       8009       8119       8120       8131       8130  
      7999       8000       8011       8010       8120       8121       8132       8131  
      8000       8001       8012       8011       8121       8122       8133       8132  
      8001       8002       8013       8012       8122       8123       8134       8133  
      8002       8003       8014       8013       8123       8124       8135       8134  
      8003       8004       8015       8014       8124       8125       8136       8135  
      8004       8005       8016       8015       8125       8126       8137       8136  
      8005       8006       8017       8016       8126       8127       8138       8137  
      8006       8007       8018       8017       8127       8128       8139       8138  
      8007       8008       8019       8018       8128       8129       8140       8139  
      8009       8010       8021       8020       8130       8131       8142       8141  
      8010       8011       8022       8021       8131       8132       8143       8142  
      8011       8012       8023       8022       8132       8133       8144       8143  
      8012       8013       8024       8023       8133       8134       8145       8144  
      8013       8014       8025       8024       8134       8135       8146       8145  
      8014       8015       8026       8025       8135       8136       8147       8146  
      8015       8016       8027       8026       8136       8137       8148       8147  
      8016       8017       8028       8027       8137       8138       8149       8148  
      8017       8018       8029       8028       8138       8139       8150       8149  
      8018       8019       8030       8029       8139       8140       8151       8150  
      8020       8021       8032       8031       8141       8142       8153       8152  
      8021       8022       8033       8032       8142       8143       8154       8153  
      8022       8023       8034       8033       8143       8144       8155       8154  
      8023       8024       8035       8034       8144       8145       8156       8155  
      8024       8025       8036       8035       8145       8146       8157       8156  
      8025       8026       8037       8036       8146       8147       8158       8157  
      8026       8027       8038       8037       8147       8148       8159       8158  
      8027       8028       8039       8038       8148       8149       8160       8159  
      8028       8029       8040       8039       8149       8150       8161       8160  
      8029       8030       8041       8040       8150       8151       8162       8161  
      8031       8032       8043       8042       8152       8153       8164       8163  
      8032       8033       8044       8043       8153       8154       8165       8164  
      8033       8034       8045       8044       8154       8155       8166       8165  
      8034       8035       8046       8045       8155       8156       8167       8166  
      8035       8036       8047       8046       8156       8157       8168       8167  
      8036       8037       8048       8047       8157       8158       8169       8168  
      8037       8038       8049       8048       8158       8159       8170       8169  
      8038       8039       8050       8049       8159       8160       8171       8170  
      8039       8040       8051       8050       8160       8161       8172       8171  
      8040       8041       8052       8051       8161       8162       8173       8172  
      8042       8043       8054       8053       8163       8164       8175       8174  
      8043       8044       8055       8054       8164       8165       8176       8175  
      8044       8045       8056       8055       8165       8166       8177       8176  
      8045       8046       8057       8056       8166       8167       8178       8177  
      8046       8047       8058       8057       8167       8168       8179       8178  
      8047       8048       8059       8058       8168       8169       8180       8179  
      8048       8049       8060       8059       8169       8170       8181       8180  
      8049       8050       8061       8060       8170       8171       8182       8181  
      8050       8051       8062       8061       8171       8172       8183       8182  
      8051       8052       8063       8062       8172       8173       8184       8183  
      8053       8054       8065       8064       8174       8175       8186       8185  
      8054       8055       8066       8065       8175       8176       8187       8186  
      8055       8056       8067       8066       8176       8177       8188       8187  
      8056       8057       8068       8067       8177       8178       8189       8188  
      8057       8058       8069       8068       8178       8179       8190       8189  
      8058       8059       8070       8069       8179       8180       8191       8190  
      8059       8060       8071       8070       8180       8181       8192       8191  
      8060       8061       8072       8071       8181       8182       8193       8192  
      8061       8062       8073       8072       8182       8183       8194       8193  
      8062       8063       8074       8073       8183       8184       8195       8194  
      8064       8065       8076       8075       8185       8186       8197       8196  
      8065       8066       8077       8076       8186       8187       8198       8197  
      8066       8067       8078       8077       8187       8188       8199       8198  
      8067       8068       8079       8078       8188       8189       8200       8199  
      8068       8069       8080       8079       8189       8190       8201       8200  
      8069       8070       8081       8080       8190       8191       8202       8201  
      8070       8071       8082       8081       8191       8192       8203       8202  
      8071       8072       8083       8082       8192       8193       8204       8203  
      8072       8073       8084       8083       8193       8194       8205       8204  
      8073       8074       8085       8084       8194       8195       8206       8205  
      8075       8076       8087       8086       8196       8197       8208       8207  
      8076       8077       8088       8087       8197       8198       8209       8208  
      8077       8078       8089       8088       8198       8199       8210       8209  
      8078       8079       8090       8089       8199       8200       8211       8210  
      8079       8080       8091       8090       8200       8201       8212       8211  
      8080       8081       8092       8091       8201       8202       8213       8212  
      8081       8082       8093       8092       8202       8203       8214       8213  
      8082       8083       8094       8093       8203       8204       8215       8214  
      8083       8084       8095       8094       8204       8205       8216       8215  
      8084       8085       8096       8095       8205       8206       8217       8216  
      8086       8087       8098       8097       8207       8208       8219       8218  
      8087       8088       8099       8098       8208       8209       8220       8219  
      8088       8089       8100       8099       8209       8210       8221       8220  
      8089       8090       8101       8100       8210       8211       8222       8221  
      8090       8091       8102       8101       8211       8212       8223       8222  
      8091       8092       8103       8102       8212       8213       8224       8223  
      8092       8093       8104       8103       8213       8214       8225       8224  
      8093       8094       8105       8104       8214       8215       8226       8225  
      8094       8095       8106       8105       8215       8216       8227       8226  
      8095       8096       8107       8106       8216       8217       8228       8227  
      8108       8109       8120       8119       8229       8230       8241       8240  
      8109       8110       8121       8120       8230       8231       8242       8241  
      8110       8111       8122       8121       8231       8232       8243       8242  
      8111       8112       8123       8122       8232       8233       8244       8243  
      8112       8113       8124       8123       8233       8234       8245       8244  
      8113       8114       8125       8124       8234       8235       8246       8245  
      8114       8115       8126       8125       8235       8236       8247       8246  
      8115       8116       8127       8126       8236       8237       8248       8247  
      8116       8117       8128       8127       8237       8238       8249       8248  
      8117       8118       8129       8128       8238       8239       8250       8249  
      8119       8120       8131       8130       8240       8241       8252       8251  
      8120       8121       8132       8131       8241       8242       8253       8252  
      8121       8122       8133       8132       8242       8243       8254       8253  
      8122       8123       8134       8133       8243       8244       8255       8254  
      8123       8124       8135       8134       8244       8245       8256       8255  
      8124       8125       8136       8135       8245       8246       8257       8256  
      8125       8126       8137       8136       8246       8247       8258       8257  
      8126       8127       8138       8137       8247       8248       8259       8258  
      8127       8128       8139       8138       8248       8249       8260       8259  
      8128       8129       8140       8139       8249       8250       8261       8260  
      8130       8131       8142       8141       8251       8252       8263       8262  
      8131       8132       8143       8142       8252       8253       8264       8263  
      8132       8133       8144       8143       8253       8254       8265       8264  
      8133       8134       8145       8144       8254       8255       8266       8265  
      8134       8135       8146       8145       8255       8256       8267       8266  
      8135       8136       8147       8146       8256       8257       8268       8267  
      8136       8137       8148       8147       8257       8258       8269       8268  
      8137       8138       8149       8148       8258       8259       8270       8269  
      8138       8139       8150       8149       8259       8260       8271       8270  
      8139       8140       8151       8150       8260       8261       8272       8271  
      8141       8142       8153       8152       8262       8263       8274       8273  
      8142       8143       8154       8153       8263       8264       8275       8274  
      8143       8144       8155       8154       8264       8265       8276       8275  
      8144       8145       8156       8155       8265       8266       8277       8276  
      8145       8146       8157       8156       8266       8267       8278       8277  
      8146       8147       8158       8157       8267       8268       8279       8278  
      8147       8148       8159       8158       8268       8269       8280       8279  
      8148       8149       8160       8159       8269       8270       8281       8280  
      8149       8150       8161       8160       8270       8271       8282       8281  
      8150       8151       8162       8161       8271       8272       8283       8282  
      8152       8153       8164       8163       8273       8274       8285       8284  
      8153       8154       8165       8164       8274       8275       8286       8285  
      8154       8155       8166       8165       8275       8276       8287       8286  
      8155       8156       8167       8166       8276       8277       8288       8287  
      8156       8157       8168       8167       8277       8278       8289       8288  
      8157       8158       8169       8168       8278       8279       8290       8289  
      8158       8159       8170       8169       8279       8280       8291       8290  
      8159       8160       8171       8170       8280       8281       8292       8291  
      8160       8161       8172       8171       8281       8282       8293       8292  
      8161       8162       8173       8172       8282       8283       8294       8293  
      8163       8164       8175       8174       8284       8285       8296       8295  
      8164       8165       8176       8175       8285       8286       8297       8296  
      8165       8166       8177       8176       8286       8287       8298       8297  
      8166       8167       8178       8177       8287       8288       8299       8298  
      8167       8168       8179       8178       8288       8289       8300       8299  
      8168       8169       8180       8179       8289       8290       8301       8300  
      8169       8170       8181       8180       8290       8291       8302       8301  
      8170       8171       8182       8181       8291       8292       8303       8302  
      8171       8172       8183       8182       8292       8293       8304       8303  
      8172       8173       8184       8183       8293       8294       8305       8304  
      8174       8175       8186       8185       8295       8296       8307       8306  
      8175       8176       8187       8186       8296       8297       8308       8307  
      8176       8177       8188       8187       8297       8298       8309       8308  
      8177       8178       8189       8188       8298       8299       8310       8309  
      8178       8179       8190       8189       8299       8300       8311       8310  
      8179       8180       8191       8190       8300       8301       8312       8311  
      8180       8181       8192       8191       8301       8302       8313       8312  
      8181       8182       8193       8192       8302       8303       8314       8313  
      8182       8183       8194       8193       8303       8304       8315       8314  
      8183       8184       8195       8194       8304       8305       8316       8315  
      8185       8186       8197       8196       8306       8307       8318       8317  
      8186       8187       8198       8197       8307       8308       8319       8318  
      8187       8188       8199       8198       8308       8309       8320       8319  
      8188       8189       8200       8199       8309       8310       8321       8320  
      8189       8190       8201       8200       8310       8311       8322       8321  
      8190       8191       8202       8201       8311       8312       8323       8322  
      8191       8192       8203       8202       8312       8313       8324       8323  
      8192       8193       8204       8203       8313       8314       8325       8324  
      8193       8194       8205       8204       8314       8315       8326       8325  
      8194       8195       8206       8205       8315       8316       8327       8326  
      8196       8197       8208       8207       8317       8318       8329       8328  
      8197       8198       8209       8208       8318       8319       8330       8329  
      8198       8199       8210       8209       8319       8320       8331       8330  
      8199       8200       8211       8210       8320       8321       8332       8331  
      8200       8201       8212       8211       8321       8322       8333       8332  
      8201       8202       8213       8212       8322       8323       8334       8333  
      8202       8203       8214       8213       8323       8324       8335       8334  
      8203       8204       8215       8214       8324       8325       8336       8335  
      8204       8205       8216       8215       8325       8326       8337       8336  
      8205       8206       8217       8216       8326       8327       8338       8337  
      8207       8208       8219       8218       8328       8329       8340       8339  
      8208       8209       8220       8219       8329       8330       8341       8340  
      8209       8210       8221       8220       8330       8331       8342       8341  
      8210       8211       8222       8221       8331       8332       8343       8342  
      8211       8212       8223       8222       8332       8333       8344       8343  
      8212       8213       8224       8223       8333       8334       8345       8344  
      8213       8214       8225       8224       8334       8335       8346       8345  
      8214       8215       8226       8225       8335       8336       8347       8346  
      8215       8216       8227       8226       8336       8337       8348       8347  
      8216       8217       8228       8227       8337       8338       8349       8348  
      8229       8230       8241       8240       8350       8351       8362       8361  
      8230       8231       8242       8241       8351       8352       8363       8362  
      8231       8232       8243       8242       8352       8353       8364       8363  
      8232       8233       8244       8243       8353       8354       8365       8364  
      8233       8234       8245       8244       8354       8355       8366       8365  
      8234       8235       8246       8245       8355       8356       8367       8366  
      8235       8236       8247       8246       8356       8357       8368       8367  
      8236       8237       8248       8247       8357       8358       8369       8368  
      8237       8238       8249       8248       8358       8359       8370       8369  
      8238       8239       8250       8249       8359       8360       8371       8370  
      8240       8241       8252       8251       8361       8362       8373       8372  
      8241       8242       8253       8252       8362       8363       8374       8373  
      8242       8243       8254       8253       8363       8364       8375       8374  
      8243       8244       8255       8254       8364       8365       8376       8375  
      8244       8245       8256       8255       8365       8366       8377       8376  
      8245       8246       8257       8256       8366       8367       8378       8377  
      8246       8247       8258       8257       8367       8368       8379       8378  
      8247       8248       8259       8258       8368       8369       8380       8379  
      8248       8249       8260       8259       8369       8370       8381       8380  
      8249       8250       8261       8260       8370       8371       8382       8381  
      8251       8252       8263       8262       8372       8373       8384       8383  
      8252       8253       8264       8263       8373       8374       8385       8384  
      8253       8254       8265       8264       8374       8375       8386       8385  
      8254       8255       8266       8265       8375       8376       8387       8386  
      8255       8256       8267       8266       8376       8377       8388       8387  
      8256       8257       8268       8267       8377       8378       8389       8388  
      8257       8258       8269       8268       8378       8379       8390       8389  
      8258       8259       8270       8269       8379       8380       8391       8390  
      8259       8260       8271       8270       8380       8381       8392       8391  
      8260       8261       8272       8271       8381       8382       8393       8392  
      8262       8263       8274       8273       8383       8384       8395       8394  
      8263       8264       8275       8274       8384       8385       8396       8395  
      8264       8265       8276       8275       8385       8386       8397       8396  
      8265       8266       8277       8276       8386       8387       8398       8397  
      8266       8267       8278       8277       8387       8388       8399       8398  
      8267       8268       8279       8278       8388       8389       8400       8399  
      8268       8269       8280       8279       8389       8390       8401       8400  
      8269       8270       8281       8280       8390       8391       8402       8401  
      8270       8271       8282       8281       8391       8392       8403       8402  
      8271       8272       8283       8282       8392       8393       8404       8403  
      8273       8274       8285       8284       8394       8395       8406       8405  
      8274       8275       8286       8285       8395       8396       8407       8406  
      8275       8276       8287       8286       8396       8397       8408       8407  
      8276       8277       8288       8287       8397       8398       8409       8408  
      8277       8278       8289       8288       8398       8399       8410       8409  
      8278       8279       8290       8289       8399       8400       8411       8410  
      8279       8280       8291       8290       8400       8401       8412       8411  
      8280       8281       8292       8291       8401       8402       8413       8412  
      8281       8282       8293       8292       8402       8403       8414       8413  
      8282       8283       8294       8293       8403       8404       8415       8414  
      8284       8285       8296       8295       8405       8406       8417       8416  
      8285       8286       8297       8296       8406       8407       8418       8417  
      8286       8287       8298       8297       8407       8408       8419       8418  
      8287       8288       8299       8298       8408       8409       8420       8419  
      8288       8289       8300       8299       8409       8410       8421       8420  
      8289       8290       8301       8300       8410       8411       8422       8421  
      8290       8291       8302       8301       8411       8412       8423       8422  
      8291       8292       8303       8302       8412       8413       8424       8423  
      8292       8293       8304       8303       8413       8414       8425       8424  
      8293       8294       8305       8304       8414       8415       8426       8425  
      8295       8296       8307       8306       8416       8417       8428       8427  
      8296       8297       8308       8307       8417       8418       8429       8428  
      8297       8298       8309       8308       8418       8419       8430       8429  
      8298       8299       8310       8309       8419       8420       8431       8430  
      8299       8300       8311       8310       8420       8421       8432       8431  
      8300       8301       8312       8311       8421       8422       8433       8432  
      8301       8302       8313       8312       8422       8423       8434       8433  
      8302       8303       8314       8313       8423       8424       8435       8434  
      8303       8304       8315       8314       8424       8425       8436       8435  
      8304       8305       8316       8315       8425       8426       8437       8436  
      8306       8307       8318       8317       8427       8428       8439       8438  
      8307       8308       8319       8318       8428       8429       8440       8439  
      8308       8309       8320       8319       8429       8430       8441       8440  
      8309       8310       8321       8320       8430       8431       8442       8441  
      8310       8311       8322       8321       8431       8432       8443       8442  
      8311       8312       8323       8322       8432       8433       8444       8443  
      8312       8313       8324       8323       8433       8434       8445       8444  
      8313       8314       8325       8324       8434       8435       8446       8445  
      8314       8315       8326       8325       8435       8436       8447       8446  
      8315       8316       8327       8326       8436       8437       8448       8447  
      8317       8318       8329       8328       8438       8439       8450       8449  
      8318       8319       8330       8329       8439       8440       8451       8450  
      8319       8320       8331       8330       8440       8441       8452       8451  
      8320       8321       8332       8331       8441       8442       8453       8452  
      8321       8322       8333       8332       8442       8443       8454       8453  
      8322       8323       8334       8333       8443       8444       8455       8454  
      8323       8324       8335       8334       8444       8445       8456       8455  
      8324       8325       8336       8335       8445       8446       8457       8456  
      8325       8326       8337       8336       8446       8447       8458       8457  
      8326       8327       8338       8337       8447       8448       8459       8458  
      8328       8329       8340       8339       8449       8450       8461       8460  
      8329       8330       8341       8340       8450       8451       8462       8461  
      8330       8331       8342       8341       8451       8452       8463       8462  
      8331       8332       8343       8342       8452       8453       8464       8463  
      8332       8333       8344       8343       8453       8454       8465       8464  
      8333       8334       8345       8344       8454       8455       8466       8465  
      8334       8335       8346       8345       8455       8456       8467       8466  
      8335       8336       8347       8346       8456       8457       8468       8467  
      8336       8337       8348       8347       8457       8458       8469       8468  
      8337       8338       8349       8348       8458       8459       8470       8469  
      8350       8351       8362       8361       8471       8472       8483       8482  
      8351       8352       8363       8362       8472       8473       8484       8483  
      8352       8353       8364       8363       8473       8474       8485       8484  
      8353       8354       8365       8364       8474       8475       8486       8485  
      8354       8355       8366       8365       8475       8476       8487       8486  
      8355       8356       8367       8366       8476       8477       8488       8487  
      8356       8357       8368       8367       8477       8478       8489       8488  
      8357       8358       8369       8368       8478       8479       8490       8489  
      8358       8359       8370       8369       8479       8480       8491       8490  
      8359       8360       8371       8370       8480       8481       8492       8491  
      8361       8362       8373       8372       8482       8483       8494       8493  
      8362       8363       8374       8373       8483       8484       8495       8494  
      8363       8364       8375       8374       8484       8485       8496       8495  
      8364       8365       8376       8375       8485       8486       8497       8496  
      8365       8366       8377       8376       8486       8487       8498       8497  
      8366       8367       8378       8377       8487       8488       8499       8498  
      8367       8368       8379       8378       8488       8489       8500       8499  
      8368       8369       8380       8379       8489       8490       8501       8500  
      8369       8370       8381       8380       8490       8491       8502       8501  
      8370       8371       8382       8381       8491       8492       8503       8502  
      8372       8373       8384       8383       8493       8494       8505       8504  
      8373       8374       8385       8384       8494       8495       8506       8505  
      8374       8375       8386       8385       8495       8496       8507       8506  
      8375       8376       8387       8386       8496       8497       8508       8507  
      8376       8377       8388       8387       8497       8498       8509       8508  
      8377       8378       8389       8388       8498       8499       8510       8509  
      8378       8379       8390       8389       8499       8500       8511       8510  
      8379       8380       8391       8390       8500       8501       8512       8511  
      8380       8381       8392       8391       8501       8502       8513       8512  
      8381       8382       8393       8392       8502       8503       8514       8513  
      8383       8384       8395       8394       8504       8505       8516       8515  
      8384       8385       8396       8395       8505       8506       8517       8516  
      8385       8386       8397       8396       8506       8507       8518       8517  
      8386       8387       8398       8397       8507       8508       8519       8518  
      8387       8388       8399       8398       8508       8509       8520       8519  
      8388       8389       8400       8399       8509       8510       8521       8520  
      8389       8390       8401       8400       8510       8511       8522       8521  
      8390       8391       8402       8401       8511       8512       8523       8522  
      8391       8392       8403       8402       8512       8513       8524       8523  
      8392       8393       8404       8403       8513       8514       8525       8524  
      8394       8395       8406       8405       8515       8516       8527       8526  
      8395       8396       8407       8406       8516       8517       8528       8527  
      8396       8397       8408       8407       8517       8518       8529       8528  
      8397       8398       8409       8408       8518       8519       8530       8529  
      8398       8399       8410       8409       8519       8520       8531       8530  
      8399       8400       8411       8410       8520       8521       8532       8531  
      8400       8401       8412       8411       8521       8522       8533       8532  
      8401       8402       8413       8412       8522       8523       8534       8533  
      8402       8403       8414       8413       8523       8524       8535       8534  
      8403       8404       8415       8414       8524       8525       8536       8535  
      8405       8406       8417       8416       8526       8527       8538       8537  
      8406       8407       8418       8417       8527       8528       8539       8538  
      8407       8408       8419       8418       8528       8529       8540       8539  
      8408       8409       8420       8419       8529       8530       8541       8540  
      8409       8410       8421       8420       8530       8531       8542       8541  
      8410       8411       8422       8421       8531       8532       8543       8542  
      8411       8412       8423       8422       8532       8533       8544       8543  
      8412       8413       8424       8423       8533       8534       8545       8544  
      8413       8414       8425       8424       8534       8535       8546       8545  
      8414       8415       8426       8425       8535       8536       8547       8546  
      8416       8417       8428       8427       8537       8538       8549       8548  
      8417       8418       8429       8428       8538       8539       8550       8549  
      8418       8419       8430       8429       8539       8540       8551       8550  
      8419       8420       8431       8430       8540       8541       8552       8551  
      8420       8421       8432       8431       8541       8542       8553       8552  
      8421       8422       8433       8432       8542       8543       8554       8553  
      8422       8423       8434       8433       8543       8544       8555       8554  
      8423       8424       8435       8434       8544       8545       8556       8555  
      8424       8425       8436       8435       8545       8546       8557       8556  
      8425       8426       8437       8436       8546       8547       8558       8557  
      8427       8428       8439       8438       8548       8549       8560       8559  
      8428       8429       8440       8439       8549       8550       8561       8560  
      8429       8430       8441       8440       8550       8551       8562       8561  
      8430       8431       8442       8441       8551       8552       8563       8562  
      8431       8432       8443       8442       8552       8553       8564       8563  
      8432       8433       8444       8443       8553       8554       8565       8564  
      8433       8434       8445       8444       8554       8555       8566       8565  
      8434       8435       8446       8445       8555       8556       8567       8566  
      8435       8436       8447       8446       8556       8557       8568       8567  
      8436       8437       8448       8447       8557       8558       8569       8568  
      8438       8439       8450       8449       8559       8560       8571       8570  
      8439       8440       8451       8450       8560       8561       8572       8571  
      8440       8441       8452       8451       8561       8562       8573       8572  
      8441       8442       8453       8452       8562       8563       8574       8573  
      8442       8443       8454       8453       8563       8564       8575       8574  
      8443       8444       8455       8454       8564       8565       8576       8575  
      8444       8445       8456       8455       8565       8566       8577       8576  
      8445       8446       8457       8456       8566       8567       8578       8577  
      8446       8447       8458       8457       8567       8568       8579       8578  
      8447       8448       8459       8458       8568       8569       8580       8579  
      8449       8450       8461       8460       8570       8571       8582       8581  
      8450       8451       8462       8461       8571       8572       8583       8582  
      8451       8452       8463       8462       8572       8573       8584       8583  
      8452       8453       8464       8463       8573       8574       8585       8584  
      8453       8454       8465       8464       8574       8575       8586       8585  
      8454       8455       8466       8465       8575       8576       8587       8586  
      8455       8456       8467       8466       8576       8577       8588       8587  
      8456       8457       8468       8467       8577       8578       8589       8588  
      8457       8458       8469       8468       8578       8579       8590       8589  
      8458       8459       8470       8469       8579       8580       8591       8590  
      8471       8472       8483       8482       8592       8593       8604       8603  
      8472       8473       8484       8483       8593       8594       8605       8604  
      8473       8474       8485       8484       8594       8595       8606       8605  
      8474       8475       8486       8485       8595       8596       8607       8606  
      8475       8476       8487       8486       8596       8597       8608       8607  
      8476       8477       8488       8487       8597       8598       8609       8608  
      8477       8478       8489       8488       8598       8599       8610       8609  
      8478       8479       8490       8489       8599       8600       8611       8610  
      8479       8480       8491       8490       8600       8601       8612       8611  
      8480       8481       8492       8491       8601       8602       8613       8612  
      8482       8483       8494       8493       8603       8604       8615       8614  
      8483       8484       8495       8494       8604       8605       8616       8615  
      8484       8485       8496       8495       8605       8606       8617       8616  
      8485       8486       8497       8496       8606       8607       8618       8617  
      8486       8487       8498       8497       8607       8608       8619       8618  
      8487       8488       8499       8498       8608       8609       8620       8619  
      8488       8489       8500       8499       8609       8610       8621       8620  
      8489       8490       8501       8500       8610       8611       8622       8621  
      8490       8491       8502       8501       8611       8612       8623       8622  
      8491       8492       8503       8502       8612       8613       8624       8623  
      8493       8494       8505       8504       8614       8615       8626       8625  
      8494       8495       8506       8505       8615       8616       8627       8626  
      8495       8496       8507       8506       8616       8617       8628       8627  
      8496       8497       8508       8507       8617       8618       8629       8628  
      8497       8498       8509       8508       8618       8619       8630       8629  
      8498       8499       8510       8509       8619       8620       8631       8630  
      8499       8500       8511       8510       8620       8621       8632       8631  
      8500       8501       8512       8511       8621       8622       8633       8632  
      8501       8502       8513       8512       8622       8623       8634       8633  
      8502       8503       8514       8513       8623       8624       8635       8634  
      8504       8505       8516       8515       8625       8626       8637       8636  
      8505       8506       8517       8516       8626       8627       8638       8637  
      8506       8507       8518       8517       8627       8628       8639       8638  
      8507       8508       8519       8518       8628       8629       8640       8639  
      8508       8509       8520       8519       8629       8630       8641       8640  
      8509       8510       8521       8520       8630       8631       8642       8641  
      8510       8511       8522       8521       8631       8632       8643       8642  
      8511       8512       8523       8522       8632       8633       8644       8643  
      8512       8513       8524       8523       8633       8634       8645       8644  
      8513       8514       8525       8524       8634       8635       8646       8645  
      8515       8516       8527       8526       8636       8637       8648       8647  
      8516       8517       8528       8527       8637       8638       8649       8648  
      8517       8518       8529       8528       8638       8639       8650       8649  
      8518       8519       8530       8529       8639       8640       8651       8650  
      8519       8520       8531       8530       8640       8641       8652       8651  
      8520       8521       8532       8531       8641       8642       8653       8652  
      8521       8522       8533       8532       8642       8643       8654       8653  
      8522       8523       8534       8533       8643       8644       8655       8654  
      8523       8524       8535       8534       8644       8645       8656       8655  
      8524       8525       8536       8535       8645       8646       8657       8656  
      8526       8527       8538       8537       8647       8648       8659       8658  
      8527       8528       8539       8538       8648       8649       8660       8659  
      8528       8529       8540       8539       8649       8650       8661       8660  
      8529       8530       8541       8540       8650       8651       8662       8661  
      8530       8531       8542       8541       8651       8652       8663       8662  
      8531       8532       8543       8542       8652       8653       8664       8663  
      8532       8533       8544       8543       8653       8654       8665       8664  
      8533       8534       8545       8544       8654       8655       8666       8665  
      8534       8535       8546       8545       8655       8656       8667       8666  
      8535       8536       8547       8546       8656       8657       8668       8667  
      8537       8538       8549       8548       8658       8659       8670       8669  
      8538       8539       8550       8549       8659       8660       8671       8670  
      8539       8540       8551       8550       8660       8661       8672       8671  
      8540       8541       8552       8551       8661       8662       8673       8672  
      8541       8542       8553       8552       8662       8663       8674       8673  
      8542       8543       8554       8553       8663       8664       8675       8674  
      8543       8544       8555       8554       8664       8665       8676       8675  
      8544       8545       8556       8555       8665       8666       8677       8676  
      8545       8546       8557       8556       8666       8667       8678       8677  
      8546       8547       8558       8557       8667       8668       8679       8678  
      8548       8549       8560       8559       8669       8670       8681       8680  
      8549       8550       8561       8560       8670       8671       8682       8681  
      8550       8551       8562       8561       8671       8672       8683       8682  
      8551       8552       8563       8562       8672       8673       8684       8683  
      8552       8553       8564       8563       8673       8674       8685       8684  
      8553       8554       8565       8564       8674       8675       8686       8685  
      8554       8555       8566       8565       8675       8676       8687       8686  
      8555       8556       8567       8566       8676       8677       8688       8687  
      8556       8557       8568       8567       8677       8678       8689       8688  
      8557       8558       8569       8568       8678       8679       8690       8689  
      8559       8560       8571       8570       8680       8681       8692       8691  
      8560       8561       8572       8571       8681       8682       8693       8692  
      8561       8562       8573       8572       8682       8683       8694       8693  
      8562       8563       8574       8573       8683       8684       8695       8694  
      8563       8564       8575       8574       8684       8685       8696       8695  
      8564       8565       8576       8575       8685       8686       8697       8696  
      8565       8566       8577       8576       8686       8687       8698       8697  
      8566       8567       8578       8577       8687       8688       8699       8698  
      8567       8568       8579       8578       8688       8689       8700       8699  
      8568       8569       8580       8579       8689       8690       8701       8700  
      8570       8571       8582       8581       8691       8692       8703       8702  
      8571       8572       8583       8582       8692       8693       8704       8703  
      8572       8573       8584       8583       8693       8694       8705       8704  
      8573       8574       8585       8584       8694       8695       8706       8705  
      8574       8575       8586       8585       8695       8696       8707       8706  
      8575       8576       8587       8586       8696       8697       8708       8707  
      8576       8577       8588       8587       8697       8698       8709       8708  
      8577       8578       8589       8588       8698       8699       8710       8709  
      8578       8579       8590       8589       8699       8700       8711       8710  
      8579       8580       8591       8590       8700       8701       8712       8711  
      8592       8593       8604       8603       8713       8714       8725       8724  
      8593       8594       8605       8604       8714       8715       8726       8725  
      8594       8595       8606       8605       8715       8716       8727       8726  
      8595       8596       8607       8606       8716       8717       8728       8727  
      8596       8597       8608       8607       8717       8718       8729       8728  
      8597       8598       8609       8608       8718       8719       8730       8729  
      8598       8599       8610       8609       8719       8720       8731       8730  
      8599       8600       8611       8610       8720       8721       8732       8731  
      8600       8601       8612       8611       8721       8722       8733       8732  
      8601       8602       8613       8612       8722       8723       8734       8733  
      8603       8604       8615       8614       8724       8725       8736       8735  
      8604       8605       8616       8615       8725       8726       8737       8736  
      8605       8606       8617       8616       8726       8727       8738       8737  
      8606       8607       8618       8617       8727       8728       8739       8738  
      8607       8608       8619       8618       8728       8729       8740       8739  
      8608       8609       8620       8619       8729       8730       8741       8740  
      8609       8610       8621       8620       8730       8731       8742       8741  
      8610       8611       8622       8621       8731       8732       8743       8742  
      8611       8612       8623       8622       8732       8733       8744       8743  
      8612       8613       8624       8623       8733       8734       8745       8744  
      8614       8615       8626       8625       8735       8736       8747       8746  
      8615       8616       8627       8626       8736       8737       8748       8747  
      8616       8617       8628       8627       8737       8738       8749       8748  
      8617       8618       8629       8628       8738       8739       8750       8749  
      8618       8619       8630       8629       8739       8740       8751       8750  
      8619       8620       8631       8630       8740       8741       8752       8751  
      8620       8621       8632       8631       8741       8742       8753       8752  
      8621       8622       8633       8632       8742       8743       8754       8753  
      8622       8623       8634       8633       8743       8744       8755       8754  
      8623       8624       8635       8634       8744       8745       8756       8755  
      8625       8626       8637       8636       8746       8747       8758       8757  
      8626       8627       8638       8637       8747       8748       8759       8758  
      8627       8628       8639       8638       8748       8749       8760       8759  
      8628       8629       8640       8639       8749       8750       8761       8760  
      8629       8630       8641       8640       8750       8751       8762       8761  
      8630       8631       8642       8641       8751       8752       8763       8762  
      8631       8632       8643       8642       8752       8753       8764       8763  
      8632       8633       8644       8643       8753       8754       8765       8764  
      8633       8634       8645       8644       8754       8755       8766       8765  
      8634       8635       8646       8645       8755       8756       8767       8766  
      8636       8637       8648       8647       8757       8758       8769       8768  
      8637       8638       8649       8648       8758       8759       8770       8769  
      8638       8639       8650       8649       8759       8760       8771       8770  
      8639       8640       8651       8650       8760       8761       8772       8771  
      8640       8641       8652       8651       8761       8762       8773       8772  
      8641       8642       8653       8652       8762       8763       8774       8773  
      8642       8643       8654       8653       8763       8764       8775       8774  
      8643       8644       8655       8654       8764       8765       8776       8775  
      8644       8645       8656       8655       8765       8766       8777       8776  
      8645       8646       8657       8656       8766       8767       8778       8777  
      8647       8648       8659       8658       8768       8769       8780       8779  
      8648       8649       8660       8659       8769       8770       8781       8780  
      8649       8650       8661       8660       8770       8771       8782       8781  
      8650       8651       8662       8661       8771       8772       8783       8782  
      8651       8652       8663       8662       8772       8773       8784       8783  
      8652       8653       8664       8663       8773       8774       8785       8784  
      8653       8654       8665       8664       8774       8775       8786       8785  
      8654       8655       8666       8665       8775       8776       8787       8786  
      8655       8656       8667       8666       8776       8777       8788       8787  
      8656       8657       8668       8667       8777       8778       8789       8788  
      8658       8659       8670       8669       8779       8780       8791       8790  
      8659       8660       8671       8670       8780       8781       8792       8791  
      8660       8661       8672       8671       8781       8782       8793       8792  
      8661       8662       8673       8672       8782       8783       8794       8793  
      8662       8663       8674       8673       8783       8784       8795       8794  
      8663       8664       8675       8674       8784       8785       8796       8795  
      8664       8665       8676       8675       8785       8786       8797       8796  
      8665       8666       8677       8676       8786       8787       8798       8797  
      8666       8667       8678       8677       8787       8788       8799       8798  
      8667       8668       8679       8678       8788       8789       8800       8799  
      8669       8670       8681       8680       8790       8791       8802       8801  
      8670       8671       8682       8681       8791       8792       8803       8802  
      8671       8672       8683       8682       8792       8793       8804       8803  
      8672       8673       8684       8683       8793       8794       8805       8804  
      8673       8674       8685       8684       8794       8795       8806       8805  
      8674       8675       8686       8685       8795       8796       8807       8806  
      8675       8676       8687       8686       8796       8797       8808       8807  
      8676       8677       8688       8687       8797       8798       8809       8808  
      8677       8678       8689       8688       8798       8799       8810       8809  
      8678       8679       8690       8689       8799       8800       8811       8810  
      8680       8681       8692       8691       8801       8802       8813       8812  
      8681       8682       8693       8692       8802       8803       8814       8813  
      8682       8683       8694       8693       8803       8804       8815       8814  
      8683       8684       8695       8694       8804       8805       8816       8815  
      8684       8685       8696       8695       8805       8806       8817       8816  
      8685       8686       8697       8696       8806       8807       8818       8817  
      8686       8687       8698       8697       8807       8808       8819       8818  
      8687       8688       8699       8698       8808       8809       8820       8819  
      8688       8689       8700       8699       8809       8810       8821       8820  
      8689       8690       8701       8700       8810       8811       8822       8821  
      8691       8692       8703       8702       8812       8813       8824       8823  
      8692       8693       8704       8703       8813       8814       8825       8824  
      8693       8694       8705       8704       8814       8815       8826       8825  
      8694       8695       8706       8705       8815       8816       8827       8826  
      8695       8696       8707       8706       8816       8817       8828       8827  
      8696       8697       8708       8707       8817       8818       8829       8828  
      8697       8698       8709       8708       8818       8819       8830       8829  
      8698       8699       8710       8709       8819       8820       8831       8830  
      8699       8700       8711       8710       8820       8821       8832       8831  
      8700       8701       8712       8711       8821       8822       8833       8832  
      8713       8714       8725       8724       8834       8835       8846       8845  
      8714       8715       8726       8725       8835       8836       8847       8846  
      8715       8716       8727       8726       8836       8837       8848       8847  
      8716       8717       8728       8727       8837       8838       8849       8848  
      8717       8718       8729       8728       8838       8839       8850       8849  
      8718       8719       8730       8729       8839       8840       8851       8850  
      8719       8720       8731       8730       8840       8841       8852       8851  
      8720       8721       8732       8731       8841       8842       8853       8852  
      8721       8722       8733       8732       8842       8843       8854       8853  
      8722       8723       8734       8733       8843       8844       8855       8854  
      8724       8725       8736       8735       8845       8846       8857       8856  
      8725       8726       8737       8736       8846       8847       8858       8857  
      8726       8727       8738       8737       8847       8848       8859       8858  
      8727       8728       8739       8738       8848       8849       8860       8859  
      8728       8729       8740       8739       8849       8850       8861       8860  
      8729       8730       8741       8740       8850       8851       8862       8861  
      8730       8731       8742       8741       8851       8852       8863       8862  
      8731       8732       8743       8742       8852       8853       8864       8863  
      8732       8733       8744       8743       8853       8854       8865       8864  
      8733       8734       8745       8744       8854       8855       8866       8865  
      8735       8736       8747       8746       8856       8857       8868       8867  
      8736       8737       8748       8747       8857       8858       8869       8868  
      8737       8738       8749       8748       8858       8859       8870       8869  
      8738       8739       8750       8749       8859       8860       8871       8870  
      8739       8740       8751       8750       8860       8861       8872       8871  
      8740       8741       8752       8751       8861       8862       8873       8872  
      8741       8742       8753       8752       8862       8863       8874       8873  
      8742       8743       8754       8753       8863       8864       8875       8874  
      8743       8744       8755       8754       8864       8865       8876       8875  
      8744       8745       8756       8755       8865       8866       8877       8876  
      8746       8747       8758       8757       8867       8868       8879       8878  
      8747       8748       8759       8758       8868       8869       8880       8879  
      8748       8749       8760       8759       8869       8870       8881       8880  
      8749       8750       8761       8760       8870       8871       8882       8881  
      8750       8751       8762       8761       8871       8872       8883       8882  
      8751       8752       8763       8762       8872       8873       8884       8883  
      8752       8753       8764       8763       8873       8874       8885       8884  
      8753       8754       8765       8764       8874       8875       8886       8885  
      8754       8755       8766       8765       8875       8876       8887       8886  
      8755       8756       8767       8766       8876       8877       8888       8887  
      8757       8758       8769       8768       8878       8879       8890       8889  
      8758       8759       8770       8769       8879       8880       8891       8890  
      8759       8760       8771       8770       8880       8881       8892       8891  
      8760       8761       8772       8771       8881       8882       8893       8892  
      8761       8762       8773       8772       8882       8883       8894       8893  
      8762       8763       8774       8773       8883       8884       8895       8894  
      8763       8764       8775       8774       8884       8885       8896       8895  
      8764       8765       8776       8775       8885       8886       8897       8896  
      8765       8766       8777       8776       8886       8887       8898       8897  
      8766       8767       8778       8777       8887       8888       8899       8898  
      8768       8769       8780       8779       8889       8890       8901       8900  
      8769       8770       8781       8780       8890       8891       8902       8901  
      8770       8771       8782       8781       8891       8892       8903       8902  
      8771       8772       8783       8782       8892       8893       8904       8903  
      8772       8773       8784       8783       8893       8894       8905       8904  
      8773       8774       8785       8784       8894       8895       8906       8905  
      8774       8775       8786       8785       8895       8896       8907       8906  
      8775       8776       8787       8786       8896       8897       8908       8907  
      8776       8777       8788       8787       8897       8898       8909       8908  
      8777       8778       8789       8788       8898       8899       8910       8909  
      8779       8780       8791       8790       8900       8901       8912       8911  
      8780       8781       8792       8791       8901       8902       8913       8912  
      8781       8782       8793       8792       8902       8903       8914       8913  
      8782       8783       8794       8793       8903       8904       8915       8914  
      8783       8784       8795       8794       8904       8905       8916       8915  
      8784       8785       8796       8795       8905       8906       8917       8916  
      8785       8786       8797       8796       8906       8907       8918       8917  
      8786       8787       8798       8797       8907       8908       8919       8918  
      8787       8788       8799       8798       8908       8909       8920       8919  
      8788       8789       8800       8799       8909       8910       8921       8920  
      8790       8791       8802       8801       8911       8912       8923       8922  
      8791       8792       8803       8802       8912       8913       8924       8923  
      8792       8793       8804       8803       8913       8914       8925       8924  
      8793       8794       8805       8804       8914       8915       8926       8925  
      8794       8795       8806       8805       8915       8916       8927       8926  
      8795       8796       8807       8806       8916       8917       8928       8927  
      8796       8797       8808       8807       8917       8918       8929       8928  
      8797       8798       8809       8808       8918       8919       8930       8929  
      8798       8799       8810       8809       8919       8920       8931       8930  
      8799       8800       8811       8810       8920       8921       8932       8931  
      8801       8802       8813       8812       8922       8923       8934       8933  
      8802       8803       8814       8813       8923       8924       8935       8934  
      8803       8804       8815       8814       8924       8925       8936       8935  
      8804       8805       8816       8815       8925       8926       8937       8936  
      8805       8806       8817       8816       8926       8927       8938       8937  
      8806       8807       8818       8817       8927       8928       8939       8938  
      8807       8808       8819       8818       8928       8929       8940       8939  
      8808       8809       8820       8819       8929       8930       8941       8940  
      8809       8810       8821       8820       8930       8931       8942       8941  
      8810       8811       8822       8821       8931       8932       8943       8942  
      8812       8813       8824       8823       8933       8934       8945       8944  
      8813       8814       8825       8824       8934       8935       8946       8945  
      8814       8815       8826       8825       8935       8936       8947       8946  
      8815       8816       8827       8826       8936       8937       8948       8947  
      8816       8817       8828       8827       8937       8938       8949       8948  
      8817       8818       8829       8828       8938       8939       8950       8949  
      8818       8819       8830       8829       8939       8940       8951       8950  
      8819       8820       8831       8830       8940       8941       8952       8951  
      8820       8821       8832       8831       8941       8942       8953       8952  
      8821       8822       8833       8832       8942       8943       8954       8953  
      8834       8835       8846       8845       8955       8956       8967       8966  
      8835       8836       8847       8846       8956       8957       8968       8967  
      8836       8837       8848       8847       8957       8958       8969       8968  
      8837       8838       8849       8848       8958       8959       8970       8969  
      8838       8839       8850       8849       8959       8960       8971       8970  
      8839       8840       8851       8850       8960       8961       8972       8971  
      8840       8841       8852       8851       8961       8962       8973       8972  
      8841       8842       8853       8852       8962       8963       8974       8973  
      8842       8843       8854       8853       8963       8964       8975       8974  
      8843       8844       8855       8854       8964       8965       8976       8975  
      8845       8846       8857       8856       8966       8967       8978       8977  
      8846       8847       8858       8857       8967       8968       8979       8978  
      8847       8848       8859       8858       8968       8969       8980       8979  
      8848       8849       8860       8859       8969       8970       8981       8980  
      8849       8850       8861       8860       8970       8971       8982       8981  
      8850       8851       8862       8861       8971       8972       8983       8982  
      8851       8852       8863       8862       8972       8973       8984       8983  
      8852       8853       8864       8863       8973       8974       8985       8984  
      8853       8854       8865       8864       8974       8975       8986       8985  
      8854       8855       8866       8865       8975       8976       8987       8986  
      8856       8857       8868       8867       8977       8978       8989       8988  
      8857       8858       8869       8868       8978       8979       8990       8989  
      8858       8859       8870       8869       8979       8980       8991       8990  
      8859       8860       8871       8870       8980       8981       8992       8991  
      8860       8861       8872       8871       8981       8982       8993       8992  
      8861       8862       8873       8872       8982       8983       8994       8993  
      8862       8863       8874       8873       8983       8984       8995       8994  
      8863       8864       8875       8874       8984       8985       8996       8995  
      8864       8865       8876       8875       8985       8986       8997       8996  
      8865       8866       8877       8876       8986       8987       8998       8997  
      8867       8868       8879       8878       8988       8989       9000       8999  
      8868       8869       8880       8879       8989       8990       9001       9000  
      8869       8870       8881       8880       8990       8991       9002       9001  
      8870       8871       8882       8881       8991       8992       9003       9002  
      8871       8872       8883       8882       8992       8993       9004       9003  
      8872       8873       8884       8883       8993       8994       9005       9004  
      8873       8874       8885       8884       8994       8995       9006       9005  
      8874       8875       8886       8885       8995       8996       9007       9006  
      8875       8876       8887       8886       8996       8997       9008       9007  
      8876       8877       8888       8887       8997       8998       9009       9008  
      8878       8879       8890       8889       8999       9000       9011       9010  
      8879       8880       8891       8890       9000       9001       9012       9011  
      8880       8881       8892       8891       9001       9002       9013       9012  
      8881       8882       8893       8892       9002       9003       9014       9013  
      8882       8883       8894       8893       9003       9004       9015       9014  
      8883       8884       8895       8894       9004       9005       9016       9015  
      8884       8885       8896       8895       9005       9006       9017       9016  
      8885       8886       8897       8896       9006       9007       9018       9017  
      8886       8887       8898       8897       9007       9008       9019       9018  
      8887       8888       8899       8898       9008       9009       9020       9019  
      8889       8890       8901       8900       9010       9011       9022       9021  
      8890       8891       8902       8901       9011       9012       9023       9022  
      8891       8892       8903       8902       9012       9013       9024       9023  
      8892       8893       8904       8903       9013       9014       9025       9024  
      8893       8894       8905       8904       9014       9015       9026       9025  
      8894       8895       8906       8905       9015       9016       9027       9026  
      8895       8896       8907       8906       9016       9017       9028       9027  
      8896       8897       8908       8907       9017       9018       9029       9028  
      8897       8898       8909       8908       9018       9019       9030       9029  
      8898       8899       8910       8909       9019       9020       9031       9030  
      8900       8901       8912       8911       9021       9022       9033       9032  
      8901       8902       8913       8912       9022       9023       9034       9033  
      8902       8903       8914       8913       9023       9024       9035       9034  
      8903       8904       8915       8914       9024       9025       9036       9035  
      8904       8905       8916       8915       9025       9026       9037       9036  
      8905       8906       8917       8916       9026       9027       9038       9037  
      8906       8907       8918       8917       9027       9028       9039       9038  
      8907       8908       8919       8918       9028       9029       9040       9039  
      8908       8909       8920       8919       9029       9030       9041       9040  
      8909       8910       8921       8920       9030       9031       9042       9041  
      8911       8912       8923       8922       9032       9033       9044       9043  
      8912       8913       8924       8923       9033       9034       9045       9044  
      8913       8914       8925       8924       9034       9035       9046       9045  
      8914       8915       8926       8925       9035       9036       9047       9046  
      8915       8916       8927       8926       9036       9037       9048       9047  
      8916       8917       8928       8927       9037       9038       9049       9048  
      8917       8918       8929       8928       9038       9039       9050       9049  
      8918       8919       8930       8929       9039       9040       9051       9050  
      8919       8920       8931       8930       9040       9041       9052       9051  
      8920       8921       8932       8931       9041       9042       9053       9052  
      8922       8923       8934       8933       9043       9044       9055       9054  
      8923       8924       8935       8934       9044       9045       9056       9055  
      8924       8925       8936       8935       9045       9046       9057       9056  
      8925       8926       8937       8936       9046       9047       9058       9057  
      8926       8927       8938       8937       9047       9048       9059       9058  
      8927       8928       8939       8938       9048       9049       9060       9059  
      8928       8929       8940       8939       9049       9050       9061       9060  
      8929       8930       8941       8940       9050       9051       9062       9061  
      8930       8931       8942       8941       9051       9052       9063       9062  
      8931       8932       8943       8942       9052       9053       9064       9063  
      8933       8934       8945       8944       9054       9055       9066       9065  
      8934       8935       8946       8945       9055       9056       9067       9066  
      8935       8936       8947       8946       9056       9057       9068       9067  
      8936       8937       8948       8947       9057       9058       9069       9068  
      8937       8938       8949       8948       9058       9059       9070       9069  
      8938       8939       8950       8949       9059       9060       9071       9070  
      8939       8940       8951       8950       9060       9061       9072       9071  
      8940       8941       8952       8951       9061       9062       9073       9072  
      8941       8942       8953       8952       9062       9063       9074       9073  
      8942       8943       8954       8953       9063       9064       9075       9074  
      8955       8956       8967       8966       9076       9077       9088       9087  
      8956       8957       8968       8967       9077       9078       9089       9088  
      8957       8958       8969       8968       9078       9079       9090       9089  
      8958       8959       8970       8969       9079       9080       9091       9090  
      8959       8960       8971       8970       9080       9081       9092       9091  
      8960       8961       8972       8971       9081       9082       9093       9092  
      8961       8962       8973       8972       9082       9083       9094       9093  
      8962       8963       8974       8973       9083       9084       9095       9094  
      8963       8964       8975       8974       9084       9085       9096       9095  
      8964       8965       8976       8975       9085       9086       9097       9096  
      8966       8967       8978       8977       9087       9088       9099       9098  
      8967       8968       8979       8978       9088       9089       9100       9099  
      8968       8969       8980       8979       9089       9090       9101       9100  
      8969       8970       8981       8980       9090       9091       9102       9101  
      8970       8971       8982       8981       9091       9092       9103       9102  
      8971       8972       8983       8982       9092       9093       9104       9103  
      8972       8973       8984       8983       9093       9094       9105       9104  
      8973       8974       8985       8984       9094       9095       9106       9105  
      8974       8975       8986       8985       9095       9096       9107       9106  
      8975       8976       8987       8986       9096       9097       9108       9107  
      8977       8978       8989       8988       9098       9099       9110       9109  
      8978       8979       8990       8989       9099       9100       9111       9110  
      8979       8980       8991       8990       9100       9101       9112       9111  
      8980       8981       8992       8991       9101       9102       9113       9112  
      8981       8982       8993       8992       9102       9103       9114       9113  
      8982       8983       8994       8993       9103       9104       9115       9114  
      8983       8984       8995       8994       9104       9105       9116       9115  
      8984       8985       8996       8995       9105       9106       9117       9116  
      8985       8986       8997       8996       9106       9107       9118       9117  
      8986       8987       8998       8997       9107       9108       9119       9118  
      8988       8989       9000       8999       9109       9110       9121       9120  
      8989       8990       9001       9000       9110       9111       9122       9121  
      8990       8991       9002       9001       9111       9112       9123       9122  
      8991       8992       9003       9002       9112       9113       9124       9123  
      8992       8993       9004       9003       9113       9114       9125       9124  
      8993       8994       9005       9004       9114       9115       9126       9125  
      8994       8995       9006       9005       9115       9116       9127       9126  
      8995       8996       9007       9006       9116       9117       9128       9127  
      8996       8997       9008       9007       9117       9118       9129       9128  
      8997       8998       9009       9008       9118       9119       9130       9129  
      8999       9000       9011       9010       9120       9121       9132       9131  
      9000       9001       9012       9011       9121       9122       9133       9132  
      9001       9002       9013       9012       9122       9123       9134       9133  
      9002       9003       9014       9013       9123       9124       9135       9134  
      9003       9004       9015       9014       9124       9125       9136       9135  
      9004       9005       9016       9015       9125       9126       9137       9136  
      9005       9006       9017       9016       9126       9127       9138       9137  
      9006       9007       9018       9017       9127       9128       9139       9138  
      9007       9008       9019       9018       9128       9129       9140       9139  
      9008       9009       9020       9019       9129       9130       9141       9140  
      9010       9011       9022       9021       9131       9132       9143       9142  
      9011       9012       9023       9022       9132       9133       9144       9143  
      9012       9013       9024       9023       9133       9134       9145       9144  
      9013       9014       9025       9024       9134       9135       9146       9145  
      9014       9015       9026       9025       9135       9136       9147       9146  
      9015       9016       9027       9026       9136       9137       9148       9147  
      9016       9017       9028       9027       9137       9138       9149       9148  
      9017       9018       9029       9028       9138       9139       9150       9149  
      9018       9019       9030       9029       9139       9140       9151       9150  
      9019       9020       9031       9030       9140       9141       9152       9151  
      9021       9022       9033       9032       9142       9143       9154       9153  
      9022       9023       9034       9033       9143       9144       9155       9154  
      9023       9024       9035       9034       9144       9145       9156       9155  
      9024       9025       9036       9035       9145       9146       9157       9156  
      9025       9026       9037       9036       9146       9147       9158       9157  
      9026       9027       9038       9037       9147       9148       9159       9158  
      9027       9028       9039       9038       9148       9149       9160       9159  
      9028       9029       9040       9039       9149       9150       9161       9160  
      9029       9030       9041       9040       9150       9151       9162       9161  
      9030       9031       9042       9041       9151       9152       9163       9162  
      9032       9033       9044       9043       9153       9154       9165       9164  
      9033       9034       9045       9044       9154       9155       9166       9165  
      9034       9035       9046       9045       9155       9156       9167       9166  
      9035       9036       9047       9046       9156       9157       9168       9167  
      9036       9037       9048       9047       9157       9158       9169       9168  
      9037       9038       9049       9048       9158       9159       9170       9169  
      9038       9039       9050       9049       9159       9160       9171       9170  
      9039       9040       9051       9050       9160       9161       9172       9171  
      9040       9041       9052       9051       9161       9162       9173       9172  
      9041       9042       9053       9052       9162       9163       9174       9173  
      9043       9044       9055       9054       9164       9165       9176       9175  
      9044       9045       9056       9055       9165       9166       9177       9176  
      9045       9046       9057       9056       9166       9167       9178       9177  
      9046       9047       9058       9057       9167       9168       9179       9178  
      9047       9048       9059       9058       9168       9169       9180       9179  
      9048       9049       9060       9059       9169       9170       9181       9180  
      9049       9050       9061       9060       9170       9171       9182       9181  
      9050       9051       9062       9061       9171       9172       9183       9182  
      9051       9052       9063       9062       9172       9173       9184       9183  
      9052       9053       9064       9063       9173       9174       9185       9184  
      9054       9055       9066       9065       9175       9176       9187       9186  
      9055       9056       9067       9066       9176       9177       9188       9187  
      9056       9057       9068       9067       9177       9178       9189       9188  
      9057       9058       9069       9068       9178       9179       9190       9189  
      9058       9059       9070       9069       9179       9180       9191       9190  
      9059       9060       9071       9070       9180       9181       9192       9191  
      9060       9061       9072       9071       9181       9182       9193       9192  
      9061       9062       9073       9072       9182       9183       9194       9193  
      9062       9063       9074       9073       9183       9184       9195       9194  
      9063       9064       9075       9074       9184       9185       9196       9195  
      9076       9077       9088       9087       9197       9198       9209       9208  
      9077       9078       9089       9088       9198       9199       9210       9209  
      9078       9079       9090       9089       9199       9200       9211       9210  
      9079       9080       9091       9090       9200       9201       9212       9211  
      9080       9081       9092       9091       9201       9202       9213       9212  
      9081       9082       9093       9092       9202       9203       9214       9213  
      9082       9083       9094       9093       9203       9204       9215       9214  
      9083       9084       9095       9094       9204       9205       9216       9215  
      9084       9085       9096       9095       9205       9206       9217       9216  
      9085       9086       9097       9096       9206       9207       9218       9217  
      9087       9088       9099       9098       9208       9209       9220       9219  
      9088       9089       9100       9099       9209       9210       9221       9220  
      9089       9090       9101       9100       9210       9211       9222       9221  
      9090       9091       9102       9101       9211       9212       9223       9222  
      9091       9092       9103       9102       9212       9213       9224       9223  
      9092       9093       9104       9103       9213       9214       9225       9224  
      9093       9094       9105       9104       9214       9215       9226       9225  
      9094       9095       9106       9105       9215       9216       9227       9226  
      9095       9096       9107       9106       9216       9217       9228       9227  
      9096       9097       9108       9107       9217       9218       9229       9228  
      9098       9099       9110       9109       9219       9220       9231       9230  
      9099       9100       9111       9110       9220       9221       9232       9231  
      9100       9101       9112       9111       9221       9222       9233       9232  
      9101       9102       9113       9112       9222       9223       9234       9233  
      9102       9103       9114       9113       9223       9224       9235       9234  
      9103       9104       9115       9114       9224       9225       9236       9235  
      9104       9105       9116       9115       9225       9226       9237       9236  
      9105       9106       9117       9116       9226       9227       9238       9237  
      9106       9107       9118       9117       9227       9228       9239       9238  
      9107       9108       9119       9118       9228       9229       9240       9239  
      9109       9110       9121       9120       9230       9231       9242       9241  
      9110       9111       9122       9121       9231       9232       9243       9242  
      9111       9112       9123       9122       9232       9233       9244       9243  
      9112       9113       9124       9123       9233       9234       9245       9244  
      9113       9114       9125       9124       9234       9235       9246       9245  
      9114       9115       9126       9125       9235       9236       9247       9246  
      9115       9116       9127       9126       9236       9237       9248       9247  
      9116       9117       9128       9127       9237       9238       9249       9248  
      9117       9118       9129       9128       9238       9239       9250       9249  
      9118       9119       9130       9129       9239       9240       9251       9250  
      9120       9121       9132       9131       9241       9242       9253       9252  
      9121       9122       9133       9132       9242       9243       9254       9253  
      9122       9123       9134       9133       9243       9244       9255       9254  
      9123       9124       9135       9134       9244       9245       9256       9255  
      9124       9125       9136       9135       9245       9246       9257       9256  
      9125       9126       9137       9136       9246       9247       9258       9257  
      9126       9127       9138       9137       9247       9248       9259       9258  
      9127       9128       9139       9138       9248       9249       9260       9259  
      9128       9129       9140       9139       9249       9250       9261       9260  
      9129       9130       9141       9140       9250       9251       9262       9261  
      9131       9132       9143       9142       9252       9253       9264       9263  
      9132       9133       9144       9143       9253       9254       9265       9264  
      9133       9134       9145       9144       9254       9255       9266       9265  
      9134       9135       9146       9145       9255       9256       9267       9266  
      9135       9136       9147       9146       9256       9257       9268       9267  
      9136       9137       9148       9147       9257       9258       9269       9268  
      9137       9138       9149       9148       9258       9259       9270       9269  
      9138       9139       9150       9149       9259       9260       9271       9270  
      9139       9140       9151       9150       9260       9261       9272       9271  
      9140       9141       9152       9151       9261       9262       9273       9272  
      9142       9143       9154       9153       9263       9264       9275       9274  
      9143       9144       9155       9154       9264       9265       9276       9275  
      9144       9145       9156       9155       9265       9266       9277       9276  
      9145       9146       9157       9156       9266       9267       9278       9277  
      9146       9147       9158       9157       9267       9268       9279       9278  
      9147       9148       9159       9158       9268       9269       9280       9279  
      9148       9149       9160       9159       9269       9270       9281       9280  
      9149       9150       9161       9160       9270       9271       9282       9281  
      9150       9151       9162       9161       9271       9272       9283       9282  
      9151       9152       9163       9162       9272       9273       9284       9283  
      9153       9154       9165       9164       9274       9275       9286       9285  
      9154       9155       9166       9165       9275       9276       9287       9286  
      9155       9156       9167       9166       9276       9277       9288       9287  
      9156       9157       9168       9167       9277       9278       9289       9288  
      9157       9158       9169       9168       9278       9279       9290       9289  
      9158       9159       9170       9169       9279       9280       9291       9290  
      9159       9160       9171       9170       9280       9281       9292       9291  
      9160       9161       9172       9171       9281       9282       9293       9292  
      9161       9162       9173       9172       9282       9283       9294       9293  
      9162       9163       9174       9173       9283       9284       9295       9294  
      9164       9165       9176       9175       9285       9286       9297       9296  
      9165       9166       9177       9176       9286       9287       9298       9297  
      9166       9167       9178       9177       9287       9288       9299       9298  
      9167       9168       9179       9178       9288       9289       9300       9299  
      9168       9169       9180       9179       9289       9290       9301       9300  
      9169       9170       9181       9180       9290       9291       9302       9301  
      9170       9171       9182       9181       9291       9292       9303       9302  
      9171       9172       9183       9182       9292       9293       9304       9303  
      9172       9173       9184       9183       9293       9294       9305       9304  
      9173       9174       9185       9184       9294       9295       9306       9305  
      9175       9176       9187       9186       9296       9297       9308       9307  
      9176       9177       9188       9187       9297       9298       9309       9308  
      9177       9178       9189       9188       9298       9299       9310       9309  
      9178       9179       9190       9189       9299       9300       9311       9310  
      9179       9180       9191       9190       9300       9301       9312       9311  
      9180       9181       9192       9191       9301       9302       9313       9312  
      9181       9182       9193       9192       9302       9303       9314       9313  
      9182       9183       9194       9193       9303       9304       9315       9314  
      9183       9184       9195       9194       9304       9305       9316       9315  
      9184       9185       9196       9195       9305       9306       9317       9316  
      9197       9198       9209       9208       9318       9319       9330       9329  
      9198       9199       9210       9209       9319       9320       9331       9330  
      9199       9200       9211       9210       9320       9321       9332       9331  
      9200       9201       9212       9211       9321       9322       9333       9332  
      9201       9202       9213       9212       9322       9323       9334       9333  
      9202       9203       9214       9213       9323       9324       9335       9334  
      9203       9204       9215       9214       9324       9325       9336       9335  
      9204       9205       9216       9215       9325       9326       9337       9336  
      9205       9206       9217       9216       9326       9327       9338       9337  
      9206       9207       9218       9217       9327       9328       9339       9338  
      9208       9209       9220       9219       9329       9330       9341       9340  
      9209       9210       9221       9220       9330       9331       9342       9341  
      9210       9211       9222       9221       9331       9332       9343       9342  
      9211       9212       9223       9222       9332       9333       9344       9343  
      9212       9213       9224       9223       9333       9334       9345       9344  
      9213       9214       9225       9224       9334       9335       9346       9345  
      9214       9215       9226       9225       9335       9336       9347       9346  
      9215       9216       9227       9226       9336       9337       9348       9347  
      9216       9217       9228       9227       9337       9338       9349       9348  
      9217       9218       9229       9228       9338       9339       9350       9349  
      9219       9220       9231       9230       9340       9341       9352       9351  
      9220       9221       9232       9231       9341       9342       9353       9352  
      9221       9222       9233       9232       9342       9343       9354       9353  
      9222       9223       9234       9233       9343       9344       9355       9354  
      9223       9224       9235       9234       9344       9345       9356       9355  
      9224       9225       9236       9235       9345       9346       9357       9356  
      9225       9226       9237       9236       9346       9347       9358       9357  
      9226       9227       9238       9237       9347       9348       9359       9358  
      9227       9228       9239       9238       9348       9349       9360       9359  
      9228       9229       9240       9239       9349       9350       9361       9360  
      9230       9231       9242       9241       9351       9352       9363       9362  
      9231       9232       9243       9242       9352       9353       9364       9363  
      9232       9233       9244       9243       9353       9354       9365       9364  
      9233       9234       9245       9244       9354       9355       9366       9365  
      9234       9235       9246       9245       9355       9356       9367       9366  
      9235       9236       9247       9246       9356       9357       9368       9367  
      9236       9237       9248       9247       9357       9358       9369       9368  
      9237       9238       9249       9248       9358       9359       9370       9369  
      9238       9239       9250       9249       9359       9360       9371       9370  
      9239       9240       9251       9250       9360       9361       9372       9371  
      9241       9242       9253       9252       9362       9363       9374       9373  
      9242       9243       9254       9253       9363       9364       9375       9374  
      9243       9244       9255       9254       9364       9365       9376       9375  
      9244       9245       9256       9255       9365       9366       9377       9376  
      9245       9246       9257       9256       9366       9367       9378       9377  
      9246       9247       9258       9257       9367       9368       9379       9378  
      9247       9248       9259       9258       9368       9369       9380       9379  
      9248       9249       9260       9259       9369       9370       9381       9380  
      9249       9250       9261       9260       9370       9371       9382       9381  
      9250       9251       9262       9261       9371       9372       9383       9382  
      9252       9253       9264       9263       9373       9374       9385       9384  
      9253       9254       9265       9264       9374       9375       9386       9385  
      9254       9255       9266       9265       9375       9376       9387       9386  
      9255       9256       9267       9266       9376       9377       9388       9387  
      9256       9257       9268       9267       9377       9378       9389       9388  
      9257       9258       9269       9268       9378       9379       9390       9389  
      9258       9259       9270       9269       9379       9380       9391       9390  
      9259       9260       9271       9270       9380       9381       9392       9391  
      9260       9261       9272       9271       9381       9382       9393       9392  
      9261       9262       9273       9272       9382       9383       9394       9393  
      9263       9264       9275       9274       9384       9385       9396       9395  
      9264       9265       9276       9275       9385       9386       9397       9396  
      9265       9266       9277       9276       9386       9387       9398       9397  
      9266       9267       9278       9277       9387       9388       9399       9398  
      9267       9268       9279       9278       9388       9389       9400       9399  
      9268       9269       9280       9279       9389       9390       9401       9400  
      9269       9270       9281       9280       9390       9391       9402       9401  
      9270       9271       9282       9281       9391       9392       9403       9402  
      9271       9272       9283       9282       9392       9393       9404       9403  
      9272       9273       9284       9283       9393       9394       9405       9404  
      9274       9275       9286       9285       9395       9396       9407       9406  
      9275       9276       9287       9286       9396       9397       9408       9407  
      9276       9277       9288       9287       9397       9398       9409       9408  
      9277       9278       9289       9288       9398       9399       9410       9409  
      9278       9279       9290       9289       9399       9400       9411       9410  
      9279       9280       9291       9290       9400       9401       9412       9411  
      9280       9281       9292       9291       9401       9402       9413       9412  
      9281       9282       9293       9292       9402       9403       9414       9413  
      9282       9283       9294       9293       9403       9404       9415       9414  
      9283       9284       9295       9294       9404       9405       9416       9415  
      9285       9286       9297       9296       9406       9407       9418       9417  
      9286       9287       9298       9297       9407       9408       9419       9418  
      9287       9288       9299       9298       9408       9409       9420       9419  
      9288       9289       9300       9299       9409       9410       9421       9420  
      9289       9290       9301       9300       9410       9411       9422       9421  
      9290       9291       9302       9301       9411       9412       9423       9422  
      9291       9292       9303       9302       9412       9413       9424       9423  
      9292       9293       9304       9303       9413       9414       9425       9424  
      9293       9294       9305       9304       9414       9415       9426       9425  
      9294       9295       9306       9305       9415       9416       9427       9426  
      9296       9297       9308       9307       9417       9418       9429       9428  
      9297       9298       9309       9308       9418       9419       9430       9429  
      9298       9299       9310       9309       9419       9420       9431       9430  
      9299       9300       9311       9310       9420       9421       9432       9431  
      9300       9301       9312       9311       9421       9422       9433       9432  
      9301       9302       9313       9312       9422       9423       9434       9433  
      9302       9303       9314       9313       9423       9424       9435       9434  
      9303       9304       9315       9314       9424       9425       9436       9435  
      9304       9305       9316       9315       9425       9426       9437       9436  
      9305       9306       9317       9316       9426       9427       9438       9437  
      9318       9319       9330       9329       9439       9440       9451       9450  
      9319       9320       9331       9330       9440       9441       9452       9451  
      9320       9321       9332       9331       9441       9442       9453       9452  
      9321       9322       9333       9332       9442       9443       9454       9453  
      9322       9323       9334       9333       9443       9444       9455       9454  
      9323       9324       9335       9334       9444       9445       9456       9455  
      9324       9325       9336       9335       9445       9446       9457       9456  
      9325       9326       9337       9336       9446       9447       9458       9457  
      9326       9327       9338       9337       9447       9448       9459       9458  
      9327       9328       9339       9338       9448       9449       9460       9459  
      9329       9330       9341       9340       9450       9451       9462       9461  
      9330       9331       9342       9341       9451       9452       9463       9462  
      9331       9332       9343       9342       9452       9453       9464       9463  
      9332       9333       9344       9343       9453       9454       9465       9464  
      9333       9334       9345       9344       9454       9455       9466       9465  
      9334       9335       9346       9345       9455       9456       9467       9466  
      9335       9336       9347       9346       9456       9457       9468       9467  
      9336       9337       9348       9347       9457       9458       9469       9468  
      9337       9338       9349       9348       9458       9459       9470       9469  
      9338       9339       9350       9349       9459       9460       9471       9470  
      9340       9341       9352       9351       9461       9462       9473       9472  
      9341       9342       9353       9352       9462       9463       9474       9473  
      9342       9343       9354       9353       9463       9464       9475       9474  
      9343       9344       9355       9354       9464       9465       9476       9475  
      9344       9345       9356       9355       9465       9466       9477       9476  
      9345       9346       9357       9356       9466       9467       9478       9477  
      9346       9347       9358       9357       9467       9468       9479       9478  
      9347       9348       9359       9358       9468       9469       9480       9479  
      9348       9349       9360       9359       9469       9470       9481       9480  
      9349       9350       9361       9360       9470       9471       9482       9481  
      9351       9352       9363       9362       9472       9473       9484       9483  
      9352       9353       9364       9363       9473       9474       9485       9484  
      9353       9354       9365       9364       9474       9475       9486       9485  
      9354       9355       9366       9365       9475       9476       9487       9486  
      9355       9356       9367       9366       9476       9477       9488       9487  
      9356       9357       9368       9367       9477       9478       9489       9488  
      9357       9358       9369       9368       9478       9479       9490       9489  
      9358       9359       9370       9369       9479       9480       9491       9490  
      9359       9360       9371       9370       9480       9481       9492       9491  
      9360       9361       9372       9371       9481       9482       9493       9492  
      9362       9363       9374       9373       9483       9484       9495       9494  
      9363       9364       9375       9374       9484       9485       9496       9495  
      9364       9365       9376       9375       9485       9486       9497       9496  
      9365       9366       9377       9376       9486       9487       9498       9497  
      9366       9367       9378       9377       9487       9488       9499       9498  
      9367       9368       9379       9378       9488       9489       9500       9499  
      9368       9369       9380       9379       9489       9490       9501       9500  
      9369       9370       9381       9380       9490       9491       9502       9501  
      9370       9371       9382       9381       9491       9492       9503       9502  
      9371       9372       9383       9382       9492       9493       9504       9503  
      9373       9374       9385       9384       9494       9495       9506       9505  
      9374       9375       9386       9385       9495       9496       9507       9506  
      9375       9376       9387       9386       9496       9497       9508       9507  
      9376       9377       9388       9387       9497       9498       9509       9508  
      9377       9378       9389       9388       9498       9499       9510       9509  
      9378       9379       9390       9389       9499       9500       9511       9510  
      9379       9380       9391       9390       9500       9501       9512       9511  
      9380       9381       9392       9391       9501       9502       9513       9512  
      9381       9382       9393       9392       9502       9503       9514       9513  
      9382       9383       9394       9393       9503       9504       9515       9514  
      9384       9385       9396       9395       9505       9506       9517       9516  
      9385       9386       9397       9396       9506       9507       9518       9517  
      9386       9387       9398       9397       9507       9508       9519       9518  
      9387       9388       9399       9398       9508       9509       9520       9519  
      9388       9389       9400       9399       9509       9510       9521       9520  
      9389       9390       9401       9400       9510       9511       9522       9521  
      9390       9391       9402       9401       9511       9512       9523       9522  
      9391       9392       9403       9402       9512       9513       9524       9523  
      9392       9393       9404       9403       9513       9514       9525       9524  
      9393       9394       9405       9404       9514       9515       9526       9525  
      9395       9396       9407       9406       9516       9517       9528       9527  
      9396       9397       9408       9407       9517       9518       9529       9528  
      9397       9398       9409       9408       9518       9519       9530       9529  
      9398       9399       9410       9409       9519       9520       9531       9530  
      9399       9400       9411       9410       9520       9521       9532       9531  
      9400       9401       9412       9411       9521       9522       9533       9532  
      9401       9402       9413       9412       9522       9523       9534       9533  
      9402       9403       9414       9413       9523       9524       9535       9534  
      9403       9404       9415       9414       9524       9525       9536       9535  
      9404       9405       9416       9415       9525       9526       9537       9536  
      9406       9407       9418       9417       9527       9528       9539       9538  
      9407       9408       9419       9418       9528       9529       9540       9539  
      9408       9409       9420       9419       9529       9530       9541       9540  
      9409       9410       9421       9420       9530       9531       9542       9541  
      9410       9411       9422       9421       9531       9532       9543       9542  
      9411       9412       9423       9422       9532       9533       9544       9543  
      9412       9413       9424       9423       9533       9534       9545       9544  
      9413       9414       9425       9424       9534       9535       9546       9545  
      9414       9415       9426       9425       9535       9536       9547       9546  
      9415       9416       9427       9426       9536       9537       9548       9547  
      9417       9418       9429       9428       9538       9539       9550       9549  
      9418       9419       9430       9429       9539       9540       9551       9550  
      9419       9420       9431       9430       9540       9541       9552       9551  
      9420       9421       9432       9431       9541       9542       9553       9552  
      9421       9422       9433       9432       9542       9543       9554       9553  
      9422       9423       9434       9433       9543       9544       9555       9554  
      9423       9424       9435       9434       9544       9545       9556       9555  
      9424       9425       9436       9435       9545       9546       9557       9556  
      9425       9426       9437       9436       9546       9547       9558       9557  
      9426       9427       9438       9437       9547       9548       9559       9558  
      9439       9440       9451       9450       9560       9561       9572       9571  
      9440       9441       9452       9451       9561       9562       9573       9572  
      9441       9442       9453       9452       9562       9563       9574       9573  
      9442       9443       9454       9453       9563       9564       9575       9574  
      9443       9444       9455       9454       9564       9565       9576       9575  
      9444       9445       9456       9455       9565       9566       9577       9576  
      9445       9446       9457       9456       9566       9567       9578       9577  
      9446       9447       9458       9457       9567       9568       9579       9578  
      9447       9448       9459       9458       9568       9569       9580       9579  
      9448       9449       9460       9459       9569       9570       9581       9580  
      9450       9451       9462       9461       9571       9572       9583       9582  
      9451       9452       9463       9462       9572       9573       9584       9583  
      9452       9453       9464       9463       9573       9574       9585       9584  
      9453       9454       9465       9464       9574       9575       9586       9585  
      9454       9455       9466       9465       9575       9576       9587       9586  
      9455       9456       9467       9466       9576       9577       9588       9587  
      9456       9457       9468       9467       9577       9578       9589       9588  
      9457       9458       9469       9468       9578       9579       9590       9589  
      9458       9459       9470       9469       9579       9580       9591       9590  
      9459       9460       9471       9470       9580       9581       9592       9591  
      9461       9462       9473       9472       9582       9583       9594       9593  
      9462       9463       9474       9473       9583       9584       9595       9594  
      9463       9464       9475       9474       9584       9585       9596       9595  
      9464       9465       9476       9475       9585       9586       9597       9596  
      9465       9466       9477       9476       9586       9587       9598       9597  
      9466       9467       9478       9477       9587       9588       9599       9598  
      9467       9468       9479       9478       9588       9589       9600       9599  
      9468       9469       9480       9479       9589       9590       9601       9600  
      9469       9470       9481       9480       9590       9591       9602       9601  
      9470       9471       9482       9481       9591       9592       9603       9602  
      9472       9473       9484       9483       9593       9594       9605       9604  
      9473       9474       9485       9484       9594       9595       9606       9605  
      9474       9475       9486       9485       9595       9596       9607       9606  
      9475       9476       9487       9486       9596       9597       9608       9607  
      9476       9477       9488       9487       9597       9598       9609       9608  
      9477       9478       9489       9488       9598       9599       9610       9609  
      9478       9479       9490       9489       9599       9600       9611       9610  
      9479       9480       9491       9490       9600       9601       9612       9611  
      9480       9481       9492       9491       9601       9602       9613       9612  
      9481       9482       9493       9492       9602       9603       9614       9613  
      9483       9484       9495       9494       9604       9605       9616       9615  
      9484       9485       9496       9495       9605       9606       9617       9616  
      9485       9486       9497       9496       9606       9607       9618       9617  
      9486       9487       9498       9497       9607       9608       9619       9618  
      9487       9488       9499       9498       9608       9609       9620       9619  
      9488       9489       9500       9499       9609       9610       9621       9620  
      9489       9490       9501       9500       9610       9611       9622       9621  
      9490       9491       9502       9501       9611       9612       9623       9622  
      9491       9492       9503       9502       9612       9613       9624       9623  
      9492       9493       9504       9503       9613       9614       9625       9624  
      9494       9495       9506       9505       9615       9616       9627       9626  
      9495       9496       9507       9506       9616       9617       9628       9627  
      9496       9497       9508       9507       9617       9618       9629       9628  
      9497       9498       9509       9508       9618       9619       9630       9629  
      9498       9499       9510       9509       9619       9620       9631       9630  
      9499       9500       9511       9510       9620       9621       9632       9631  
      9500       9501       9512       9511       9621       9622       9633       9632  
      9501       9502       9513       9512       9622       9623       9634       9633  
      9502       9503       9514       9513       9623       9624       9635       9634  
      9503       9504       9515       9514       9624       9625       9636       9635  
      9505       9506       9517       9516       9626       9627       9638       9637  
      9506       9507       9518       9517       9627       9628       9639       9638  
      9507       9508       9519       9518       9628       9629       9640       9639  
      9508       9509       9520       9519       9629       9630       9641       9640  
      9509       9510       9521       9520       9630       9631       9642       9641  
      9510       9511       9522       9521       9631       9632       9643       9642  
      9511       9512       9523       9522       9632       9633       9644       9643  
      9512       9513       9524       9523       9633       9634       9645       9644  
      9513       9514       9525       9524       9634       9635       9646       9645  
      9514       9515       9526       9525       9635       9636       9647       9646  
      9516       9517       9528       9527       9637       9638       9649       9648  
      9517       9518       9529       9528       9638       9639       9650       9649  
      9518       9519       9530       9529       9639       9640       9651       9650  
      9519       9520       9531       9530       9640       9641       9652       9651  
      9520       9521       9532       9531       9641       9642       9653       9652  
      9521       9522       9533       9532       9642       9643       9654       9653  
      9522       9523       9534       9533       9643       9644       9655       9654  
      9523       9524       9535       9534       9644       9645       9656       9655  
      9524       9525       9536       9535       9645       9646       9657       9656  
      9525       9526       9537       9536       9646       9647       9658       9657  
      9527       9528       9539       9538       9648       9649       9660       9659  
      9528       9529       9540       9539       9649       9650       9661       9660  
      9529       9530       9541       9540       9650       9651       9662       9661  
      9530       9531       9542       9541       9651       9652       9663       9662  
      9531       9532       9543       9542       9652       9653       9664       9663  
      9532       9533       9544       9543       9653       9654       9665       9664  
      9533       9534       9545       9544       9654       9655       9666       9665  
      9534       9535       9546       9545       9655       9656       9667       9666  
      9535       9536       9547       9546       9656       9657       9668       9667  
      9536       9537       9548       9547       9657       9658       9669       9668  
      9538       9539       9550       9549       9659       9660       9671       9670  
      9539       9540       9551       9550       9660       9661       9672       9671  
      9540       9541       9552       9551       9661       9662       9673       9672  
      9541       9542       9553       9552       9662       9663       9674       9673  
      9542       9543       9554       9553       9663       9664       9675       9674  
      9543       9544       9555       9554       9664       9665       9676       9675  
      9544       9545       9556       9555       9665       9666       9677       9676  
      9545       9546       9557       9556       9666       9667       9678       9677  
      9546       9547       9558       9557       9667       9668       9679       9678  
      9547       9548       9559       9558       9668       9669       9680       9679  
      9560       9561       9572       9571       9681       9682       9693       9692  
      9561       9562       9573       9572       9682       9683       9694       9693  
      9562       9563       9574       9573       9683       9684       9695       9694  
      9563       9564       9575       9574       9684       9685       9696       9695  
      9564       9565       9576       9575       9685       9686       9697       9696  
      9565       9566       9577       9576       9686       9687       9698       9697  
      9566       9567       9578       9577       9687       9688       9699       9698  
      9567       9568       9579       9578       9688       9689       9700       9699  
      9568       9569       9580       9579       9689       9690       9701       9700  
      9569       9570       9581       9580       9690       9691       9702       9701  
      9571       9572       9583       9582       9692       9693       9704       9703  
      9572       9573       9584       9583       9693       9694       9705       9704  
      9573       9574       9585       9584       9694       9695       9706       9705  
      9574       9575       9586       9585       9695       9696       9707       9706  
      9575       9576       9587       9586       9696       9697       9708       9707  
      9576       9577       9588       9587       9697       9698       9709       9708  
      9577       9578       9589       9588       9698       9699       9710       9709  
      9578       9579       9590       9589       9699       9700       9711       9710  
      9579       9580       9591       9590       9700       9701       9712       9711  
      9580       9581       9592       9591       9701       9702       9713       9712  
      9582       9583       9594       9593       9703       9704       9715       9714  
      9583       9584       9595       9594       9704       9705       9716       9715  
      9584       9585       9596       9595       9705       9706       9717       9716  
      9585       9586       9597       9596       9706       9707       9718       9717  
      9586       9587       9598       9597       9707       9708       9719       9718  
      9587       9588       9599       9598       9708       9709       9720       9719  
      9588       9589       9600       9599       9709       9710       9721       9720  
      9589       9590       9601       9600       9710       9711       9722       9721  
      9590       9591       9602       9601       9711       9712       9723       9722  
      9591       9592       9603       9602       9712       9713       9724       9723  
      9593       9594       9605       9604       9714       9715       9726       9725  
      9594       9595       9606       9605       9715       9716       9727       9726  
      9595       9596       9607       9606       9716       9717       9728       9727  
      9596       9597       9608       9607       9717       9718       9729       9728  
      9597       9598       9609       9608       9718       9719       9730       9729  
      9598       9599       9610       9609       9719       9720       9731       9730  
      9599       9600       9611       9610       9720       9721       9732       9731  
      9600       9601       9612       9611       9721       9722       9733       9732  
      9601       9602       9613       9612       9722       9723       9734       9733  
      9602       9603       9614       9613       9723       9724       9735       9734  
      9604       9605       9616       9615       9725       9726       9737       9736  
      9605       9606       9617       9616       9726       9727       9738       9737  
      9606       9607       9618       9617       9727       9728       9739       9738  
      9607       9608       9619       9618       9728       9729       9740       9739  
      9608       9609       9620       9619       9729       9730       9741       9740  
      9609       9610       9621       9620       9730       9731       9742       9741  
      9610       9611       9622       9621       9731       9732       9743       9742  
      9611       9612       9623       9622       9732       9733       9744       9743  
      9612       9613       9624       9623       9733       9734       9745       9744  
      9613       9614       9625       9624       9734       9735       9746       9745  
      9615       9616       9627       9626       9736       9737       9748       9747  
      9616       9617       9628       9627       9737       9738       9749       9748  
      9617       9618       9629       9628       9738       9739       9750       9749  
      9618       9619       9630       9629       9739       9740       9751       9750  
      9619       9620       9631       9630       9740       9741       9752       9751  
      9620       9621       9632       9631       9741       9742       9753       9752  
      9621       9622       9633       9632       9742       9743       9754       9753  
      9622       9623       9634       9633       9743       9744       9755       9754  
      9623       9624       9635       9634       9744       9745       9756       9755  
      9624       9625       9636       9635       9745       9746       9757       9756  
      9626       9627       9638       9637       9747       9748       9759       9758  
      9627       9628       9639       9638       9748       9749       9760       9759  
      9628       9629       9640       9639       9749       9750       9761       9760  
      9629       9630       9641       9640       9750       9751       9762       9761  
      9630       9631       9642       9641       9751       9752       9763       9762  
      9631       9632       9643       9642       9752       9753       9764       9763  
      9632       9633       9644       9643       9753       9754       9765       9764  
      9633       9634       9645       9644       9754       9755       9766       9765  
      9634       9635       9646       9645       9755       9756       9767       9766  
      9635       9636       9647       9646       9756       9757       9768       9767  
      9637       9638       9649       9648       9758       9759       9770       9769  
      9638       9639       9650       9649       9759       9760       9771       9770  
      9639       9640       9651       9650       9760       9761       9772       9771  
      9640       9641       9652       9651       9761       9762       9773       9772  
      9641       9642       9653       9652       9762       9763       9774       9773  
      9642       9643       9654       9653       9763       9764       9775       9774  
      9643       9644       9655       9654       9764       9765       9776       9775  
      9644       9645       9656       9655       9765       9766       9777       9776  
      9645       9646       9657       9656       9766       9767       9778       9777  
      9646       9647       9658       9657       9767       9768       9779       9778  
      9648       9649       9660       9659       9769       9770       9781       9780  
      9649       9650       9661       9660       9770       9771       9782       9781  
      9650       9651       9662       9661       9771       9772       9783       9782  
      9651       9652       9663       9662       9772       9773       9784       9783  
      9652       9653       9664       9663       9773       9774       9785       9784  
      9653       9654       9665       9664       9774       9775       9786       9785  
      9654       9655       9666       9665       9775       9776       9787       9786  
      9655       9656       9667       9666       9776       9777       9788       9787  
      9656       9657       9668       9667       9777       9778       9789       9788  
      9657       9658       9669       9668       9778       9779       9790       9789  
      9659       9660       9671       9670       9780       9781       9792       9791  
      9660       9661       9672       9671       9781       9782       9793       9792  
      9661       9662       9673       9672       9782       9783       9794       9793  
      9662       9663       9674       9673       9783       9784       9795       9794  
      9663       9664       9675       9674       9784       9785       9796       9795  
      9664       9665       9676       9675       9785       9786       9797       9796  
      9665       9666       9677       9676       9786       9787       9798       9797  
      9666       9667       9678       9677       9787       9788       9799       9798  
      9667       9668       9679       9678       9788       9789       9800       9799  
      9668       9669       9680       9679       9789       9790       9801       9800  
      9681       9682       9693       9692       9802       9803       9814       9813  
      9682       9683       9694       9693       9803       9804       9815       9814  
      9683       9684       9695       9694       9804       9805       9816       9815  
      9684       9685       9696       9695       9805       9806       9817       9816  
      9685       9686       9697       9696       9806       9807       9818       9817  
      9686       9687       9698       9697       9807       9808       9819       9818  
      9687       9688       9699       9698       9808       9809       9820       9819  
      9688       9689       9700       9699       9809       9810       9821       9820  
      9689       9690       9701       9700       9810       9811       9822       9821  
      9690       9691       9702       9701       9811       9812       9823       9822  
      9692       9693       9704       9703       9813       9814       9825       9824  
      9693       9694       9705       9704       9814       9815       9826       9825  
      9694       9695       9706       9705       9815       9816       9827       9826  
      9695       9696       9707       9706       9816       9817       9828       9827  
      9696       9697       9708       9707       9817       9818       9829       9828  
      9697       9698       9709       9708       9818       9819       9830       9829  
      9698       9699       9710       9709       9819       9820       9831       9830  
      9699       9700       9711       9710       9820       9821       9832       9831  
      9700       9701       9712       9711       9821       9822       9833       9832  
      9701       9702       9713       9712       9822       9823       9834       9833  
      9703       9704       9715       9714       9824       9825       9836       9835  
      9704       9705       9716       9715       9825       9826       9837       9836  
      9705       9706       9717       9716       9826       9827       9838       9837  
      9706       9707       9718       9717       9827       9828       9839       9838  
      9707       9708       9719       9718       9828       9829       9840       9839  
      9708       9709       9720       9719       9829       9830       9841       9840  
      9709       9710       9721       9720       9830       9831       9842       9841  
      9710       9711       9722       9721       9831       9832       9843       9842  
      9711       9712       9723       9722       9832       9833       9844       9843  
      9712       9713       9724       9723       9833       9834       9845       9844  
      9714       9715       9726       9725       9835       9836       9847       9846  
      9715       9716       9727       9726       9836       9837       9848       9847  
      9716       9717       9728       9727       9837       9838       9849       9848  
      9717       9718       9729       9728       9838       9839       9850       9849  
      9718       9719       9730       9729       9839       9840       9851       9850  
      9719       9720       9731       9730       9840       9841       9852       9851  
      9720       9721       9732       9731       9841       9842       9853       9852  
      9721       9722       9733       9732       9842       9843       9854       9853  
      9722       9723       9734       9733       9843       9844       9855       9854  
      9723       9724       9735       9734       9844       9845       9856       9855  
      9725       9726       9737       9736       9846       9847       9858       9857  
      9726       9727       9738       9737       9847       9848       9859       9858  
      9727       9728       9739       9738       9848       9849       9860       9859  
      9728       9729       9740       9739       9849       9850       9861       9860  
      9729       9730       9741       9740       9850       9851       9862       9861  
      9730       9731       9742       9741       9851       9852       9863       9862  
      9731       9732       9743       9742       9852       9853       9864       9863  
      9732       9733       9744       9743       9853       9854       9865       9864  
      9733       9734       9745       9744       9854       9855       9866       9865  
      9734       9735       9746       9745       9855       9856       9867       9866  
      9736       9737       9748       9747       9857       9858       9869       9868  
      9737       9738       9749       9748       9858       9859       9870       9869  
      9738       9739       9750       9749       9859       9860       9871       9870  
      9739       9740       9751       9750       9860       9861       9872       9871  
      9740       9741       9752       9751       9861       9862       9873       9872  
      9741       9742       9753       9752       9862       9863       9874       9873  
      9742       9743       9754       9753       9863       9864       9875       9874  
      9743       9744       9755       9754       9864       9865       9876       9875  
      9744       9745       9756       9755       9865       9866       9877       9876  
      9745       9746       9757       9756       9866       9867       9878       9877  
      9747       9748       9759       9758       9868       9869       9880       9879  
      9748       9749       9760       9759       9869       9870       9881       9880  
      9749       9750       9761       9760       9870       9871       9882       9881  
      9750       9751       9762       9761       9871       9872       9883       9882  
      9751       9752       9763       9762       9872       9873       9884       9883  
      9752       9753       9764       9763       9873       9874       9885       9884  
      9753       9754       9765       9764       9874       9875       9886       9885  
      9754       9755       9766       9765       9875       9876       9887       9886  
      9755       9756       9767       9766       9876       9877       9888       9887  
      9756       9757       9768       9767       9877       9878       9889       9888  
      9758       9759       9770       9769       9879       9880       9891       9890  
      9759       9760       9771       9770       9880       9881       9892       9891  
      9760       9761       9772       9771       9881       9882       9893       9892  
      9761       9762       9773       9772       9882       9883       9894       9893  
      9762       9763       9774       9773       9883       9884       9895       9894  
      9763       9764       9775       9774       9884       9885       9896       9895  
      9764       9765       9776       9775       9885       9886       9897       9896  
      9765       9766       9777       9776       9886       9887       9898       9897  
      9766       9767       9778       9777       9887       9888       9899       9898  
      9767       9768       9779       9778       9888       9889       9900       9899  
      9769       9770       9781       9780       9890       9891       9902       9901  
      9770       9771       9782       9781       9891       9892       9903       9902  
      9771       9772       9783       9782       9892       9893       9904       9903  
      9772       9773       9784       9783       9893       9894       9905       9904  
      9773       9774       9785       9784       9894       9895       9906       9905  
      9774       9775       9786       9785       9895       9896       9907       9906  
      9775       9776       9787       9786       9896       9897       9908       9907  
      9776       9777       9788       9787       9897       9898       9909       9908  
      9777       9778       9789       9788       9898       9899       9910       9909  
      9778       9779       9790       9789       9899       9900       9911       9910  
      9780       9781       9792       9791       9901       9902       9913       9912  
      9781       9782       9793       9792       9902       9903       9914       9913  
      9782       9783       9794       9793       9903       9904       9915       9914  
      9783       9784       9795       9794       9904       9905       9916       9915  
      9784       9785       9796       9795       9905       9906       9917       9916  
      9785       9786       9797       9796       9906       9907       9918       9917  
      9786       9787       9798       9797       9907       9908       9919       9918  
      9787       9788       9799       9798       9908       9909       9920       9919  
      9788       9789       9800       9799       9909       9910       9921       9920  
      9789       9790       9801       9800       9910       9911       9922       9921  
      9802       9803       9814       9813       9923       9924       9935       9934  
      9803       9804       9815       9814       9924       9925       9936       9935  
      9804       9805       9816       9815       9925       9926       9937       9936  
      9805       9806       9817       9816       9926       9927       9938       9937  
      9806       9807       9818       9817       9927       9928       9939       9938  
      9807       9808       9819       9818       9928       9929       9940       9939  
      9808       9809       9820       9819       9929       9930       9941       9940  
      9809       9810       9821       9820       9930       9931       9942       9941  
      9810       9811       9822       9821       9931       9932       9943       9942  
      9811       9812       9823       9822       9932       9933       9944       9943  
      9813       9814       9825       9824       9934       9935       9946       9945  
      9814       9815       9826       9825       9935       9936       9947       9946  
      9815       9816       9827       9826       9936       9937       9948       9947  
      9816       9817       9828       9827       9937       9938       9949       9948  
      9817       9818       9829       9828       9938       9939       9950       9949  
      9818       9819       9830       9829       9939       9940       9951       9950  
      9819       9820       9831       9830       9940       9941       9952       9951  
      9820       9821       9832       9831       9941       9942       9953       9952  
      9821       9822       9833       9832       9942       9943       9954       9953  
      9822       9823       9834       9833       9943       9944       9955       9954  
      9824       9825       9836       9835       9945       9946       9957       9956  
      9825       9826       9837       9836       9946       9947       9958       9957  
      9826       9827       9838       9837       9947       9948       9959       9958  
      9827       9828       9839       9838       9948       9949       9960       9959  
      9828       9829       9840       9839       9949       9950       9961       9960  
      9829       9830       9841       9840       9950       9951       9962       9961  
      9830       9831       9842       9841       9951       9952       9963       9962  
      9831       9832       9843       9842       9952       9953       9964       9963  
      9832       9833       9844       9843       9953       9954       9965       9964  
      9833       9834       9845       9844       9954       9955       9966       9965  
      9835       9836       9847       9846       9956       9957       9968       9967  
      9836       9837       9848       9847       9957       9958       9969       9968  
      9837       9838       9849       9848       9958       9959       9970       9969  
      9838       9839       9850       9849       9959       9960       9971       9970  
      9839       9840       9851       9850       9960       9961       9972       9971  
      9840       9841       9852       9851       9961       9962       9973       9972  
      9841       9842       9853       9852       9962       9963       9974       9973  
      9842       9843       9854       9853       9963       9964       9975       9974  
      9843       9844       9855       9854       9964       9965       9976       9975  
      9844       9845       9856       9855       9965       9966       9977       9976  
      9846       9847       9858       9857       9967       9968       9979       9978  
      9847       9848       9859       9858       9968       9969       9980       9979  
      9848       9849       9860       9859       9969       9970       9981       9980  
      9849       9850       9861       9860       9970       9971       9982       9981  
      9850       9851       9862       9861       9971       9972       9983       9982  
      9851       9852       9863       9862       9972       9973       9984       9983  
      9852       9853       9864       9863       9973       9974       9985       9984  
      9853       9854       9865       9864       9974       9975       9986       9985  
      9854       9855       9866       9865       9975       9976       9987       9986  
      9855       9856       9867       9866       9976       9977       9988       9987  
      9857       9858       9869       9868       9978       9979       9990       9989  
      9858       9859       9870       9869       9979       9980       9991       9990  
      9859       9860       9871       9870       9980       9981       9992       9991  
      9860       9861       9872       9871       9981       9982       9993       9992  
      9861       9862       9873       9872       9982       9983       9994       9993  
      9862       9863       9874       9873       9983       9984       9995       9994  
      9863       9864       9875       9874       9984       9985       9996       9995  
      9864       9865       9876       9875       9985       9986       9997       9996  
      9865       9866       9877       9876       9986       9987       9998       9997  
      9866       9867       9878       9877       9987       9988       9999       9998  
      9868       9869       9880       9879       9989       9990      10001      10000  
      9869       9870       9881       9880       9990       9991      10002      10001  
      9870       9871       9882       9881       9991       9992      10003      10002  
      9871       9872       9883       9882       9992       9993      10004      10003  
      9872       9873       9884       9883       9993       9994      10005      10004  
      9873       9874       9885       9884       9994       9995      10006      10005  
      9874       9875       9886       9885       9995       9996      10007      10006  
      9875       9876       9887       9886       9996       9997      10008      10007  
      9876       9877       9888       9887       9997       9998      10009      10008  
      9877       9878       9889       9888       9998       9999      10010      10009  
      9879       9880       9891       9890      10000      10001      10012      10011  
      9880       9881       9892       9891      10001      10002      10013      10012  
      9881       9882       9893       9892      10002      10003      10014      10013  
      9882       9883       9894       9893      10003      10004      10015      10014  
      9883       9884       9895       9894      10004      10005      10016      10015  
      9884       9885       9896       9895      10005      10006      10017      10016  
      9885       9886       9897       9896      10006      10007      10018      10017  
      9886       9887       9898       9897      10007      10008      10019      10018  
      9887       9888       9899       9898      10008      10009      10020      10019  
      9888       9889       9900       9899      10009      10010      10021      10020  
      9890       9891       9902       9901      10011      10012      10023      10022  
      9891       9892       9903       9902      10012      10013      10024      10023  
      9892       9893       9904       9903      10013      10014      10025      10024  
      9893       9894       9905       9904      10014      10015      10026      10025  
      9894       9895       9906       9905      10015      10016      10027      10026  
      9895       9896       9907       9906      10016      10017      10028      10027  
      9896       9897       9908       9907      10017      10018      10029      10028  
      9897       9898       9909       9908      10018      10019      10030      10029  
      9898       9899       9910       9909      10019      10020      10031      10030  
      9899       9900       9911       9910      10020      10021      10032      10031  
      9901       9902       9913       9912      10022      10023      10034      10033  
      9902       9903       9914       9913      10023      10024      10035      10034  
      9903       9904       9915       9914      10024      10025      10036      10035  
      9904       9905       9916       9915      10025      10026      10037      10036  
      9905       9906       9917       9916      10026      10027      10038      10037  
      9906       9907       9918       9917      10027      10028      10039      10038  
      9907       9908       9919       9918      10028      10029      10040      10039  
      9908       9909       9920       9919      10029      10030      10041      10040  
      9909       9910       9921       9920      10030      10031      10042      10041  
      9910       9911       9922       9921      10031      10032      10043      10042  
      9923       9924       9935       9934      10044      10045      10056      10055  
      9924       9925       9936       9935      10045      10046      10057      10056  
      9925       9926       9937       9936      10046      10047      10058      10057  
      9926       9927       9938       9937      10047      10048      10059      10058  
      9927       9928       9939       9938      10048      10049      10060      10059  
      9928       9929       9940       9939      10049      10050      10061      10060  
      9929       9930       9941       9940      10050      10051      10062      10061  
      9930       9931       9942       9941      10051      10052      10063      10062  
      9931       9932       9943       9942      10052      10053      10064      10063  
      9932       9933       9944       9943      10053      10054      10065      10064  
      9934       9935       9946       9945      10055      10056      10067      10066  
      9935       9936       9947       9946      10056      10057      10068      10067  
      9936       9937       9948       9947      10057      10058      10069      10068  
      9937       9938       9949       9948      10058      10059      10070      10069  
      9938       9939       9950       9949      10059      10060      10071      10070  
      9939       9940       9951       9950      10060      10061      10072      10071  
      9940       9941       9952       9951      10061      10062      10073      10072  
      9941       9942       9953       9952      10062      10063      10074      10073  
      9942       9943       9954       9953      10063      10064      10075      10074  
      9943       9944       9955       9954      10064      10065      10076      10075  
      9945       9946       9957       9956      10066      10067      10078      10077  
      9946       9947       9958       9957      10067      10068      10079      10078  
      9947       9948       9959       9958      10068      10069      10080      10079  
      9948       9949       9960       9959      10069      10070      10081      10080  
      9949       9950       9961       9960      10070      10071      10082      10081  
      9950       9951       9962       9961      10071      10072      10083      10082  
      9951       9952       9963       9962      10072      10073      10084      10083  
      9952       9953       9964       9963      10073      10074      10085      10084  
      9953       9954       9965       9964      10074      10075      10086      10085  
      9954       9955       9966       9965      10075      10076      10087      10086  
      9956       9957       9968       9967      10077      10078      10089      10088  
      9957       9958       9969       9968      10078      10079      10090      10089  
      9958       9959       9970       9969      10079      10080      10091      10090  
      9959       9960       9971       9970      10080      10081      10092      10091  
      9960       9961       9972       9971      10081      10082      10093      10092  
      9961       9962       9973       9972      10082      10083      10094      10093  
      9962       9963       9974       9973      10083      10084      10095      10094  
      9963       9964       9975       9974      10084      10085      10096      10095  
      9964       9965       9976       9975      10085      10086      10097      10096  
      9965       9966       9977       9976      10086      10087      10098      10097  
      9967       9968       9979       9978      10088      10089      10100      10099  
      9968       9969       9980       9979      10089      10090      10101      10100  
      9969       9970       9981       9980      10090      10091      10102      10101  
      9970       9971       9982       9981      10091      10092      10103      10102  
      9971       9972       9983       9982      10092      10093      10104      10103  
      9972       9973       9984       9983      10093      10094      10105      10104  
      9973       9974       9985       9984      10094      10095      10106      10105  
      9974       9975       9986       9985      10095      10096      10107      10106  
      9975       9976       9987       9986      10096      10097      10108      10107  
      9976       9977       9988       9987      10097      10098      10109      10108  
      9978       9979       9990       9989      10099      10100      10111      10110  
      9979       9980       9991       9990      10100      10101      10112      10111  
      9980       9981       9992       9991      10101      10102      10113      10112  
      9981       9982       9993       9992      10102      10103      10114      10113  
      9982       9983       9994       9993      10103      10104      10115      10114  
      9983       9984       9995       9994      10104      10105      10116      10115  
      9984       9985       9996       9995      10105      10106      10117      10116  
      9985       9986       9997       9996      10106      10107      10118      10117  
      9986       9987       9998       9997      10107      10108      10119      10118  
      9987       9988       9999       9998      10108      10109      10120      10119  
      9989       9990      10001      10000      10110      10111      10122      10121  
      9990       9991      10002      10001      10111      10112      10123      10122  
      9991       9992      10003      10002      10112      10113      10124      10123  
      9992       9993      10004      10003      10113      10114      10125      10124  
      9993       9994      10005      10004      10114      10115      10126      10125  
      9994       9995      10006      10005      10115      10116      10127      10126  
      9995       9996      10007      10006      10116      10117      10128      10127  
      9996       9997      10008      10007      10117      10118      10129      10128  
      9997       9998      10009      10008      10118      10119      10130      10129  
      9998       9999      10010      10009      10119      10120      10131      10130  
     10000      10001      10012      10011      10121      10122      10133      10132  
     10001      10002      10013      10012      10122      10123      10134      10133  
     10002      10003      10014      10013      10123      10124      10135      10134  
     10003      10004      10015      10014      10124      10125      10136      10135  
     10004      10005      10016      10015      10125      10126      10137      10136  
     10005      10006      10017      10016      10126      10127      10138      10137  
     10006      10007      10018      10017      10127      10128      10139      10138  
     10007      10008      10019      10018      10128      10129      10140      10139  
     10008      10009      10020      10019      10129      10130      10141      10140  
     10009      10010      10021      10020      10130      10131      10142      10141  
     10011      10012      10023      10022      10132      10133      10144      10143  
     10012      10013      10024      10023      10133      10134      10145      10144  
     10013      10014      10025      10024      10134      10135      10146      10145  
     10014      10015      10026      10025      10135      10136      10147      10146  
     10015      10016      10027      10026      10136      10137      10148      10147  
     10016      10017      10028      10027      10137      10138      10149      10148  
     10017      10018      10029      10028      10138      10139      10150      10149  
     10018      10019      10030      10029      10139      10140      10151      10150  
     10019      10020      10031      10030      10140      10141      10152      10151  
     10020      10021      10032      10031      10141      10142      10153      10152  
     10022      10023      10034      10033      10143      10144      10155      10154  
     10023      10024      10035      10034      10144      10145      10156      10155  
     10024      10025      10036      10035      10145      10146      10157      10156  
     10025      10026      10037      10036      10146      10147      10158      10157  
     10026      10027      10038      10037      10147      10148      10159      10158  
     10027      10028      10039      10038      10148      10149      10160      10159  
     10028      10029      10040      10039      10149      10150      10161      10160  
     10029      10030      10041      10040      10150      10151      10162      10161  
     10030      10031      10042      10041      10151      10152      10163      10162  
     10031      10032      10043      10042      10152      10153      10164      10163  
     10044      10045      10056      10055      10165      10166      10177      10176  
     10045      10046      10057      10056      10166      10167      10178      10177  
     10046      10047      10058      10057      10167      10168      10179      10178  
     10047      10048      10059      10058      10168      10169      10180      10179  
     10048      10049      10060      10059      10169      10170      10181      10180  
     10049      10050      10061      10060      10170      10171      10182      10181  
     10050      10051      10062      10061      10171      10172      10183      10182  
     10051      10052      10063      10062      10172      10173      10184      10183  
     10052      10053      10064      10063      10173      10174      10185      10184  
     10053      10054      10065      10064      10174      10175      10186      10185  
     10055      10056      10067      10066      10176      10177      10188      10187  
     10056      10057      10068      10067      10177      10178      10189      10188  
     10057      10058      10069      10068      10178      10179      10190      10189  
     10058      10059      10070      10069      10179      10180      10191      10190  
     10059      10060      10071      10070      10180      10181      10192      10191  
     10060      10061      10072      10071      10181      10182      10193      10192  
     10061      10062      10073      10072      10182      10183      10194      10193  
     10062      10063      10074      10073      10183      10184      10195      10194  
     10063      10064      10075      10074      10184      10185      10196      10195  
     10064      10065      10076      10075      10185      10186      10197      10196  
     10066      10067      10078      10077      10187      10188      10199      10198  
     10067      10068      10079      10078      10188      10189      10200      10199  
     10068      10069      10080      10079      10189      10190      10201      10200  
     10069      10070      10081      10080      10190      10191      10202      10201  
     10070      10071      10082      10081      10191      10192      10203      10202  
     10071      10072      10083      10082      10192      10193      10204      10203  
     10072      10073      10084      10083      10193      10194      10205      10204  
     10073      10074      10085      10084      10194      10195      10206      10205  
     10074      10075      10086      10085      10195      10196      10207      10206  
     10075      10076      10087      10086      10196      10197      10208      10207  
     10077      10078      10089      10088      10198      10199      10210      10209  
     10078      10079      10090      10089      10199      10200      10211      10210  
     10079      10080      10091      10090      10200      10201      10212      10211  
     10080      10081      10092      10091      10201      10202      10213      10212  
     10081      10082      10093      10092      10202      10203      10214      10213  
     10082      10083      10094      10093      10203      10204      10215      10214  
     10083      10084      10095      10094      10204      10205      10216      10215  
     10084      10085      10096      10095      10205      10206      10217      10216  
     10085      10086      10097      10096      10206      10207      10218      10217  
     10086      10087      10098      10097      10207      10208      10219      10218  
     10088      10089      10100      10099      10209      10210      10221      10220  
     10089      10090      10101      10100      10210      10211      10222      10221  
     10090      10091      10102      10101      10211      10212      10223      10222  
     10091      10092      10103      10102      10212      10213      10224      10223  
     10092      10093      10104      10103      10213      10214      10225      10224  
     10093      10094      10105      10104      10214      10215      10226      10225  
     10094      10095      10106      10105      10215      10216      10227      10226  
     10095      10096      10107      10106      10216      10217      10228      10227  
     10096      10097      10108      10107      10217      10218      10229      10228  
     10097      10098      10109      10108      10218      10219      10230      10229  
     10099      10100      10111      10110      10220      10221      10232      10231  
     10100      10101      10112      10111      10221      10222      10233      10232  
     10101      10102      10113      10112      10222      10223      10234      10233  
     10102      10103      10114      10113      10223      10224      10235      10234  
     10103      10104      10115      10114      10224      10225      10236      10235  
     10104      10105      10116      10115      10225      10226      10237      10236  
     10105      10106      10117      10116      10226      10227      10238      10237  
     10106      10107      10118      10117      10227      10228      10239      10238  
     10107      10108      10119      10118      10228      10229      10240      10239  
     10108      10109      10120      10119      10229      10230      10241      10240  
     10110      10111      10122      10121      10231      10232      10243      10242  
     10111      10112      10123      10122      10232      10233      10244      10243  
     10112      10113      10124      10123      10233      10234      10245      10244  
     10113      10114      10125      10124      10234      10235      10246      10245  
     10114      10115      10126      10125      10235      10236      10247      10246  
     10115      10116      10127      10126      10236      10237      10248      10247  
     10116      10117      10128      10127      10237      10238      10249      10248  
     10117      10118      10129      10128      10238      10239      10250      10249  
     10118      10119      10130      10129      10239      10240      10251      10250  
     10119      10120      10131      10130      10240      10241      10252      10251  
     10121      10122      10133      10132      10242      10243      10254      10253  
     10122      10123      10134      10133      10243      10244      10255      10254  
     10123      10124      10135      10134      10244      10245      10256      10255  
     10124      10125      10136      10135      10245      10246      10257      10256  
     10125      10126      10137      10136      10246      10247      10258      10257  
     10126      10127      10138      10137      10247      10248      10259      10258  
     10127      10128      10139      10138      10248      10249      10260      10259  
     10128      10129      10140      10139      10249      10250      10261      10260  
     10129      10130      10141      10140      10250      10251      10262      10261  
     10130      10131      10142      10141      10251      10252      10263      10262  
     10132      10133      10144      10143      10253      10254      10265      10264  
     10133      10134      10145      10144      10254      10255      10266      10265  
     10134      10135      10146      10145      10255      10256      10267      10266  
     10135      10136      10147      10146      10256      10257      10268      10267  
     10136      10137      10148      10147      10257      10258      10269      10268  
     10137      10138      10149      10148      10258      10259      10270      10269  
     10138      10139      10150      10149      10259      10260      10271      10270  
     10139      10140      10151      10150      10260      10261      10272      10271  
     10140      10141      10152      10151      10261      10262      10273      10272  
     10141      10142      10153      10152      10262      10263      10274      10273  
     10143      10144      10155      10154      10264      10265      10276      10275  
     10144      10145      10156      10155      10265      10266      10277      10276  
     10145      10146      10157      10156      10266      10267      10278      10277  
     10146      10147      10158      10157      10267      10268      10279      10278  
     10147      10148      10159      10158      10268      10269      10280      10279  
     10148      10149      10160      10159      10269      10270      10281      10280  
     10149      10150      10161      10160      10270      10271      10282      10281  
     10150      10151      10162      10161      10271      10272      10283      10282  
     10151      10152      10163      10162      10272      10273      10284      10283  
     10152      10153      10164      10163      10273      10274      10285      10284  
     10165      10166      10177      10176      10286      10287      10298      10297  
     10166      10167      10178      10177      10287      10288      10299      10298  
     10167      10168      10179      10178      10288      10289      10300      10299  
     10168      10169      10180      10179      10289      10290      10301      10300  
     10169      10170      10181      10180      10290      10291      10302      10301  
     10170      10171      10182      10181      10291      10292      10303      10302  
     10171      10172      10183      10182      10292      10293      10304      10303  
     10172      10173      10184      10183      10293      10294      10305      10304  
     10173      10174      10185      10184      10294      10295      10306      10305  
     10174      10175      10186      10185      10295      10296      10307      10306  
     10176      10177      10188      10187      10297      10298      10309      10308  
     10177      10178      10189      10188      10298      10299      10310      10309  
     10178      10179      10190      10189      10299      10300      10311      10310  
     10179      10180      10191      10190      10300      10301      10312      10311  
     10180      10181      10192      10191      10301      10302      10313      10312  
     10181      10182      10193      10192      10302      10303      10314      10313  
     10182      10183      10194      10193      10303      10304      10315      10314  
     10183      10184      10195      10194      10304      10305      10316      10315  
     10184      10185      10196      10195      10305      10306      10317      10316  
     10185      10186      10197      10196      10306      10307      10318      10317  
     10187      10188      10199      10198      10308      10309      10320      10319  
     10188      10189      10200      10199      10309      10310      10321      10320  
     10189      10190      10201      10200      10310      10311      10322      10321  
     10190      10191      10202      10201      10311      10312      10323      10322  
     10191      10192      10203      10202      10312      10313      10324      10323  
     10192      10193      10204      10203      10313      10314      10325      10324  
     10193      10194      10205      10204      10314      10315      10326      10325  
     10194      10195      10206      10205      10315      10316      10327      10326  
     10195      10196      10207      10206      10316      10317      10328      10327  
     10196      10197      10208      10207      10317      10318      10329      10328  
     10198      10199      10210      10209      10319      10320      10331      10330  
     10199      10200      10211      10210      10320      10321      10332      10331  
     10200      10201      10212      10211      10321      10322      10333      10332  
     10201      10202      10213      10212      10322      10323      10334      10333  
     10202      10203      10214      10213      10323      10324      10335      10334  
     10203      10204      10215      10214      10324      10325      10336      10335  
     10204      10205      10216      10215      10325      10326      10337      10336  
     10205      10206      10217      10216      10326      10327      10338      10337  
     10206      10207      10218      10217      10327      10328      10339      10338  
     10207      10208      10219      10218      10328      10329      10340      10339  
     10209      10210      10221      10220      10330      10331      10342      10341  
     10210      10211      10222      10221      10331      10332      10343      10342  
     10211      10212      10223      10222      10332      10333      10344      10343  
     10212      10213      10224      10223      10333      10334      10345      10344  
     10213      10214      10225      10224      10334      10335      10346      10345  
     10214      10215      10226      10225      10335      10336      10347      10346  
     10215      10216      10227      10226      10336      10337      10348      10347  
     10216      10217      10228      10227      10337      10338      10349      10348  
     10217      10218      10229      10228      10338      10339      10350      10349  
     10218      10219      10230      10229      10339      10340      10351      10350  
     10220      10221      10232      10231      10341      10342      10353      10352  
     10221      10222      10233      10232      10342      10343      10354      10353  
     10222      10223      10234      10233      10343      10344      10355      10354  
     10223      10224      10235      10234      10344      10345      10356      10355  
     10224      10225      10236      10235      10345      10346      10357      10356  
     10225      10226      10237      10236      10346      10347      10358      10357  
     10226      10227      10238      10237      10347      10348      10359      10358  
     10227      10228      10239      10238      10348      10349      10360      10359  
     10228      10229      10240      10239      10349      10350      10361      10360  
     10229      10230      10241      10240      10350      10351      10362      10361  
     10231      10232      10243      10242      10352      10353      10364      10363  
     10232      10233      10244      10243      10353      10354      10365      10364  
     10233      10234      10245      10244      10354      10355      10366      10365  
     10234      10235      10246      10245      10355      10356      10367      10366  
     10235      10236      10247      10246      10356      10357      10368      10367  
     10236      10237      10248      10247      10357      10358      10369      10368  
     10237      10238      10249      10248      10358      10359      10370      10369  
     10238      10239      10250      10249      10359      10360      10371      10370  
     10239      10240      10251      10250      10360      10361      10372      10371  
     10240      10241      10252      10251      10361      10362      10373      10372  
     10242      10243      10254      10253      10363      10364      10375      10374  
     10243      10244      10255      10254      10364      10365      10376      10375  
     10244      10245      10256      10255      10365      10366      10377      10376  
     10245      10246      10257      10256      10366      10367      10378      10377  
     10246      10247      10258      10257      10367      10368      10379      10378  
     10247      10248      10259      10258      10368      10369      10380      10379  
     10248      10249      10260      10259      10369      10370      10381      10380  
     10249      10250      10261      10260      10370      10371      10382      10381  
     10250      10251      10262      10261      10371      10372      10383      10382  
     10251      10252      10263      10262      10372      10373      10384      10383  
     10253      10254      10265      10264      10374      10375      10386      10385  
     10254      10255      10266      10265      10375      10376      10387      10386  
     10255      10256      10267      10266      10376      10377      10388      10387  
     10256      10257      10268      10267      10377      10378      10389      10388  
     10257      10258      10269      10268      10378      10379      10390      10389  
     10258      10259      10270      10269      10379      10380      10391      10390  
     10259      10260      10271      10270      10380      10381      10392      10391  
     10260      10261      10272      10271      10381      10382      10393      10392  
     10261      10262      10273      10272      10382      10383      10394      10393  
     10262      10263      10274      10273      10383      10384      10395      10394  
     10264      10265      10276      10275      10385      10386      10397      10396  
     10265      10266      10277      10276      10386      10387      10398      10397  
     10266      10267      10278      10277      10387      10388      10399      10398  
     10267      10268      10279      10278      10388      10389      10400      10399  
     10268      10269      10280      10279      10389      10390      10401      10400  
     10269      10270      10281      10280      10390      10391      10402      10401  
     10270      10271      10282      10281      10391      10392      10403      10402  
     10271      10272      10283      10282      10392      10393      10404      10403  
     10272      10273      10284      10283      10393      10394      10405      10404  
     10273      10274      10285      10284      10394      10395      10406      10405  
     10286      10287      10298      10297      10407      10408      10419      10418  
     10287      10288      10299      10298      10408      10409      10420      10419  
     10288      10289      10300      10299      10409      10410      10421      10420  
     10289      10290      10301      10300      10410      10411      10422      10421  
     10290      10291      10302      10301      10411      10412      10423      10422  
     10291      10292      10303      10302      10412      10413      10424      10423  
     10292      10293      10304      10303      10413      10414      10425      10424  
     10293      10294      10305      10304      10414      10415      10426      10425  
     10294      10295      10306      10305      10415      10416      10427      10426  
     10295      10296      10307      10306      10416      10417      10428      10427  
     10297      10298      10309      10308      10418      10419      10430      10429  
     10298      10299      10310      10309      10419      10420      10431      10430  
     10299      10300      10311      10310      10420      10421      10432      10431  
     10300      10301      10312      10311      10421      10422      10433      10432  
     10301      10302      10313      10312      10422      10423      10434      10433  
     10302      10303      10314      10313      10423      10424      10435      10434  
     10303      10304      10315      10314      10424      10425      10436      10435  
     10304      10305      10316      10315      10425      10426      10437      10436  
     10305      10306      10317      10316      10426      10427      10438      10437  
     10306      10307      10318      10317      10427      10428      10439      10438  
     10308      10309      10320      10319      10429      10430      10441      10440  
     10309      10310      10321      10320      10430      10431      10442      10441  
     10310      10311      10322      10321      10431      10432      10443      10442  
     10311      10312      10323      10322      10432      10433      10444      10443  
     10312      10313      10324      10323      10433      10434      10445      10444  
     10313      10314      10325      10324      10434      10435      10446      10445  
     10314      10315      10326      10325      10435      10436      10447      10446  
     10315      10316      10327      10326      10436      10437      10448      10447  
     10316      10317      10328      10327      10437      10438      10449      10448  
     10317      10318      10329      10328      10438      10439      10450      10449  
     10319      10320      10331      10330      10440      10441      10452      10451  
     10320      10321      10332      10331      10441      10442      10453      10452  
     10321      10322      10333      10332      10442      10443      10454      10453  
     10322      10323      10334      10333      10443      10444      10455      10454  
     10323      10324      10335      10334      10444      10445      10456      10455  
     10324      10325      10336      10335      10445      10446      10457      10456  
     10325      10326      10337      10336      10446      10447      10458      10457  
     10326      10327      10338      10337      10447      10448      10459      10458  
     10327      10328      10339      10338      10448      10449      10460      10459  
     10328      10329      10340      10339      10449      10450      10461      10460  
     10330      10331      10342      10341      10451      10452      10463      10462  
     10331      10332      10343      10342      10452      10453      10464      10463  
     10332      10333      10344      10343      10453      10454      10465      10464  
     10333      10334      10345      10344      10454      10455      10466      10465  
     10334      10335      10346      10345      10455      10456      10467      10466  
     10335      10336      10347      10346      10456      10457      10468      10467  
     10336      10337      10348      10347      10457      10458      10469      10468  
     10337      10338      10349      10348      10458      10459      10470      10469  
     10338      10339      10350      10349      10459      10460      10471      10470  
     10339      10340      10351      10350      10460      10461      10472      10471  
     10341      10342      10353      10352      10462      10463      10474      10473  
     10342      10343      10354      10353      10463      10464      10475      10474  
     10343      10344      10355      10354      10464      10465      10476      10475  
     10344      10345      10356      10355      10465      10466      10477      10476  
     10345      10346      10357      10356      10466      10467      10478      10477  
     10346      10347      10358      10357      10467      10468      10479      10478  
     10347      10348      10359      10358      10468      10469      10480      10479  
     10348      10349      10360      10359      10469      10470      10481      10480  
     10349      10350      10361      10360      10470      10471      10482      10481  
     10350      10351      10362      10361      10471      10472      10483      10482  
     10352      10353      10364      10363      10473      10474      10485      10484  
     10353      10354      10365      10364      10474      10475      10486      10485  
     10354      10355      10366      10365      10475      10476      10487      10486  
     10355      10356      10367      10366      10476      10477      10488      10487  
     10356      10357      10368      10367      10477      10478      10489      10488  
     10357      10358      10369      10368      10478      10479      10490      10489  
     10358      10359      10370      10369      10479      10480      10491      10490  
     10359      10360      10371      10370      10480      10481      10492      10491  
     10360      10361      10372      10371      10481      10482      10493      10492  
     10361      10362      10373      10372      10482      10483      10494      10493  
     10363      10364      10375      10374      10484      10485      10496      10495  
     10364      10365      10376      10375      10485      10486      10497      10496  
     10365      10366      10377      10376      10486      10487      10498      10497  
     10366      10367      10378      10377      10487      10488      10499      10498  
     10367      10368      10379      10378      10488      10489      10500      10499  
     10368      10369      10380      10379      10489      10490      10501      10500  
     10369      10370      10381      10380      10490      10491      10502      10501  
     10370      10371      10382      10381      10491      10492      10503      10502  
     10371      10372      10383      10382      10492      10493      10504      10503  
     10372      10373      10384      10383      10493      10494      10505      10504  
     10374      10375      10386      10385      10495      10496      10507      10506  
     10375      10376      10387      10386      10496      10497      10508      10507  
     10376      10377      10388      10387      10497      10498      10509      10508  
     10377      10378      10389      10388      10498      10499      10510      10509  
     10378      10379      10390      10389      10499      10500      10511      10510  
     10379      10380      10391      10390      10500      10501      10512      10511  
     10380      10381      10392      10391      10501      10502      10513      10512  
     10381      10382      10393      10392      10502      10503      10514      10513  
     10382      10383      10394      10393      10503      10504      10515      10514  
     10383      10384      10395      10394      10504      10505      10516      10515  
     10385      10386      10397      10396      10506      10507      10518      10517  
     10386      10387      10398      10397      10507      10508      10519      10518  
     10387      10388      10399      10398      10508      10509      10520      10519  
     10388      10389      10400      10399      10509      10510      10521      10520  
     10389      10390      10401      10400      10510      10511      10522      10521  
     10390      10391      10402      10401      10511      10512      10523      10522  
     10391      10392      10403      10402      10512      10513      10524      10523  
     10392      10393      10404      10403      10513      10514      10525      10524  
     10393      10394      10405      10404      10514      10515      10526      10525  
     10394      10395      10406      10405      10515      10516      10527      10526  
     10407      10408      10419      10418      10528      10529      10540      10539  
     10408      10409      10420      10419      10529      10530      10541      10540  
     10409      10410      10421      10420      10530      10531      10542      10541  
     10410      10411      10422      10421      10531      10532      10543      10542  
     10411      10412      10423      10422      10532      10533      10544      10543  
     10412      10413      10424      10423      10533      10534      10545      10544  
     10413      10414      10425      10424      10534      10535      10546      10545  
     10414      10415      10426      10425      10535      10536      10547      10546  
     10415      10416      10427      10426      10536      10537      10548      10547  
     10416      10417      10428      10427      10537      10538      10549      10548  
     10418      10419      10430      10429      10539      10540      10551      10550  
     10419      10420      10431      10430      10540      10541      10552      10551  
     10420      10421      10432      10431      10541      10542      10553      10552  
     10421      10422      10433      10432      10542      10543      10554      10553  
     10422      10423      10434      10433      10543      10544      10555      10554  
     10423      10424      10435      10434      10544      10545      10556      10555  
     10424      10425      10436      10435      10545      10546      10557      10556  
     10425      10426      10437      10436      10546      10547      10558      10557  
     10426      10427      10438      10437      10547      10548      10559      10558  
     10427      10428      10439      10438      10548      10549      10560      10559  
     10429      10430      10441      10440      10550      10551      10562      10561  
     10430      10431      10442      10441      10551      10552      10563      10562  
     10431      10432      10443      10442      10552      10553      10564      10563  
     10432      10433      10444      10443      10553      10554      10565      10564  
     10433      10434      10445      10444      10554      10555      10566      10565  
     10434      10435      10446      10445      10555      10556      10567      10566  
     10435      10436      10447      10446      10556      10557      10568      10567  
     10436      10437      10448      10447      10557      10558      10569      10568  
     10437      10438      10449      10448      10558      10559      10570      10569  
     10438      10439      10450      10449      10559      10560      10571      10570  
     10440      10441      10452      10451      10561      10562      10573      10572  
     10441      10442      10453      10452      10562      10563      10574      10573  
     10442      10443      10454      10453      10563      10564      10575      10574  
     10443      10444      10455      10454      10564      10565      10576      10575  
     10444      10445      10456      10455      10565      10566      10577      10576  
     10445      10446      10457      10456      10566      10567      10578      10577  
     10446      10447      10458      10457      10567      10568      10579      10578  
     10447      10448      10459      10458      10568      10569      10580      10579  
     10448      10449      10460      10459      10569      10570      10581      10580  
     10449      10450      10461      10460      10570      10571      10582      10581  
     10451      10452      10463      10462      10572      10573      10584      10583  
     10452      10453      10464      10463      10573      10574      10585      10584  
     10453      10454      10465      10464      10574      10575      10586      10585  
     10454      10455      10466      10465      10575      10576      10587      10586  
     10455      10456      10467      10466      10576      10577      10588      10587  
     10456      10457      10468      10467      10577      10578      10589      10588  
     10457      10458      10469      10468      10578      10579      10590      10589  
     10458      10459      10470      10469      10579      10580      10591      10590  
     10459      10460      10471      10470      10580      10581      10592      10591  
     10460      10461      10472      10471      10581      10582      10593      10592  
     10462      10463      10474      10473      10583      10584      10595      10594  
     10463      10464      10475      10474      10584      10585      10596      10595  
     10464      10465      10476      10475      10585      10586      10597      10596  
     10465      10466      10477      10476      10586      10587      10598      10597  
     10466      10467      10478      10477      10587      10588      10599      10598  
     10467      10468      10479      10478      10588      10589      10600      10599  
     10468      10469      10480      10479      10589      10590      10601      10600  
     10469      10470      10481      10480      10590      10591      10602      10601  
     10470      10471      10482      10481      10591      10592      10603      10602  
     10471      10472      10483      10482      10592      10593      10604      10603  
     10473      10474      10485      10484      10594      10595      10606      10605  
     10474      10475      10486      10485      10595      10596      10607      10606  
     10475      10476      10487      10486      10596      10597      10608      10607  
     10476      10477      10488      10487      10597      10598      10609      10608  
     10477      10478      10489      10488      10598      10599      10610      10609  
     10478      10479      10490      10489      10599      10600      10611      10610  
     10479      10480      10491      10490      10600      10601      10612      10611  
     10480      10481      10492      10491      10601      10602      10613      10612  
     10481      10482      10493      10492      10602      10603      10614      10613  
     10482      10483      10494      10493      10603      10604      10615      10614  
     10484      10485      10496      10495      10605      10606      10617      10616  
     10485      10486      10497      10496      10606      10607      10618      10617  
     10486      10487      10498      10497      10607      10608      10619      10618  
     10487      10488      10499      10498      10608      10609      10620      10619  
     10488      10489      10500      10499      10609      10610      10621      10620  
     10489      10490      10501      10500      10610      10611      10622      10621  
     10490      10491      10502      10501      10611      10612      10623      10622  
     10491      10492      10503      10502      10612      10613      10624      10623  
     10492      10493      10504      10503      10613      10614      10625      10624  
     10493      10494      10505      10504      10614      10615      10626      10625  
     10495      10496      10507      10506      10616      10617      10628      10627  
     10496      10497      10508      10507      10617      10618      10629      10628  
     10497      10498      10509      10508      10618      10619      10630      10629  
     10498      10499      10510      10509      10619      10620      10631      10630  
     10499      10500      10511      10510      10620      10621      10632      10631  
     10500      10501      10512      10511      10621      10622      10633      10632  
     10501      10502      10513      10512      10622      10623      10634      10633  
     10502      10503      10514      10513      10623      10624      10635      10634  
     10503      10504      10515      10514      10624      10625      10636      10635  
     10504      10505      10516      10515      10625      10626      10637      10636  
     10506      10507      10518      10517      10627      10628      10639      10638  
     10507      10508      10519      10518      10628      10629      10640      10639  
     10508      10509      10520      10519      10629      10630      10641      10640  
     10509      10510      10521      10520      10630      10631      10642      10641  
     10510      10511      10522      10521      10631      10632      10643      10642  
     10511      10512      10523      10522      10632      10633      10644      10643  
     10512      10513      10524      10523      10633      10634      10645      10644  
     10513      10514      10525      10524      10634      10635      10646      10645  
     10514      10515      10526      10525      10635      10636      10647      10646  
     10515      10516      10527      10526      10636      10637      10648      10647  
     10528      10529      10540      10539      10649      10650      10661      10660  
     10529      10530      10541      10540      10650      10651      10662      10661  
     10530      10531      10542      10541      10651      10652      10663      10662  
     10531      10532      10543      10542      10652      10653      10664      10663  
     10532      10533      10544      10543      10653      10654      10665      10664  
     10533      10534      10545      10544      10654      10655      10666      10665  
     10534      10535      10546      10545      10655      10656      10667      10666  
     10535      10536      10547      10546      10656      10657      10668      10667  
     10536      10537      10548      10547      10657      10658      10669      10668  
     10537      10538      10549      10548      10658      10659      10670      10669  
     10539      10540      10551      10550      10660      10661      10672      10671  
     10540      10541      10552      10551      10661      10662      10673      10672  
     10541      10542      10553      10552      10662      10663      10674      10673  
     10542      10543      10554      10553      10663      10664      10675      10674  
     10543      10544      10555      10554      10664      10665      10676      10675  
     10544      10545      10556      10555      10665      10666      10677      10676  
     10545      10546      10557      10556      10666      10667      10678      10677  
     10546      10547      10558      10557      10667      10668      10679      10678  
     10547      10548      10559      10558      10668      10669      10680      10679  
     10548      10549      10560      10559      10669      10670      10681      10680  
     10550      10551      10562      10561      10671      10672      10683      10682  
     10551      10552      10563      10562      10672      10673      10684      10683  
     10552      10553      10564      10563      10673      10674      10685      10684  
     10553      10554      10565      10564      10674      10675      10686      10685  
     10554      10555      10566      10565      10675      10676      10687      10686  
     10555      10556      10567      10566      10676      10677      10688      10687  
     10556      10557      10568      10567      10677      10678      10689      10688  
     10557      10558      10569      10568      10678      10679      10690      10689  
     10558      10559      10570      10569      10679      10680      10691      10690  
     10559      10560      10571      10570      10680      10681      10692      10691  
     10561      10562      10573      10572      10682      10683      10694      10693  
     10562      10563      10574      10573      10683      10684      10695      10694  
     10563      10564      10575      10574      10684      10685      10696      10695  
     10564      10565      10576      10575      10685      10686      10697      10696  
     10565      10566      10577      10576      10686      10687      10698      10697  
     10566      10567      10578      10577      10687      10688      10699      10698  
     10567      10568      10579      10578      10688      10689      10700      10699  
     10568      10569      10580      10579      10689      10690      10701      10700  
     10569      10570      10581      10580      10690      10691      10702      10701  
     10570      10571      10582      10581      10691      10692      10703      10702  
     10572      10573      10584      10583      10693      10694      10705      10704  
     10573      10574      10585      10584      10694      10695      10706      10705  
     10574      10575      10586      10585      10695      10696      10707      10706  
     10575      10576      10587      10586      10696      10697      10708      10707  
     10576      10577      10588      10587      10697      10698      10709      10708  
     10577      10578      10589      10588      10698      10699      10710      10709  
     10578      10579      10590      10589      10699      10700      10711      10710  
     10579      10580      10591      10590      10700      10701      10712      10711  
     10580      10581      10592      10591      10701      10702      10713      10712  
     10581      10582      10593      10592      10702      10703      10714      10713  
     10583      10584      10595      10594      10704      10705      10716      10715  
     10584      10585      10596      10595      10705      10706      10717      10716  
     10585      10586      10597      10596      10706      10707      10718      10717  
     10586      10587      10598      10597      10707      10708      10719      10718  
     10587      10588      10599      10598      10708      10709      10720      10719  
     10588      10589      10600      10599      10709      10710      10721      10720  
     10589      10590      10601      10600      10710      10711      10722      10721  
     10590      10591      10602      10601      10711      10712      10723      10722  
     10591      10592      10603      10602      10712      10713      10724      10723  
     10592      10593      10604      10603      10713      10714      10725      10724  
     10594      10595      10606      10605      10715      10716      10727      10726  
     10595      10596      10607      10606      10716      10717      10728      10727  
     10596      10597      10608      10607      10717      10718      10729      10728  
     10597      10598      10609      10608      10718      10719      10730      10729  
     10598      10599      10610      10609      10719      10720      10731      10730  
     10599      10600      10611      10610      10720      10721      10732      10731  
     10600      10601      10612      10611      10721      10722      10733      10732  
     10601      10602      10613      10612      10722      10723      10734      10733  
     10602      10603      10614      10613      10723      10724      10735      10734  
     10603      10604      10615      10614      10724      10725      10736      10735  
     10605      10606      10617      10616      10726      10727      10738      10737  
     10606      10607      10618      10617      10727      10728      10739      10738  
     10607      10608      10619      10618      10728      10729      10740      10739  
     10608      10609      10620      10619      10729      10730      10741      10740  
     10609      10610      10621      10620      10730      10731      10742      10741  
     10610      10611      10622      10621      10731      10732      10743      10742  
     10611      10612      10623      10622      10732      10733      10744      10743  
     10612      10613      10624      10623      10733      10734      10745      10744  
     10613      10614      10625      10624      10734      10735      10746      10745  
     10614      10615      10626      10625      10735      10736      10747      10746  
     10616      10617      10628      10627      10737      10738      10749      10748  
     10617      10618      10629      10628      10738      10739      10750      10749  
     10618      10619      10630      10629      10739      10740      10751      10750  
     10619      10620      10631      10630      10740      10741      10752      10751  
     10620      10621      10632      10631      10741      10742      10753      10752  
     10621      10622      10633      10632      10742      10743      10754      10753  
     10622      10623      10634      10633      10743      10744      10755      10754  
     10623      10624      10635      10634      10744      10745      10756      10755  
     10624      10625      10636      10635      10745      10746      10757      10756  
     10625      10626      10637      10636      10746      10747      10758      10757  
     10627      10628      10639      10638      10748      10749      10760      10759  
     10628      10629      10640      10639      10749      10750      10761      10760  
     10629      10630      10641      10640      10750      10751      10762      10761  
     10630      10631      10642      10641      10751      10752      10763      10762  
     10631      10632      10643      10642      10752      10753      10764      10763  
     10632      10633      10644      10643      10753      10754      10765      10764  
     10633      10634      10645      10644      10754      10755      10766      10765  
     10634      10635      10646      10645      10755      10756      10767      10766  
     10635      10636      10647      10646      10756      10757      10768      10767  
     10636      10637      10648      10647      10757      10758      10769      10768  
     10649      10650      10661      10660      10770      10771      10782      10781  
     10650      10651      10662      10661      10771      10772      10783      10782  
     10651      10652      10663      10662      10772      10773      10784      10783  
     10652      10653      10664      10663      10773      10774      10785      10784  
     10653      10654      10665      10664      10774      10775      10786      10785  
     10654      10655      10666      10665      10775      10776      10787      10786  
     10655      10656      10667      10666      10776      10777      10788      10787  
     10656      10657      10668      10667      10777      10778      10789      10788  
     10657      10658      10669      10668      10778      10779      10790      10789  
     10658      10659      10670      10669      10779      10780      10791      10790  
     10660      10661      10672      10671      10781      10782      10793      10792  
     10661      10662      10673      10672      10782      10783      10794      10793  
     10662      10663      10674      10673      10783      10784      10795      10794  
     10663      10664      10675      10674      10784      10785      10796      10795  
     10664      10665      10676      10675      10785      10786      10797      10796  
     10665      10666      10677      10676      10786      10787      10798      10797  
     10666      10667      10678      10677      10787      10788      10799      10798  
     10667      10668      10679      10678      10788      10789      10800      10799  
     10668      10669      10680      10679      10789      10790      10801      10800  
     10669      10670      10681      10680      10790      10791      10802      10801  
     10671      10672      10683      10682      10792      10793      10804      10803  
     10672      10673      10684      10683      10793      10794      10805      10804  
     10673      10674      10685      10684      10794      10795      10806      10805  
     10674      10675      10686      10685      10795      10796      10807      10806  
     10675      10676      10687      10686      10796      10797      10808      10807  
     10676      10677      10688      10687      10797      10798      10809      10808  
     10677      10678      10689      10688      10798      10799      10810      10809  
     10678      10679      10690      10689      10799      10800      10811      10810  
     10679      10680      10691      10690      10800      10801      10812      10811  
     10680      10681      10692      10691      10801      10802      10813      10812  
     10682      10683      10694      10693      10803      10804      10815      10814  
     10683      10684      10695      10694      10804      10805      10816      10815  
     10684      10685      10696      10695      10805      10806      10817      10816  
     10685      10686      10697      10696      10806      10807      10818      10817  
     10686      10687      10698      10697      10807      10808      10819      10818  
     10687      10688      10699      10698      10808      10809      10820      10819  
     10688      10689      10700      10699      10809      10810      10821      10820  
     10689      10690      10701      10700      10810      10811      10822      10821  
     10690      10691      10702      10701      10811      10812      10823      10822  
     10691      10692      10703      10702      10812      10813      10824      10823  
     10693      10694      10705      10704      10814      10815      10826      10825  
     10694      10695      10706      10705      10815      10816      10827      10826  
     10695      10696      10707      10706      10816      10817      10828      10827  
     10696      10697      10708      10707      10817      10818      10829      10828  
     10697      10698      10709      10708      10818      10819      10830      10829  
     10698      10699      10710      10709      10819      10820      10831      10830  
     10699      10700      10711      10710      10820      10821      10832      10831  
     10700      10701      10712      10711      10821      10822      10833      10832  
     10701      10702      10713      10712      10822      10823      10834      10833  
     10702      10703      10714      10713      10823      10824      10835      10834  
     10704      10705      10716      10715      10825      10826      10837      10836  
     10705      10706      10717      10716      10826      10827      10838      10837  
     10706      10707      10718      10717      10827      10828      10839      10838  
     10707      10708      10719      10718      10828      10829      10840      10839  
     10708      10709      10720      10719      10829      10830      10841      10840  
     10709      10710      10721      10720      10830      10831      10842      10841  
     10710      10711      10722      10721      10831      10832      10843      10842  
     10711      10712      10723      10722      10832      10833      10844      10843  
     10712      10713      10724      10723      10833      10834      10845      10844  
     10713      10714      10725      10724      10834      10835      10846      10845  
     10715      10716      10727      10726      10836      10837      10848      10847  
     10716      10717      10728      10727      10837      10838      10849      10848  
     10717      10718      10729      10728      10838      10839      10850      10849  
     10718      10719      10730      10729      10839      10840      10851      10850  
     10719      10720      10731      10730      10840      10841      10852      10851  
     10720      10721      10732      10731      10841      10842      10853      10852  
     10721      10722      10733      10732      10842      10843      10854      10853  
     10722      10723      10734      10733      10843      10844      10855      10854  
     10723      10724      10735      10734      10844      10845      10856      10855  
     10724      10725      10736      10735      10845      10846      10857      10856  
     10726      10727      10738      10737      10847      10848      10859      10858  
     10727      10728      10739      10738      10848      10849      10860      10859  
     10728      10729      10740      10739      10849      10850      10861      10860  
     10729      10730      10741      10740      10850      10851      10862      10861  
     10730      10731      10742      10741      10851      10852      10863      10862  
     10731      10732      10743      10742      10852      10853      10864      10863  
     10732      10733      10744      10743      10853      10854      10865      10864  
     10733      10734      10745      10744      10854      10855      10866      10865  
     10734      10735      10746      10745      10855      10856      10867      10866  
     10735      10736      10747      10746      10856      10857      10868      10867  
     10737      10738      10749      10748      10858      10859      10870      10869  
     10738      10739      10750      10749      10859      10860      10871      10870  
     10739      10740      10751      10750      10860      10861      10872      10871  
     10740      10741      10752      10751      10861      10862      10873      10872  
     10741      10742      10753      10752      10862      10863      10874      10873  
     10742      10743      10754      10753      10863      10864      10875      10874  
     10743      10744      10755      10754      10864      10865      10876      10875  
     10744      10745      10756      10755      10865      10866      10877      10876  
     10745      10746      10757      10756      10866      10867      10878      10877  
     10746      10747      10758      10757      10867      10868      10879      10878  
     10748      10749      10760      10759      10869      10870      10881      10880  
     10749      10750      10761      10760      10870      10871      10882      10881  
     10750      10751      10762      10761      10871      10872      10883      10882  
     10751      10752      10763      10762      10872      10873      10884      10883  
     10752      10753      10764      10763      10873      10874      10885      10884  
     10753      10754      10765      10764      10874      10875      10886      10885  
     10754      10755      10766      10765      10875      10876      10887      10886  
     10755      10756      10767      10766      10876      10877      10888      10887  
     10756      10757      10768      10767      10877      10878      10889      10888  
     10757      10758      10769      10768      10878      10879      10890      10889  
     10770      10771      10782      10781      10891      10892      10903      10902  
     10771      10772      10783      10782      10892      10893      10904      10903  
     10772      10773      10784      10783      10893      10894      10905      10904  
     10773      10774      10785      10784      10894      10895      10906      10905  
     10774      10775      10786      10785      10895      10896      10907      10906  
     10775      10776      10787      10786      10896      10897      10908      10907  
     10776      10777      10788      10787      10897      10898      10909      10908  
     10777      10778      10789      10788      10898      10899      10910      10909  
     10778      10779      10790      10789      10899      10900      10911      10910  
     10779      10780      10791      10790      10900      10901      10912      10911  
     10781      10782      10793      10792      10902      10903      10914      10913  
     10782      10783      10794      10793      10903      10904      10915      10914  
     10783      10784      10795      10794      10904      10905      10916      10915  
     10784      10785      10796      10795      10905      10906      10917      10916  
     10785      10786      10797      10796      10906      10907      10918      10917  
     10786      10787      10798      10797      10907      10908      10919      10918  
     10787      10788      10799      10798      10908      10909      10920      10919  
     10788      10789      10800      10799      10909      10910      10921      10920  
     10789      10790      10801      10800      10910      10911      10922      10921  
     10790      10791      10802      10801      10911      10912      10923      10922  
     10792      10793      10804      10803      10913      10914      10925      10924  
     10793      10794      10805      10804      10914      10915      10926      10925  
     10794      10795      10806      10805      10915      10916      10927      10926  
     10795      10796      10807      10806      10916      10917      10928      10927  
     10796      10797      10808      10807      10917      10918      10929      10928  
     10797      10798      10809      10808      10918      10919      10930      10929  
     10798      10799      10810      10809      10919      10920      10931      10930  
     10799      10800      10811      10810      10920      10921      10932      10931  
     10800      10801      10812      10811      10921      10922      10933      10932  
     10801      10802      10813      10812      10922      10923      10934      10933  
     10803      10804      10815      10814      10924      10925      10936      10935  
     10804      10805      10816      10815      10925      10926      10937      10936  
     10805      10806      10817      10816      10926      10927      10938      10937  
     10806      10807      10818      10817      10927      10928      10939      10938  
     10807      10808      10819      10818      10928      10929      10940      10939  
     10808      10809      10820      10819      10929      10930      10941      10940  
     10809      10810      10821      10820      10930      10931      10942      10941  
     10810      10811      10822      10821      10931      10932      10943      10942  
     10811      10812      10823      10822      10932      10933      10944      10943  
     10812      10813      10824      10823      10933      10934      10945      10944  
     10814      10815      10826      10825      10935      10936      10947      10946  
     10815      10816      10827      10826      10936      10937      10948      10947  
     10816      10817      10828      10827      10937      10938      10949      10948  
     10817      10818      10829      10828      10938      10939      10950      10949  
     10818      10819      10830      10829      10939      10940      10951      10950  
     10819      10820      10831      10830      10940      10941      10952      10951  
     10820      10821      10832      10831      10941      10942      10953      10952  
     10821      10822      10833      10832      10942      10943      10954      10953  
     10822      10823      10834      10833      10943      10944      10955      10954  
     10823      10824      10835      10834      10944      10945      10956      10955  
     10825      10826      10837      10836      10946      10947      10958      10957  
     10826      10827      10838      10837      10947      10948      10959      10958  
     10827      10828      10839      10838      10948      10949      10960      10959  
     10828      10829      10840      10839      10949      10950      10961      10960  
     10829      10830      10841      10840      10950      10951      10962      10961  
     10830      10831      10842      10841      10951      10952      10963      10962  
     10831      10832      10843      10842      10952      10953      10964      10963  
     10832      10833      10844      10843      10953      10954      10965      10964  
     10833      10834      10845      10844      10954      10955      10966      10965  
     10834      10835      10846      10845      10955      10956      10967      10966  
     10836      10837      10848      10847      10957      10958      10969      10968  
     10837      10838      10849      10848      10958      10959      10970      10969  
     10838      10839      10850      10849      10959      10960      10971      10970  
     10839      10840      10851      10850      10960      10961      10972      10971  
     10840      10841      10852      10851      10961      10962      10973      10972  
     10841      10842      10853      10852      10962      10963      10974      10973  
     10842      10843      10854      10853      10963      10964      10975      10974  
     10843      10844      10855      10854      10964      10965      10976      10975  
     10844      10845      10856      10855      10965      10966      10977      10976  
     10845      10846      10857      10856      10966      10967      10978      10977  
     10847      10848      10859      10858      10968      10969      10980      10979  
     10848      10849      10860      10859      10969      10970      10981      10980  
     10849      10850      10861      10860      10970      10971      10982      10981  
     10850      10851      10862      10861      10971      10972      10983      10982  
     10851      10852      10863      10862      10972      10973      10984      10983  
     10852      10853      10864      10863      10973      10974      10985      10984  
     10853      10854      10865      10864      10974      10975      10986      10985  
     10854      10855      10866      10865      10975      10976      10987      10986  
     10855      10856      10867      10866      10976      10977      10988      10987  
     10856      10857      10868      10867      10977      10978      10989      10988  
     10858      10859      10870      10869      10979      10980      10991      10990  
     10859      10860      10871      10870      10980      10981      10992      10991  
     10860      10861      10872      10871      10981      10982      10993      10992  
     10861      10862      10873      10872      10982      10983      10994      10993  
     10862      10863      10874      10873      10983      10984      10995      10994  
     10863      10864      10875      10874      10984      10985      10996      10995  
     10864      10865      10876      10875      10985      10986      10997      10996  
     10865      10866      10877      10876      10986      10987      10998      10997  
     10866      10867      10878      10877      10987      10988      10999      10998  
     10867      10868      10879      10878      10988      10989      11000      10999  
     10869      10870      10881      10880      10990      10991      11002      11001  
     10870      10871      10882      10881      10991      10992      11003      11002  
     10871      10872      10883      10882      10992      10993      11004      11003  
     10872      10873      10884      10883      10993      10994      11005      11004  
     10873      10874      10885      10884      10994      10995      11006      11005  
     10874      10875      10886      10885      10995      10996      11007      11006  
     10875      10876      10887      10886      10996      10997      11008      11007  
     10876      10877      10888      10887      10997      10998      11009      11008  
     10877      10878      10889      10888      10998      10999      11010      11009  
     10878      10879      10890      10889      10999      11000      11011      11010  
     10891      10892      10903      10902      11012      11013      11024      11023  
     10892      10893      10904      10903      11013      11014      11025      11024  
     10893      10894      10905      10904      11014      11015      11026      11025  
     10894      10895      10906      10905      11015      11016      11027      11026  
     10895      10896      10907      10906      11016      11017      11028      11027  
     10896      10897      10908      10907      11017      11018      11029      11028  
     10897      10898      10909      10908      11018      11019      11030      11029  
     10898      10899      10910      10909      11019      11020      11031      11030  
     10899      10900      10911      10910      11020      11021      11032      11031  
     10900      10901      10912      10911      11021      11022      11033      11032  
     10902      10903      10914      10913      11023      11024      11035      11034  
     10903      10904      10915      10914      11024      11025      11036      11035  
     10904      10905      10916      10915      11025      11026      11037      11036  
     10905      10906      10917      10916      11026      11027      11038      11037  
     10906      10907      10918      10917      11027      11028      11039      11038  
     10907      10908      10919      10918      11028      11029      11040      11039  
     10908      10909      10920      10919      11029      11030      11041      11040  
     10909      10910      10921      10920      11030      11031      11042      11041  
     10910      10911      10922      10921      11031      11032      11043      11042  
     10911      10912      10923      10922      11032      11033      11044      11043  
     10913      10914      10925      10924      11034      11035      11046      11045  
     10914      10915      10926      10925      11035      11036      11047      11046  
     10915      10916      10927      10926      11036      11037      11048      11047  
     10916      10917      10928      10927      11037      11038      11049      11048  
     10917      10918      10929      10928      11038      11039      11050      11049  
     10918      10919      10930      10929      11039      11040      11051      11050  
     10919      10920      10931      10930      11040      11041      11052      11051  
     10920      10921      10932      10931      11041      11042      11053      11052  
     10921      10922      10933      10932      11042      11043      11054      11053  
     10922      10923      10934      10933      11043      11044      11055      11054  
     10924      10925      10936      10935      11045      11046      11057      11056  
     10925      10926      10937      10936      11046      11047      11058      11057  
     10926      10927      10938      10937      11047      11048      11059      11058  
     10927      10928      10939      10938      11048      11049      11060      11059  
     10928      10929      10940      10939      11049      11050      11061      11060  
     10929      10930      10941      10940      11050      11051      11062      11061  
     10930      10931      10942      10941      11051      11052      11063      11062  
     10931      10932      10943      10942      11052      11053      11064      11063  
     10932      10933      10944      10943      11053      11054      11065      11064  
     10933      10934      10945      10944      11054      11055      11066      11065  
     10935      10936      10947      10946      11056      11057      11068      11067  
     10936      10937      10948      10947      11057      11058      11069      11068  
     10937      10938      10949      10948      11058      11059      11070      11069  
     10938      10939      10950      10949      11059      11060      11071      11070  
     10939      10940      10951      10950      11060      11061      11072      11071  
     10940      10941      10952      10951      11061      11062      11073      11072  
     10941      10942      10953      10952      11062      11063      11074      11073  
     10942      10943      10954      10953      11063      11064      11075      11074  
     10943      10944      10955      10954      11064      11065      11076      11075  
     10944      10945      10956      10955      11065      11066      11077      11076  
     10946      10947      10958      10957      11067      11068      11079      11078  
     10947      10948      10959      10958      11068      11069      11080      11079  
     10948      10949      10960      10959      11069      11070      11081      11080  
     10949      10950      10961      10960      11070      11071      11082      11081  
     10950      10951      10962      10961      11071      11072      11083      11082  
     10951      10952      10963      10962      11072      11073      11084      11083  
     10952      10953      10964      10963      11073      11074      11085      11084  
     10953      10954      10965      10964      11074      11075      11086      11085  
     10954      10955      10966      10965      11075      11076      11087      11086  
     10955      10956      10967      10966      11076      11077      11088      11087  
     10957      10958      10969      10968      11078      11079      11090      11089  
     10958      10959      10970      10969      11079      11080      11091      11090  
     10959      10960      10971      10970      11080      11081      11092      11091  
     10960      10961      10972      10971      11081      11082      11093      11092  
     10961      10962      10973      10972      11082      11083      11094      11093  
     10962      10963      10974      10973      11083      11084      11095      11094  
     10963      10964      10975      10974      11084      11085      11096      11095  
     10964      10965      10976      10975      11085      11086      11097      11096  
     10965      10966      10977      10976      11086      11087      11098      11097  
     10966      10967      10978      10977      11087      11088      11099      11098  
     10968      10969      10980      10979      11089      11090      11101      11100  
     10969      10970      10981      10980      11090      11091      11102      11101  
     10970      10971      10982      10981      11091      11092      11103      11102  
     10971      10972      10983      10982      11092      11093      11104      11103  
     10972      10973      10984      10983      11093      11094      11105      11104  
     10973      10974      10985      10984      11094      11095      11106      11105  
     10974      10975      10986      10985      11095      11096      11107      11106  
     10975      10976      10987      10986      11096      11097      11108      11107  
     10976      10977      10988      10987      11097      11098      11109      11108  
     10977      10978      10989      10988      11098      11099      11110      11109  
     10979      10980      10991      10990      11100      11101      11112      11111  
     10980      10981      10992      10991      11101      11102      11113      11112  
     10981      10982      10993      10992      11102      11103      11114      11113  
     10982      10983      10994      10993      11103      11104      11115      11114  
     10983      10984      10995      10994      11104      11105      11116      11115  
     10984      10985      10996      10995      11105      11106      11117      11116  
     10985      10986      10997      10996      11106      11107      11118      11117  
     10986      10987      10998      10997      11107      11108      11119      11118  
     10987      10988      10999      10998      11108      11109      11120      11119  
     10988      10989      11000      10999      11109      11110      11121      11120  
     10990      10991      11002      11001      11111      11112      11123      11122  
     10991      10992      11003      11002      11112      11113      11124      11123  
     10992      10993      11004      11003      11113      11114      11125      11124  
     10993      10994      11005      11004      11114      11115      11126      11125  
     10994      10995      11006      11005      11115      11116      11127      11126  
     10995      10996      11007      11006      11116      11117      11128      11127  
     10996      10997      11008      11007      11117      11118      11129      11128  
     10997      10998      11009      11008      11118      11119      11130      11129  
     10998      10999      11010      11009      11119      11120      11131      11130  
     10999      11000      11011      11010      11120      11121      11132      11131  
     11012      11013      11024      11023      11133      11134      11145      11144  
     11013      11014      11025      11024      11134      11135      11146      11145  
     11014      11015      11026      11025      11135      11136      11147      11146  
     11015      11016      11027      11026      11136      11137      11148      11147  
     11016      11017      11028      11027      11137      11138      11149      11148  
     11017      11018      11029      11028      11138      11139      11150      11149  
     11018      11019      11030      11029      11139      11140      11151      11150  
     11019      11020      11031      11030      11140      11141      11152      11151  
     11020      11021      11032      11031      11141      11142      11153      11152  
     11021      11022      11033      11032      11142      11143      11154      11153  
     11023      11024      11035      11034      11144      11145      11156      11155  
     11024      11025      11036      11035      11145      11146      11157      11156  
     11025      11026      11037      11036      11146      11147      11158      11157  
     11026      11027      11038      11037      11147      11148      11159      11158  
     11027      11028      11039      11038      11148      11149      11160      11159  
     11028      11029      11040      11039      11149      11150      11161      11160  
     11029      11030      11041      11040      11150      11151      11162      11161  
     11030      11031      11042      11041      11151      11152      11163      11162  
     11031      11032      11043      11042      11152      11153      11164      11163  
     11032      11033      11044      11043      11153      11154      11165      11164  
     11034      11035      11046      11045      11155      11156      11167      11166  
     11035      11036      11047      11046      11156      11157      11168      11167  
     11036      11037      11048      11047      11157      11158      11169      11168  
     11037      11038      11049      11048      11158      11159      11170      11169  
     11038      11039      11050      11049      11159      11160      11171      11170  
     11039      11040      11051      11050      11160      11161      11172      11171  
     11040      11041      11052      11051      11161      11162      11173      11172  
     11041      11042      11053      11052      11162      11163      11174      11173  
     11042      11043      11054      11053      11163      11164      11175      11174  
     11043      11044      11055      11054      11164      11165      11176      11175  
     11045      11046      11057      11056      11166      11167      11178      11177  
     11046      11047      11058      11057      11167      11168      11179      11178  
     11047      11048      11059      11058      11168      11169      11180      11179  
     11048      11049      11060      11059      11169      11170      11181      11180  
     11049      11050      11061      11060      11170      11171      11182      11181  
     11050      11051      11062      11061      11171      11172      11183      11182  
     11051      11052      11063      11062      11172      11173      11184      11183  
     11052      11053      11064      11063      11173      11174      11185      11184  
     11053      11054      11065      11064      11174      11175      11186      11185  
     11054      11055      11066      11065      11175      11176      11187      11186  
     11056      11057      11068      11067      11177      11178      11189      11188  
     11057      11058      11069      11068      11178      11179      11190      11189  
     11058      11059      11070      11069      11179      11180      11191      11190  
     11059      11060      11071      11070      11180      11181      11192      11191  
     11060      11061      11072      11071      11181      11182      11193      11192  
     11061      11062      11073      11072      11182      11183      11194      11193  
     11062      11063      11074      11073      11183      11184      11195      11194  
     11063      11064      11075      11074      11184      11185      11196      11195  
     11064      11065      11076      11075      11185      11186      11197      11196  
     11065      11066      11077      11076      11186      11187      11198      11197  
     11067      11068      11079      11078      11188      11189      11200      11199  
     11068      11069      11080      11079      11189      11190      11201      11200  
     11069      11070      11081      11080      11190      11191      11202      11201  
     11070      11071      11082      11081      11191      11192      11203      11202  
     11071      11072      11083      11082      11192      11193      11204      11203  
     11072      11073      11084      11083      11193      11194      11205      11204  
     11073      11074      11085      11084      11194      11195      11206      11205  
     11074      11075      11086      11085      11195      11196      11207      11206  
     11075      11076      11087      11086      11196      11197      11208      11207  
     11076      11077      11088      11087      11197      11198      11209      11208  
     11078      11079      11090      11089      11199      11200      11211      11210  
     11079      11080      11091      11090      11200      11201      11212      11211  
     11080      11081      11092      11091      11201      11202      11213      11212  
     11081      11082      11093      11092      11202      11203      11214      11213  
     11082      11083      11094      11093      11203      11204      11215      11214  
     11083      11084      11095      11094      11204      11205      11216      11215  
     11084      11085      11096      11095      11205      11206      11217      11216  
     11085      11086      11097      11096      11206      11207      11218      11217  
     11086      11087      11098      11097      11207      11208      11219      11218  
     11087      11088      11099      11098      11208      11209      11220      11219  
     11089      11090      11101      11100      11210      11211      11222      11221  
     11090      11091      11102      11101      11211      11212      11223      11222  
     11091      11092      11103      11102      11212      11213      11224      11223  
     11092      11093      11104      11103      11213      11214      11225      11224  
     11093      11094      11105      11104      11214      11215      11226      11225  
     11094      11095      11106      11105      11215      11216      11227      11226  
     11095      11096      11107      11106      11216      11217      11228      11227  
     11096      11097      11108      11107      11217      11218      11229      11228  
     11097      11098      11109      11108      11218      11219      11230      11229  
     11098      11099      11110      11109      11219      11220      11231      11230  
     11100      11101      11112      11111      11221      11222      11233      11232  
     11101      11102      11113      11112      11222      11223      11234      11233  
     11102      11103      11114      11113      11223      11224      11235      11234  
     11103      11104      11115      11114      11224      11225      11236      11235  
     11104      11105      11116      11115      11225      11226      11237      11236  
     11105      11106      11117      11116      11226      11227      11238      11237  
     11106      11107      11118      11117      11227      11228      11239      11238  
     11107      11108      11119      11118      11228      11229      11240      11239  
     11108      11109      11120      11119      11229      11230      11241      11240  
     11109      11110      11121      11120      11230      11231      11242      11241  
     11111      11112      11123      11122      11232      11233      11244      11243  
     11112      11113      11124      11123      11233      11234      11245      11244  
     11113      11114      11125      11124      11234      11235      11246      11245  
     11114      11115      11126      11125      11235      11236      11247      11246  
     11115      11116      11127      11126      11236      11237      11248      11247  
     11116      11117      11128      11127      11237      11238      11249      11248  
     11117      11118      11129      11128      11238      11239      11250      11249  
     11118      11119      11130      11129      11239      11240      11251      11250  
     11119      11120      11131      11130      11240      11241      11252      11251  
     11120      11121      11132      11131      11241      11242      11253      11252  
     11133      11134      11145      11144      11254      11255      11266      11265  
     11134      11135      11146      11145      11255      11256      11267      11266  
     11135      11136      11147      11146      11256      11257      11268      11267  
     11136      11137      11148      11147      11257      11258      11269      11268  
     11137      11138      11149      11148      11258      11259      11270      11269  
     11138      11139      11150      11149      11259      11260      11271      11270  
     11139      11140      11151      11150      11260      11261      11272      11271  
     11140      11141      11152      11151      11261      11262      11273      11272  
     11141      11142      11153      11152      11262      11263      11274      11273  
     11142      11143      11154      11153      11263      11264      11275      11274  
     11144      11145      11156      11155      11265      11266      11277      11276  
     11145      11146      11157      11156      11266      11267      11278      11277  
     11146      11147      11158      11157      11267      11268      11279      11278  
     11147      11148      11159      11158      11268      11269      11280      11279  
     11148      11149      11160      11159      11269      11270      11281      11280  
     11149      11150      11161      11160      11270      11271      11282      11281  
     11150      11151      11162      11161      11271      11272      11283      11282  
     11151      11152      11163      11162      11272      11273      11284      11283  
     11152      11153      11164      11163      11273      11274      11285      11284  
     11153      11154      11165      11164      11274      11275      11286      11285  
     11155      11156      11167      11166      11276      11277      11288      11287  
     11156      11157      11168      11167      11277      11278      11289      11288  
     11157      11158      11169      11168      11278      11279      11290      11289  
     11158      11159      11170      11169      11279      11280      11291      11290  
     11159      11160      11171      11170      11280      11281      11292      11291  
     11160      11161      11172      11171      11281      11282      11293      11292  
     11161      11162      11173      11172      11282      11283      11294      11293  
     11162      11163      11174      11173      11283      11284      11295      11294  
     11163      11164      11175      11174      11284      11285      11296      11295  
     11164      11165      11176      11175      11285      11286      11297      11296  
     11166      11167      11178      11177      11287      11288      11299      11298  
     11167      11168      11179      11178      11288      11289      11300      11299  
     11168      11169      11180      11179      11289      11290      11301      11300  
     11169      11170      11181      11180      11290      11291      11302      11301  
     11170      11171      11182      11181      11291      11292      11303      11302  
     11171      11172      11183      11182      11292      11293      11304      11303  
     11172      11173      11184      11183      11293      11294      11305      11304  
     11173      11174      11185      11184      11294      11295      11306      11305  
     11174      11175      11186      11185      11295      11296      11307      11306  
     11175      11176      11187      11186      11296      11297      11308      11307  
     11177      11178      11189      11188      11298      11299      11310      11309  
     11178      11179      11190      11189      11299      11300      11311      11310  
     11179      11180      11191      11190      11300      11301      11312      11311  
     11180      11181      11192      11191      11301      11302      11313      11312  
     11181      11182      11193      11192      11302      11303      11314      11313  
     11182      11183      11194      11193      11303      11304      11315      11314  
     11183      11184      11195      11194      11304      11305      11316      11315  
     11184      11185      11196      11195      11305      11306      11317      11316  
     11185      11186      11197      11196      11306      11307      11318      11317  
     11186      11187      11198      11197      11307      11308      11319      11318  
     11188      11189      11200      11199      11309      11310      11321      11320  
     11189      11190      11201      11200      11310      11311      11322      11321  
     11190      11191      11202      11201      11311      11312      11323      11322  
     11191      11192      11203      11202      11312      11313      11324      11323  
     11192      11193      11204      11203      11313      11314      11325      11324  
     11193      11194      11205      11204      11314      11315      11326      11325  
     11194      11195      11206      11205      11315      11316      11327      11326  
     11195      11196      11207      11206      11316      11317      11328      11327  
     11196      11197      11208      11207      11317      11318      11329      11328  
     11197      11198      11209      11208      11318      11319      11330      11329  
     11199      11200      11211      11210      11320      11321      11332      11331  
     11200      11201      11212      11211      11321      11322      11333      11332  
     11201      11202      11213      11212      11322      11323      11334      11333  
     11202      11203      11214      11213      11323      11324      11335      11334  
     11203      11204      11215      11214      11324      11325      11336      11335  
     11204      11205      11216      11215      11325      11326      11337      11336  
     11205      11206      11217      11216      11326      11327      11338      11337  
     11206      11207      11218      11217      11327      11328      11339      11338  
     11207      11208      11219      11218      11328      11329      11340      11339  
     11208      11209      11220      11219      11329      11330      11341      11340  
     11210      11211      11222      11221      11331      11332      11343      11342  
     11211      11212      11223      11222      11332      11333      11344      11343  
     11212      11213      11224      11223      11333      11334      11345      11344  
     11213      11214      11225      11224      11334      11335      11346      11345  
     11214      11215      11226      11225      11335      11336      11347      11346  
     11215      11216      11227      11226      11336      11337      11348      11347  
     11216      11217      11228      11227      11337      11338      11349      11348  
     11217      11218      11229      11228      11338      11339      11350      11349  
     11218      11219      11230      11229      11339      11340      11351      11350  
     11219      11220      11231      11230      11340      11341      11352      11351  
     11221      11222      11233      11232      11342      11343      11354      11353  
     11222      11223      11234      11233      11343      11344      11355      11354  
     11223      11224      11235      11234      11344      11345      11356      11355  
     11224      11225      11236      11235      11345      11346      11357      11356  
     11225      11226      11237      11236      11346      11347      11358      11357  
     11226      11227      11238      11237      11347      11348      11359      11358  
     11227      11228      11239      11238      11348      11349      11360      11359  
     11228      11229      11240      11239      11349      11350      11361      11360  
     11229      11230      11241      11240      11350      11351      11362      11361  
     11230      11231      11242      11241      11351      11352      11363      11362  
     11232      11233      11244      11243      11353      11354      11365      11364  
     11233      11234      11245      11244      11354      11355      11366      11365  
     11234      11235      11246      11245      11355      11356      11367      11366  
     11235      11236      11247      11246      11356      11357      11368      11367  
     11236      11237      11248      11247      11357      11358      11369      11368  
     11237      11238      11249      11248      11358      11359      11370      11369  
     11238      11239      11250      11249      11359      11360      11371      11370  
     11239      11240      11251      11250      11360      11361      11372      11371  
     11240      11241      11252      11251      11361      11362      11373      11372  
     11241      11242      11253      11252      11362      11363      11374      11373  
     11254      11255      11266      11265      11375      11376      11387      11386  
     11255      11256      11267      11266      11376      11377      11388      11387  
     11256      11257      11268      11267      11377      11378      11389      11388  
     11257      11258      11269      11268      11378      11379      11390      11389  
     11258      11259      11270      11269      11379      11380      11391      11390  
     11259      11260      11271      11270      11380      11381      11392      11391  
     11260      11261      11272      11271      11381      11382      11393      11392  
     11261      11262      11273      11272      11382      11383      11394      11393  
     11262      11263      11274      11273      11383      11384      11395      11394  
     11263      11264      11275      11274      11384      11385      11396      11395  
     11265      11266      11277      11276      11386      11387      11398      11397  
     11266      11267      11278      11277      11387      11388      11399      11398  
     11267      11268      11279      11278      11388      11389      11400      11399  
     11268      11269      11280      11279      11389      11390      11401      11400  
     11269      11270      11281      11280      11390      11391      11402      11401  
     11270      11271      11282      11281      11391      11392      11403      11402  
     11271      11272      11283      11282      11392      11393      11404      11403  
     11272      11273      11284      11283      11393      11394      11405      11404  
     11273      11274      11285      11284      11394      11395      11406      11405  
     11274      11275      11286      11285      11395      11396      11407      11406  
     11276      11277      11288      11287      11397      11398      11409      11408  
     11277      11278      11289      11288      11398      11399      11410      11409  
     11278      11279      11290      11289      11399      11400      11411      11410  
     11279      11280      11291      11290      11400      11401      11412      11411  
     11280      11281      11292      11291      11401      11402      11413      11412  
     11281      11282      11293      11292      11402      11403      11414      11413  
     11282      11283      11294      11293      11403      11404      11415      11414  
     11283      11284      11295      11294      11404      11405      11416      11415  
     11284      11285      11296      11295      11405      11406      11417      11416  
     11285      11286      11297      11296      11406      11407      11418      11417  
     11287      11288      11299      11298      11408      11409      11420      11419  
     11288      11289      11300      11299      11409      11410      11421      11420  
     11289      11290      11301      11300      11410      11411      11422      11421  
     11290      11291      11302      11301      11411      11412      11423      11422  
     11291      11292      11303      11302      11412      11413      11424      11423  
     11292      11293      11304      11303      11413      11414      11425      11424  
     11293      11294      11305      11304      11414      11415      11426      11425  
     11294      11295      11306      11305      11415      11416      11427      11426  
     11295      11296      11307      11306      11416      11417      11428      11427  
     11296      11297      11308      11307      11417      11418      11429      11428  
     11298      11299      11310      11309      11419      11420      11431      11430  
     11299      11300      11311      11310      11420      11421      11432      11431  
     11300      11301      11312      11311      11421      11422      11433      11432  
     11301      11302      11313      11312      11422      11423      11434      11433  
     11302      11303      11314      11313      11423      11424      11435      11434  
     11303      11304      11315      11314      11424      11425      11436      11435  
     11304      11305      11316      11315      11425      11426      11437      11436  
     11305      11306      11317      11316      11426      11427      11438      11437  
     11306      11307      11318      11317      11427      11428      11439      11438  
     11307      11308      11319      11318      11428      11429      11440      11439  
     11309      11310      11321      11320      11430      11431      11442      11441  
     11310      11311      11322      11321      11431      11432      11443      11442  
     11311      11312      11323      11322      11432      11433      11444      11443  
     11312      11313      11324      11323      11433      11434      11445      11444  
     11313      11314      11325      11324      11434      11435      11446      11445  
     11314      11315      11326      11325      11435      11436      11447      11446  
     11315      11316      11327      11326      11436      11437      11448      11447  
     11316      11317      11328      11327      11437      11438      11449      11448  
     11317      11318      11329      11328      11438      11439      11450      11449  
     11318      11319      11330      11329      11439      11440      11451      11450  
     11320      11321      11332      11331      11441      11442      11453      11452  
     11321      11322      11333      11332      11442      11443      11454      11453  
     11322      11323      11334      11333      11443      11444      11455      11454  
     11323      11324      11335      11334      11444      11445      11456      11455  
     11324      11325      11336      11335      11445      11446      11457      11456  
     11325      11326      11337      11336      11446      11447      11458      11457  
     11326      11327      11338      11337      11447      11448      11459      11458  
     11327      11328      11339      11338      11448      11449      11460      11459  
     11328      11329      11340      11339      11449      11450      11461      11460  
     11329      11330      11341      11340      11450      11451      11462      11461  
     11331      11332      11343      11342      11452      11453      11464      11463  
     11332      11333      11344      11343      11453      11454      11465      11464  
     11333      11334      11345      11344      11454      11455      11466      11465  
     11334      11335      11346      11345      11455      11456      11467      11466  
     11335      11336      11347      11346      11456      11457      11468      11467  
     11336      11337      11348      11347      11457      11458      11469      11468  
     11337      11338      11349      11348      11458      11459      11470      11469  
     11338      11339      11350      11349      11459      11460      11471      11470  
     11339      11340      11351      11350      11460      11461      11472      11471  
     11340      11341      11352      11351      11461      11462      11473      11472  
     11342      11343      11354      11353      11463      11464      11475      11474  
     11343      11344      11355      11354      11464      11465      11476      11475  
     11344      11345      11356      11355      11465      11466      11477      11476  
     11345      11346      11357      11356      11466      11467      11478      11477  
     11346      11347      11358      11357      11467      11468      11479      11478  
     11347      11348      11359      11358      11468      11469      11480      11479  
     11348      11349      11360      11359      11469      11470      11481      11480  
     11349      11350      11361      11360      11470      11471      11482      11481  
     11350      11351      11362      11361      11471      11472      11483      11482  
     11351      11352      11363      11362      11472      11473      11484      11483  
     11353      11354      11365      11364      11474      11475      11486      11485  
     11354      11355      11366      11365      11475      11476      11487      11486  
     11355      11356      11367      11366      11476      11477      11488      11487  
     11356      11357      11368      11367      11477      11478      11489      11488  
     11357      11358      11369      11368      11478      11479      11490      11489  
     11358      11359      11370      11369      11479      11480      11491      11490  
     11359      11360      11371      11370      11480      11481      11492      11491  
     11360      11361      11372      11371      11481      11482      11493      11492  
     11361      11362      11373      11372      11482      11483      11494      11493  
     11362      11363      11374      11373      11483      11484      11495      11494  
     11375      11376      11387      11386      11496      11497      11508      11507  
     11376      11377      11388      11387      11497      11498      11509      11508  
     11377      11378      11389      11388      11498      11499      11510      11509  
     11378      11379      11390      11389      11499      11500      11511      11510  
     11379      11380      11391      11390      11500      11501      11512      11511  
     11380      11381      11392      11391      11501      11502      11513      11512  
     11381      11382      11393      11392      11502      11503      11514      11513  
     11382      11383      11394      11393      11503      11504      11515      11514  
     11383      11384      11395      11394      11504      11505      11516      11515  
     11384      11385      11396      11395      11505      11506      11517      11516  
     11386      11387      11398      11397      11507      11508      11519      11518  
     11387      11388      11399      11398      11508      11509      11520      11519  
     11388      11389      11400      11399      11509      11510      11521      11520  
     11389      11390      11401      11400      11510      11511      11522      11521  
     11390      11391      11402      11401      11511      11512      11523      11522  
     11391      11392      11403      11402      11512      11513      11524      11523  
     11392      11393      11404      11403      11513      11514      11525      11524  
     11393      11394      11405      11404      11514      11515      11526      11525  
     11394      11395      11406      11405      11515      11516      11527      11526  
     11395      11396      11407      11406      11516      11517      11528      11527  
     11397      11398      11409      11408      11518      11519      11530      11529  
     11398      11399      11410      11409      11519      11520      11531      11530  
     11399      11400      11411      11410      11520      11521      11532      11531  
     11400      11401      11412      11411      11521      11522      11533      11532  
     11401      11402      11413      11412      11522      11523      11534      11533  
     11402      11403      11414      11413      11523      11524      11535      11534  
     11403      11404      11415      11414      11524      11525      11536      11535  
     11404      11405      11416      11415      11525      11526      11537      11536  
     11405      11406      11417      11416      11526      11527      11538      11537  
     11406      11407      11418      11417      11527      11528      11539      11538  
     11408      11409      11420      11419      11529      11530      11541      11540  
     11409      11410      11421      11420      11530      11531      11542      11541  
     11410      11411      11422      11421      11531      11532      11543      11542  
     11411      11412      11423      11422      11532      11533      11544      11543  
     11412      11413      11424      11423      11533      11534      11545      11544  
     11413      11414      11425      11424      11534      11535      11546      11545  
     11414      11415      11426      11425      11535      11536      11547      11546  
     11415      11416      11427      11426      11536      11537      11548      11547  
     11416      11417      11428      11427      11537      11538      11549      11548  
     11417      11418      11429      11428      11538      11539      11550      11549  
     11419      11420      11431      11430      11540      11541      11552      11551  
     11420      11421      11432      11431      11541      11542      11553      11552  
     11421      11422      11433      11432      11542      11543      11554      11553  
     11422      11423      11434      11433      11543      11544      11555      11554  
     11423      11424      11435      11434      11544      11545      11556      11555  
     11424      11425      11436      11435      11545      11546      11557      11556  
     11425      11426      11437      11436      11546      11547      11558      11557  
     11426      11427      11438      11437      11547      11548      11559      11558  
     11427      11428      11439      11438      11548      11549      11560      11559  
     11428      11429      11440      11439      11549      11550      11561      11560  
     11430      11431      11442      11441      11551      11552      11563      11562  
     11431      11432      11443      11442      11552      11553      11564      11563  
     11432      11433      11444      11443      11553      11554      11565      11564  
     11433      11434      11445      11444      11554      11555      11566      11565  
     11434      11435      11446      11445      11555      11556      11567      11566  
     11435      11436      11447      11446      11556      11557      11568      11567  
     11436      11437      11448      11447      11557      11558      11569      11568  
     11437      11438      11449      11448      11558      11559      11570      11569  
     11438      11439      11450      11449      11559      11560      11571      11570  
     11439      11440      11451      11450      11560      11561      11572      11571  
     11441      11442      11453      11452      11562      11563      11574      11573  
     11442      11443      11454      11453      11563      11564      11575      11574  
     11443      11444      11455      11454      11564      11565      11576      11575  
     11444      11445      11456      11455      11565      11566      11577      11576  
     11445      11446      11457      11456      11566      11567      11578      11577  
     11446      11447      11458      11457      11567      11568      11579      11578  
     11447      11448      11459      11458      11568      11569      11580      11579  
     11448      11449      11460      11459      11569      11570      11581      11580  
     11449      11450      11461      11460      11570      11571      11582      11581  
     11450      11451      11462      11461      11571      11572      11583      11582  
     11452      11453      11464      11463      11573      11574      11585      11584  
     11453      11454      11465      11464      11574      11575      11586      11585  
     11454      11455      11466      11465      11575      11576      11587      11586  
     11455      11456      11467      11466      11576      11577      11588      11587  
     11456      11457      11468      11467      11577      11578      11589      11588  
     11457      11458      11469      11468      11578      11579      11590      11589  
     11458      11459      11470      11469      11579      11580      11591      11590  
     11459      11460      11471      11470      11580      11581      11592      11591  
     11460      11461      11472      11471      11581      11582      11593      11592  
     11461      11462      11473      11472      11582      11583      11594      11593  
     11463      11464      11475      11474      11584      11585      11596      11595  
     11464      11465      11476      11475      11585      11586      11597      11596  
     11465      11466      11477      11476      11586      11587      11598      11597  
     11466      11467      11478      11477      11587      11588      11599      11598  
     11467      11468      11479      11478      11588      11589      11600      11599  
     11468      11469      11480      11479      11589      11590      11601      11600  
     11469      11470      11481      11480      11590      11591      11602      11601  
     11470      11471      11482      11481      11591      11592      11603      11602  
     11471      11472      11483      11482      11592      11593      11604      11603  
     11472      11473      11484      11483      11593      11594      11605      11604  
     11474      11475      11486      11485      11595      11596      11607      11606  
     11475      11476      11487      11486      11596      11597      11608      11607  
     11476      11477      11488      11487      11597      11598      11609      11608  
     11477      11478      11489      11488      11598      11599      11610      11609  
     11478      11479      11490      11489      11599      11600      11611      11610  
     11479      11480      11491      11490      11600      11601      11612      11611  
     11480      11481      11492      11491      11601      11602      11613      11612  
     11481      11482      11493      11492      11602      11603      11614      11613  
     11482      11483      11494      11493      11603      11604      11615      11614  
     11483      11484      11495      11494      11604      11605      11616      11615  
     11496      11497      11508      11507      11617      11618      11629      11628  
     11497      11498      11509      11508      11618      11619      11630      11629  
     11498      11499      11510      11509      11619      11620      11631      11630  
     11499      11500      11511      11510      11620      11621      11632      11631  
     11500      11501      11512      11511      11621      11622      11633      11632  
     11501      11502      11513      11512      11622      11623      11634      11633  
     11502      11503      11514      11513      11623      11624      11635      11634  
     11503      11504      11515      11514      11624      11625      11636      11635  
     11504      11505      11516      11515      11625      11626      11637      11636  
     11505      11506      11517      11516      11626      11627      11638      11637  
     11507      11508      11519      11518      11628      11629      11640      11639  
     11508      11509      11520      11519      11629      11630      11641      11640  
     11509      11510      11521      11520      11630      11631      11642      11641  
     11510      11511      11522      11521      11631      11632      11643      11642  
     11511      11512      11523      11522      11632      11633      11644      11643  
     11512      11513      11524      11523      11633      11634      11645      11644  
     11513      11514      11525      11524      11634      11635      11646      11645  
     11514      11515      11526      11525      11635      11636      11647      11646  
     11515      11516      11527      11526      11636      11637      11648      11647  
     11516      11517      11528      11527      11637      11638      11649      11648  
     11518      11519      11530      11529      11639      11640      11651      11650  
     11519      11520      11531      11530      11640      11641      11652      11651  
     11520      11521      11532      11531      11641      11642      11653      11652  
     11521      11522      11533      11532      11642      11643      11654      11653  
     11522      11523      11534      11533      11643      11644      11655      11654  
     11523      11524      11535      11534      11644      11645      11656      11655  
     11524      11525      11536      11535      11645      11646      11657      11656  
     11525      11526      11537      11536      11646      11647      11658      11657  
     11526      11527      11538      11537      11647      11648      11659      11658  
     11527      11528      11539      11538      11648      11649      11660      11659  
     11529      11530      11541      11540      11650      11651      11662      11661  
     11530      11531      11542      11541      11651      11652      11663      11662  
     11531      11532      11543      11542      11652      11653      11664      11663  
     11532      11533      11544      11543      11653      11654      11665      11664  
     11533      11534      11545      11544      11654      11655      11666      11665  
     11534      11535      11546      11545      11655      11656      11667      11666  
     11535      11536      11547      11546      11656      11657      11668      11667  
     11536      11537      11548      11547      11657      11658      11669      11668  
     11537      11538      11549      11548      11658      11659      11670      11669  
     11538      11539      11550      11549      11659      11660      11671      11670  
     11540      11541      11552      11551      11661      11662      11673      11672  
     11541      11542      11553      11552      11662      11663      11674      11673  
     11542      11543      11554      11553      11663      11664      11675      11674  
     11543      11544      11555      11554      11664      11665      11676      11675  
     11544      11545      11556      11555      11665      11666      11677      11676  
     11545      11546      11557      11556      11666      11667      11678      11677  
     11546      11547      11558      11557      11667      11668      11679      11678  
     11547      11548      11559      11558      11668      11669      11680      11679  
     11548      11549      11560      11559      11669      11670      11681      11680  
     11549      11550      11561      11560      11670      11671      11682      11681  
     11551      11552      11563      11562      11672      11673      11684      11683  
     11552      11553      11564      11563      11673      11674      11685      11684  
     11553      11554      11565      11564      11674      11675      11686      11685  
     11554      11555      11566      11565      11675      11676      11687      11686  
     11555      11556      11567      11566      11676      11677      11688      11687  
     11556      11557      11568      11567      11677      11678      11689      11688  
     11557      11558      11569      11568      11678      11679      11690      11689  
     11558      11559      11570      11569      11679      11680      11691      11690  
     11559      11560      11571      11570      11680      11681      11692      11691  
     11560      11561      11572      11571      11681      11682      11693      11692  
     11562      11563      11574      11573      11683      11684      11695      11694  
     11563      11564      11575      11574      11684      11685      11696      11695  
     11564      11565      11576      11575      11685      11686      11697      11696  
     11565      11566      11577      11576      11686      11687      11698      11697  
     11566      11567      11578      11577      11687      11688      11699      11698  
     11567      11568      11579      11578      11688      11689      11700      11699  
     11568      11569      11580      11579      11689      11690      11701      11700  
     11569      11570      11581      11580      11690      11691      11702      11701  
     11570      11571      11582      11581      11691      11692      11703      11702  
     11571      11572      11583      11582      11692      11693      11704      11703  
     11573      11574      11585      11584      11694      11695      11706      11705  
     11574      11575      11586      11585      11695      11696      11707      11706  
     11575      11576      11587      11586      11696      11697      11708      11707  
     11576      11577      11588      11587      11697      11698      11709      11708  
     11577      11578      11589      11588      11698      11699      11710      11709  
     11578      11579      11590      11589      11699      11700      11711      11710  
     11579      11580      11591      11590      11700      11701      11712      11711  
     11580      11581      11592      11591      11701      11702      11713      11712  
     11581      11582      11593      11592      11702      11703      11714      11713  
     11582      11583      11594      11593      11703      11704      11715      11714  
     11584      11585      11596      11595      11705      11706      11717      11716  
     11585      11586      11597      11596      11706      11707      11718      11717  
     11586      11587      11598      11597      11707      11708      11719      11718  
     11587      11588      11599      11598      11708      11709      11720      11719  
     11588      11589      11600      11599      11709      11710      11721      11720  
     11589      11590      11601      11600      11710      11711      11722      11721  
     11590      11591      11602      11601      11711      11712      11723      11722  
     11591      11592      11603      11602      11712      11713      11724      11723  
     11592      11593      11604      11603      11713      11714      11725      11724  
     11593      11594      11605      11604      11714      11715      11726      11725  
     11595      11596      11607      11606      11716      11717      11728      11727  
     11596      11597      11608      11607      11717      11718      11729      11728  
     11597      11598      11609      11608      11718      11719      11730      11729  
     11598      11599      11610      11609      11719      11720      11731      11730  
     11599      11600      11611      11610      11720      11721      11732      11731  
     11600      11601      11612      11611      11721      11722      11733      11732  
     11601      11602      11613      11612      11722      11723      11734      11733  
     11602      11603      11614      11613      11723      11724      11735      11734  
     11603      11604      11615      11614      11724      11725      11736      11735  
     11604      11605      11616      11615      11725      11726      11737      11736  
     11617      11618      11629      11628      11738      11739      11750      11749  
     11618      11619      11630      11629      11739      11740      11751      11750  
     11619      11620      11631      11630      11740      11741      11752      11751  
     11620      11621      11632      11631      11741      11742      11753      11752  
     11621      11622      11633      11632      11742      11743      11754      11753  
     11622      11623      11634      11633      11743      11744      11755      11754  
     11623      11624      11635      11634      11744      11745      11756      11755  
     11624      11625      11636      11635      11745      11746      11757      11756  
     11625      11626      11637      11636      11746      11747      11758      11757  
     11626      11627      11638      11637      11747      11748      11759      11758  
     11628      11629      11640      11639      11749      11750      11761      11760  
     11629      11630      11641      11640      11750      11751      11762      11761  
     11630      11631      11642      11641      11751      11752      11763      11762  
     11631      11632      11643      11642      11752      11753      11764      11763  
     11632      11633      11644      11643      11753      11754      11765      11764  
     11633      11634      11645      11644      11754      11755      11766      11765  
     11634      11635      11646      11645      11755      11756      11767      11766  
     11635      11636      11647      11646      11756      11757      11768      11767  
     11636      11637      11648      11647      11757      11758      11769      11768  
     11637      11638      11649      11648      11758      11759      11770      11769  
     11639      11640      11651      11650      11760      11761      11772      11771  
     11640      11641      11652      11651      11761      11762      11773      11772  
     11641      11642      11653      11652      11762      11763      11774      11773  
     11642      11643      11654      11653      11763      11764      11775      11774  
     11643      11644      11655      11654      11764      11765      11776      11775  
     11644      11645      11656      11655      11765      11766      11777      11776  
     11645      11646      11657      11656      11766      11767      11778      11777  
     11646      11647      11658      11657      11767      11768      11779      11778  
     11647      11648      11659      11658      11768      11769      11780      11779  
     11648      11649      11660      11659      11769      11770      11781      11780  
     11650      11651      11662      11661      11771      11772      11783      11782  
     11651      11652      11663      11662      11772      11773      11784      11783  
     11652      11653      11664      11663      11773      11774      11785      11784  
     11653      11654      11665      11664      11774      11775      11786      11785  
     11654      11655      11666      11665      11775      11776      11787      11786  
     11655      11656      11667      11666      11776      11777      11788      11787  
     11656      11657      11668      11667      11777      11778      11789      11788  
     11657      11658      11669      11668      11778      11779      11790      11789  
     11658      11659      11670      11669      11779      11780      11791      11790  
     11659      11660      11671      11670      11780      11781      11792      11791  
     11661      11662      11673      11672      11782      11783      11794      11793  
     11662      11663      11674      11673      11783      11784      11795      11794  
     11663      11664      11675      11674      11784      11785      11796      11795  
     11664      11665      11676      11675      11785      11786      11797      11796  
     11665      11666      11677      11676      11786      11787      11798      11797  
     11666      11667      11678      11677      11787      11788      11799      11798  
     11667      11668      11679      11678      11788      11789      11800      11799  
     11668      11669      11680      11679      11789      11790      11801      11800  
     11669      11670      11681      11680      11790      11791      11802      11801  
     11670      11671      11682      11681      11791      11792      11803      11802  
     11672      11673      11684      11683      11793      11794      11805      11804  
     11673      11674      11685      11684      11794      11795      11806      11805  
     11674      11675      11686      11685      11795      11796      11807      11806  
     11675      11676      11687      11686      11796      11797      11808      11807  
     11676      11677      11688      11687      11797      11798      11809      11808  
     11677      11678      11689      11688      11798      11799      11810      11809  
     11678      11679      11690      11689      11799      11800      11811      11810  
     11679      11680      11691      11690      11800      11801      11812      11811  
     11680      11681      11692      11691      11801      11802      11813      11812  
     11681      11682      11693      11692      11802      11803      11814      11813  
     11683      11684      11695      11694      11804      11805      11816      11815  
     11684      11685      11696      11695      11805      11806      11817      11816  
     11685      11686      11697      11696      11806      11807      11818      11817  
     11686      11687      11698      11697      11807      11808      11819      11818  
     11687      11688      11699      11698      11808      11809      11820      11819  
     11688      11689      11700      11699      11809      11810      11821      11820  
     11689      11690      11701      11700      11810      11811      11822      11821  
     11690      11691      11702      11701      11811      11812      11823      11822  
     11691      11692      11703      11702      11812      11813      11824      11823  
     11692      11693      11704      11703      11813      11814      11825      11824  
     11694      11695      11706      11705      11815      11816      11827      11826  
     11695      11696      11707      11706      11816      11817      11828      11827  
     11696      11697      11708      11707      11817      11818      11829      11828  
     11697      11698      11709      11708      11818      11819      11830      11829  
     11698      11699      11710      11709      11819      11820      11831      11830  
     11699      11700      11711      11710      11820      11821      11832      11831  
     11700      11701      11712      11711      11821      11822      11833      11832  
     11701      11702      11713      11712      11822      11823      11834      11833  
     11702      11703      11714      11713      11823      11824      11835      11834  
     11703      11704      11715      11714      11824      11825      11836      11835  
     11705      11706      11717      11716      11826      11827      11838      11837  
     11706      11707      11718      11717      11827      11828      11839      11838  
     11707      11708      11719      11718      11828      11829      11840      11839  
     11708      11709      11720      11719      11829      11830      11841      11840  
     11709      11710      11721      11720      11830      11831      11842      11841  
     11710      11711      11722      11721      11831      11832      11843      11842  
     11711      11712      11723      11722      11832      11833      11844      11843  
     11712      11713      11724      11723      11833      11834      11845      11844  
     11713      11714      11725      11724      11834      11835      11846      11845  
     11714      11715      11726      11725      11835      11836      11847      11846  
     11716      11717      11728      11727      11837      11838      11849      11848  
     11717      11718      11729      11728      11838      11839      11850      11849  
     11718      11719      11730      11729      11839      11840      11851      11850  
     11719      11720      11731      11730      11840      11841      11852      11851  
     11720      11721      11732      11731      11841      11842      11853      11852  
     11721      11722      11733      11732      11842      11843      11854      11853  
     11722      11723      11734      11733      11843      11844      11855      11854  
     11723      11724      11735      11734      11844      11845      11856      11855  
     11724      11725      11736      11735      11845      11846      11857      11856  
     11725      11726      11737      11736      11846      11847      11858      11857  
     11738      11739      11750      11749      11859      11860      11871      11870  
     11739      11740      11751      11750      11860      11861      11872      11871  
     11740      11741      11752      11751      11861      11862      11873      11872  
     11741      11742      11753      11752      11862      11863      11874      11873  
     11742      11743      11754      11753      11863      11864      11875      11874  
     11743      11744      11755      11754      11864      11865      11876      11875  
     11744      11745      11756      11755      11865      11866      11877      11876  
     11745      11746      11757      11756      11866      11867      11878      11877  
     11746      11747      11758      11757      11867      11868      11879      11878  
     11747      11748      11759      11758      11868      11869      11880      11879  
     11749      11750      11761      11760      11870      11871      11882      11881  
     11750      11751      11762      11761      11871      11872      11883      11882  
     11751      11752      11763      11762      11872      11873      11884      11883  
     11752      11753      11764      11763      11873      11874      11885      11884  
     11753      11754      11765      11764      11874      11875      11886      11885  
     11754      11755      11766      11765      11875      11876      11887      11886  
     11755      11756      11767      11766      11876      11877      11888      11887  
     11756      11757      11768      11767      11877      11878      11889      11888  
     11757      11758      11769      11768      11878      11879      11890      11889  
     11758      11759      11770      11769      11879      11880      11891      11890  
     11760      11761      11772      11771      11881      11882      11893      11892  
     11761      11762      11773      11772      11882      11883      11894      11893  
     11762      11763      11774      11773      11883      11884      11895      11894  
     11763      11764      11775      11774      11884      11885      11896      11895  
     11764      11765      11776      11775      11885      11886      11897      11896  
     11765      11766      11777      11776      11886      11887      11898      11897  
     11766      11767      11778      11777      11887      11888      11899      11898  
     11767      11768      11779      11778      11888      11889      11900      11899  
     11768      11769      11780      11779      11889      11890      11901      11900  
     11769      11770      11781      11780      11890      11891      11902      11901  
     11771      11772      11783      11782      11892      11893      11904      11903  
     11772      11773      11784      11783      11893      11894      11905      11904  
     11773      11774      11785      11784      11894      11895      11906      11905  
     11774      11775      11786      11785      11895      11896      11907      11906  
     11775      11776      11787      11786      11896      11897      11908      11907  
     11776      11777      11788      11787      11897      11898      11909      11908  
     11777      11778      11789      11788      11898      11899      11910      11909  
     11778      11779      11790      11789      11899      11900      11911      11910  
     11779      11780      11791      11790      11900      11901      11912      11911  
     11780      11781      11792      11791      11901      11902      11913      11912  
     11782      11783      11794      11793      11903      11904      11915      11914  
     11783      11784      11795      11794      11904      11905      11916      11915  
     11784      11785      11796      11795      11905      11906      11917      11916  
     11785      11786      11797      11796      11906      11907      11918      11917  
     11786      11787      11798      11797      11907      11908      11919      11918  
     11787      11788      11799      11798      11908      11909      11920      11919  
     11788      11789      11800      11799      11909      11910      11921      11920  
     11789      11790      11801      11800      11910      11911      11922      11921  
     11790      11791      11802      11801      11911      11912      11923      11922  
     11791      11792      11803      11802      11912      11913      11924      11923  
     11793      11794      11805      11804      11914      11915      11926      11925  
     11794      11795      11806      11805      11915      11916      11927      11926  
     11795      11796      11807      11806      11916      11917      11928      11927  
     11796      11797      11808      11807      11917      11918      11929      11928  
     11797      11798      11809      11808      11918      11919      11930      11929  
     11798      11799      11810      11809      11919      11920      11931      11930  
     11799      11800      11811      11810      11920      11921      11932      11931  
     11800      11801      11812      11811      11921      11922      11933      11932  
     11801      11802      11813      11812      11922      11923      11934      11933  
     11802      11803      11814      11813      11923      11924      11935      11934  
     11804      11805      11816      11815      11925      11926      11937      11936  
     11805      11806      11817      11816      11926      11927      11938      11937  
     11806      11807      11818      11817      11927      11928      11939      11938  
     11807      11808      11819      11818      11928      11929      11940      11939  
     11808      11809      11820      11819      11929      11930      11941      11940  
     11809      11810      11821      11820      11930      11931      11942      11941  
     11810      11811      11822      11821      11931      11932      11943      11942  
     11811      11812      11823      11822      11932      11933      11944      11943  
     11812      11813      11824      11823      11933      11934      11945      11944  
     11813      11814      11825      11824      11934      11935      11946      11945  
     11815      11816      11827      11826      11936      11937      11948      11947  
     11816      11817      11828      11827      11937      11938      11949      11948  
     11817      11818      11829      11828      11938      11939      11950      11949  
     11818      11819      11830      11829      11939      11940      11951      11950  
     11819      11820      11831      11830      11940      11941      11952      11951  
     11820      11821      11832      11831      11941      11942      11953      11952  
     11821      11822      11833      11832      11942      11943      11954      11953  
     11822      11823      11834      11833      11943      11944      11955      11954  
     11823      11824      11835      11834      11944      11945      11956      11955  
     11824      11825      11836      11835      11945      11946      11957      11956  
     11826      11827      11838      11837      11947      11948      11959      11958  
     11827      11828      11839      11838      11948      11949      11960      11959  
     11828      11829      11840      11839      11949      11950      11961      11960  
     11829      11830      11841      11840      11950      11951      11962      11961  
     11830      11831      11842      11841      11951      11952      11963      11962  
     11831      11832      11843      11842      11952      11953      11964      11963  
     11832      11833      11844      11843      11953      11954      11965      11964  
     11833      11834      11845      11844      11954      11955      11966      11965  
     11834      11835      11846      11845      11955      11956      11967      11966  
     11835      11836      11847      11846      11956      11957      11968      11967  
     11837      11838      11849      11848      11958      11959      11970      11969  
     11838      11839      11850      11849      11959      11960      11971      11970  
     11839      11840      11851      11850      11960      11961      11972      11971  
     11840      11841      11852      11851      11961      11962      11973      11972  
     11841      11842      11853      11852      11962      11963      11974      11973  
     11842      11843      11854      11853      11963      11964      11975      11974  
     11843      11844      11855      11854      11964      11965      11976      11975  
     11844      11845      11856      11855      11965      11966      11977      11976  
     11845      11846      11857      11856      11966      11967      11978      11977  
     11846      11847      11858      11857      11967      11968      11979      11978  
     11859      11860      11871      11870      11980      11981      11992      11991  
     11860      11861      11872      11871      11981      11982      11993      11992  
     11861      11862      11873      11872      11982      11983      11994      11993  
     11862      11863      11874      11873      11983      11984      11995      11994  
     11863      11864      11875      11874      11984      11985      11996      11995  
     11864      11865      11876      11875      11985      11986      11997      11996  
     11865      11866      11877      11876      11986      11987      11998      11997  
     11866      11867      11878      11877      11987      11988      11999      11998  
     11867      11868      11879      11878      11988      11989      12000      11999  
     11868      11869      11880      11879      11989      11990      12001      12000  
     11870      11871      11882      11881      11991      11992      12003      12002  
     11871      11872      11883      11882      11992      11993      12004      12003  
     11872      11873      11884      11883      11993      11994      12005      12004  
     11873      11874      11885      11884      11994      11995      12006      12005  
     11874      11875      11886      11885      11995      11996      12007      12006  
     11875      11876      11887      11886      11996      11997      12008      12007  
     11876      11877      11888      11887      11997      11998      12009      12008  
     11877      11878      11889      11888      11998      11999      12010      12009  
     11878      11879      11890      11889      11999      12000      12011      12010  
     11879      11880      11891      11890      12000      12001      12012      12011  
     11881      11882      11893      11892      12002      12003      12014      12013  
     11882      11883      11894      11893      12003      12004      12015      12014  
     11883      11884      11895      11894      12004      12005      12016      12015  
     11884      11885      11896      11895      12005      12006      12017      12016  
     11885      11886      11897      11896      12006      12007      12018      12017  
     11886      11887      11898      11897      12007      12008      12019      12018  
     11887      11888      11899      11898      12008      12009      12020      12019  
     11888      11889      11900      11899      12009      12010      12021      12020  
     11889      11890      11901      11900      12010      12011      12022      12021  
     11890      11891      11902      11901      12011      12012      12023      12022  
     11892      11893      11904      11903      12013      12014      12025      12024  
     11893      11894      11905      11904      12014      12015      12026      12025  
     11894      11895      11906      11905      12015      12016      12027      12026  
     11895      11896      11907      11906      12016      12017      12028      12027  
     11896      11897      11908      11907      12017      12018      12029      12028  
     11897      11898      11909      11908      12018      12019      12030      12029  
     11898      11899      11910      11909      12019      12020      12031      12030  
     11899      11900      11911      11910      12020      12021      12032      12031  
     11900      11901      11912      11911      12021      12022      12033      12032  
     11901      11902      11913      11912      12022      12023      12034      12033  
     11903      11904      11915      11914      12024      12025      12036      12035  
     11904      11905      11916      11915      12025      12026      12037      12036  
     11905      11906      11917      11916      12026      12027      12038      12037  
     11906      11907      11918      11917      12027      12028      12039      12038  
     11907      11908      11919      11918      12028      12029      12040      12039  
     11908      11909      11920      11919      12029      12030      12041      12040  
     11909      11910      11921      11920      12030      12031      12042      12041  
     11910      11911      11922      11921      12031      12032      12043      12042  
     11911      11912      11923      11922      12032      12033      12044      12043  
     11912      11913      11924      11923      12033      12034      12045      12044  
     11914      11915      11926      11925      12035      12036      12047      12046  
     11915      11916      11927      11926      12036      12037      12048      12047  
     11916      11917      11928      11927      12037      12038      12049      12048  
     11917      11918      11929      11928      12038      12039      12050      12049  
     11918      11919      11930      11929      12039      12040      12051      12050  
     11919      11920      11931      11930      12040      12041      12052      12051  
     11920      11921      11932      11931      12041      12042      12053      12052  
     11921      11922      11933      11932      12042      12043      12054      12053  
     11922      11923      11934      11933      12043      12044      12055      12054  
     11923      11924      11935      11934      12044      12045      12056      12055  
     11925      11926      11937      11936      12046      12047      12058      12057  
     11926      11927      11938      11937      12047      12048      12059      12058  
     11927      11928      11939      11938      12048      12049      12060      12059  
     11928      11929      11940      11939      12049      12050      12061      12060  
     11929      11930      11941      11940      12050      12051      12062      12061  
     11930      11931      11942      11941      12051      12052      12063      12062  
     11931      11932      11943      11942      12052      12053      12064      12063  
     11932      11933      11944      11943      12053      12054      12065      12064  
     11933      11934      11945      11944      12054      12055      12066      12065  
     11934      11935      11946      11945      12055      12056      12067      12066  
     11936      11937      11948      11947      12057      12058      12069      12068  
     11937      11938      11949      11948      12058      12059      12070      12069  
     11938      11939      11950      11949      12059      12060      12071      12070  
     11939      11940      11951      11950      12060      12061      12072      12071  
     11940      11941      11952      11951      12061      12062      12073      12072  
     11941      11942      11953      11952      12062      12063      12074      12073  
     11942      11943      11954      11953      12063      12064      12075      12074  
     11943      11944      11955      11954      12064      12065      12076      12075  
     11944      11945      11956      11955      12065      12066      12077      12076  
     11945      11946      11957      11956      12066      12067      12078      12077  
     11947      11948      11959      11958      12068      12069      12080      12079  
     11948      11949      11960      11959      12069      12070      12081      12080  
     11949      11950      11961      11960      12070      12071      12082      12081  
     11950      11951      11962      11961      12071      12072      12083      12082  
     11951      11952      11963      11962      12072      12073      12084      12083  
     11952      11953      11964      11963      12073      12074      12085      12084  
     11953      11954      11965      11964      12074      12075      12086      12085  
     11954      11955      11966      11965      12075      12076      12087      12086  
     11955      11956      11967      11966      12076      12077      12088      12087  
     11956      11957      11968      11967      12077      12078      12089      12088  
     11958      11959      11970      11969      12079      12080      12091      12090  
     11959      11960      11971      11970      12080      12081      12092      12091  
     11960      11961      11972      11971      12081      12082      12093      12092  
     11961      11962      11973      11972      12082      12083      12094      12093  
     11962      11963      11974      11973      12083      12084      12095      12094  
     11963      11964      11975      11974      12084      12085      12096      12095  
     11964      11965      11976      11975      12085      12086      12097      12096  
     11965      11966      11977      11976      12086      12087      12098      12097  
     11966      11967      11978      11977      12087      12088      12099      12098  
     11967      11968      11979      11978      12088      12089      12100      12099  
     11980      11981      11992      11991      12101      12102      12113      12112  
     11981      11982      11993      11992      12102      12103      12114      12113  
     11982      11983      11994      11993      12103      12104      12115      12114  
     11983      11984      11995      11994      12104      12105      12116      12115  
     11984      11985      11996      11995      12105      12106      12117      12116  
     11985      11986      11997      11996      12106      12107      12118      12117  
     11986      11987      11998      11997      12107      12108      12119      12118  
     11987      11988      11999      11998      12108      12109      12120      12119  
     11988      11989      12000      11999      12109      12110      12121      12120  
     11989      11990      12001      12000      12110      12111      12122      12121  
     11991      11992      12003      12002      12112      12113      12124      12123  
     11992      11993      12004      12003      12113      12114      12125      12124  
     11993      11994      12005      12004      12114      12115      12126      12125  
     11994      11995      12006      12005      12115      12116      12127      12126  
     11995      11996      12007      12006      12116      12117      12128      12127  
     11996      11997      12008      12007      12117      12118      12129      12128  
     11997      11998      12009      12008      12118      12119      12130      12129  
     11998      11999      12010      12009      12119      12120      12131      12130  
     11999      12000      12011      12010      12120      12121      12132      12131  
     12000      12001      12012      12011      12121      12122      12133      12132  
     12002      12003      12014      12013      12123      12124      12135      12134  
     12003      12004      12015      12014      12124      12125      12136      12135  
     12004      12005      12016      12015      12125      12126      12137      12136  
     12005      12006      12017      12016      12126      12127      12138      12137  
     12006      12007      12018      12017      12127      12128      12139      12138  
     12007      12008      12019      12018      12128      12129      12140      12139  
     12008      12009      12020      12019      12129      12130      12141      12140  
     12009      12010      12021      12020      12130      12131      12142      12141  
     12010      12011      12022      12021      12131      12132      12143      12142  
     12011      12012      12023      12022      12132      12133      12144      12143  
     12013      12014      12025      12024      12134      12135      12146      12145  
     12014      12015      12026      12025      12135      12136      12147      12146  
     12015      12016      12027      12026      12136      12137      12148      12147  
     12016      12017      12028      12027      12137      12138      12149      12148  
     12017      12018      12029      12028      12138      12139      12150      12149  
     12018      12019      12030      12029      12139      12140      12151      12150  
     12019      12020      12031      12030      12140      12141      12152      12151  
     12020      12021      12032      12031      12141      12142      12153      12152  
     12021      12022      12033      12032      12142      12143      12154      12153  
     12022      12023      12034      12033      12143      12144      12155      12154  
     12024      12025      12036      12035      12145      12146      12157      12156  
     12025      12026      12037      12036      12146      12147      12158      12157  
     12026      12027      12038      12037      12147      12148      12159      12158  
     12027      12028      12039      12038      12148      12149      12160      12159  
     12028      12029      12040      12039      12149      12150      12161      12160  
     12029      12030      12041      12040      12150      12151      12162      12161  
     12030      12031      12042      12041      12151      12152      12163      12162  
     12031      12032      12043      12042      12152      12153      12164      12163  
     12032      12033      12044      12043      12153      12154      12165      12164  
     12033      12034      12045      12044      12154      12155      12166      12165  
     12035      12036      12047      12046      12156      12157      12168      12167  
     12036      12037      12048      12047      12157      12158      12169      12168  
     12037      12038      12049      12048      12158      12159      12170      12169  
     12038      12039      12050      12049      12159      12160      12171      12170  
     12039      12040      12051      12050      12160      12161      12172      12171  
     12040      12041      12052      12051      12161      12162      12173      12172  
     12041      12042      12053      12052      12162      12163      12174      12173  
     12042      12043      12054      12053      12163      12164      12175      12174  
     12043      12044      12055      12054      12164      12165      12176      12175  
     12044      12045      12056      12055      12165      12166      12177      12176  
     12046      12047      12058      12057      12167      12168      12179      12178  
     12047      12048      12059      12058      12168      12169      12180      12179  
     12048      12049      12060      12059      12169      12170      12181      12180  
     12049      12050      12061      12060      12170      12171      12182      12181  
     12050      12051      12062      12061      12171      12172      12183      12182  
     12051      12052      12063      12062      12172      12173      12184      12183  
     12052      12053      12064      12063      12173      12174      12185      12184  
     12053      12054      12065      12064      12174      12175      12186      12185  
     12054      12055      12066      12065      12175      12176      12187      12186  
     12055      12056      12067      12066      12176      12177      12188      12187  
     12057      12058      12069      12068      12178      12179      12190      12189  
     12058      12059      12070      12069      12179      12180      12191      12190  
     12059      12060      12071      12070      12180      12181      12192      12191  
     12060      12061      12072      12071      12181      12182      12193      12192  
     12061      12062      12073      12072      12182      12183      12194      12193  
     12062      12063      12074      12073      12183      12184      12195      12194  
     12063      12064      12075      12074      12184      12185      12196      12195  
     12064      12065      12076      12075      12185      12186      12197      12196  
     12065      12066      12077      12076      12186      12187      12198      12197  
     12066      12067      12078      12077      12187      12188      12199      12198  
     12068      12069      12080      12079      12189      12190      12201      12200  
     12069      12070      12081      12080      12190      12191      12202      12201  
     12070      12071      12082      12081      12191      12192      12203      12202  
     12071      12072      12083      12082      12192      12193      12204      12203  
     12072      12073      12084      12083      12193      12194      12205      12204  
     12073      12074      12085      12084      12194      12195      12206      12205  
     12074      12075      12086      12085      12195      12196      12207      12206  
     12075      12076      12087      12086      12196      12197      12208      12207  
     12076      12077      12088      12087      12197      12198      12209      12208  
     12077      12078      12089      12088      12198      12199      12210      12209  
     12079      12080      12091      12090      12200      12201      12212      12211  
     12080      12081      12092      12091      12201      12202      12213      12212  
     12081      12082      12093      12092      12202      12203      12214      12213  
     12082      12083      12094      12093      12203      12204      12215      12214  
     12083      12084      12095      12094      12204      12205      12216      12215  
     12084      12085      12096      12095      12205      12206      12217      12216  
     12085      12086      12097      12096      12206      12207      12218      12217  
     12086      12087      12098      12097      12207      12208      12219      12218  
     12087      12088      12099      12098      12208      12209      12220      12219  
     12088      12089      12100      12099      12209      12210      12221      12220  
