TITLE="results for TO code"
VARIABLES = "x", "y", "z", "density", "sigmaxx", "sigmayy", "sigmazz", "sigmaxy", "sigmaxz", "sigmayz"
ZONE T="load step 1", NODES= 12221, ELEMENTS= 10000, DATAPACKING=POINT, ZONETYPE=FEBRICK
               0.00000000                0.00000000                0.00000000                1.00000000                0.00000000               -0.00000000                1.83466288               -0.00000000                0.53498297                1.10012658
               1.00000000                0.00000000                0.00000000                1.00000000                0.00000000               -0.00000000                1.26007299                0.00000000                0.02993163                0.74792476
               2.00000000                0.00000000                0.00000000                1.00000000               -0.00000000                0.00000000                0.66883091               -0.00000000               -0.16152955                0.37975804
               3.00000000                0.00000000                0.00000000                1.00000000               -0.00000000                0.00000000                0.14498106                0.00000000               -0.14557520                0.08645893
               4.00000000                0.00000000                0.00000000                1.00000000               -0.00000000                0.00000000               -0.01396037                0.00000000               -0.03214046               -0.00751039
               5.00000000                0.00000000                0.00000000                1.00000000                0.00000000                0.00000000               -0.00586425               -0.00000000                0.00172450               -0.00513335
               6.00000000                0.00000000                0.00000000                1.00000000               -0.00000000                0.00000000               -0.01410383               -0.00000000               -0.00439038               -0.00156524
               7.00000000                0.00000000                0.00000000                1.00000000                0.00000000                0.00000000               -0.08663844               -0.00000000               -0.05324286               -0.09107163
               8.00000000                0.00000000                0.00000000                1.00000000                0.00000000                0.00000000               -0.76294543               -0.00000000               -0.05053907               -0.47063154
               9.00000000                0.00000000                0.00000000                1.00000000                0.00000000               -0.00000000               -1.56395366                0.00000000                0.24233892               -0.86818222
              10.00000000                0.00000000                0.00000000                1.00000000               -0.00000000               -0.00000000               -2.25076050                0.00000000                0.86672014               -1.20737659
               0.00000000                1.00000000                0.00000000                1.00000000               -0.00000000                0.00000000                1.48678210                0.00000000                0.73923507                0.58801368
               1.00000000                1.00000000                0.00000000                1.00000000               -0.00000000               -0.00000000                0.93256644               -0.00000000                0.26601820                0.36812284
               2.00000000                1.00000000                0.00000000                1.00000000               -0.00000000                0.00000000                0.40493776               -0.00000000                0.05480183                0.12097099
               3.00000000                1.00000000                0.00000000                1.00000000                0.00000000                0.00000000                0.04605876                0.00000000                0.00937338               -0.00665422
               4.00000000                1.00000000                0.00000000                1.00000000                0.00000000               -0.00000000               -0.00113295               -0.00000000                0.00452834               -0.01455008
               5.00000000                1.00000000                0.00000000                1.00000000               -0.00000000                0.00000000               -0.00089874               -0.00000000                0.00709386               -0.00373384
               6.00000000                1.00000000                0.00000000                1.00000000                0.00000000               -0.00000000               -0.00743468               -0.00000000                0.02324421                0.00378032
               7.00000000                1.00000000                0.00000000                1.00000000               -0.00000000               -0.00000000               -0.00851064               -0.00000000                0.06667118               -0.01847856
               8.00000000                1.00000000                0.00000000                1.00000000               -0.00000000               -0.00000000               -0.37698815                0.00000000                0.15340639               -0.15721991
               9.00000000                1.00000000                0.00000000                1.00000000               -0.00000000                0.00000000               -1.08495083                0.00000000                0.45815729               -0.38963884
              10.00000000                1.00000000                0.00000000                1.00000000                0.00000000                0.00000000               -1.86327015                0.00000000                1.04573035               -0.56913519
               0.00000000                2.00000000                0.00000000                1.00000000               -0.00000000                0.00000000                1.44200052               -0.00000000                0.81513211                0.31044627
               1.00000000                2.00000000                0.00000000                1.00000000                0.00000000               -0.00000000                0.78913142                0.00000000                0.32700294                0.17007061
               2.00000000                2.00000000                0.00000000                1.00000000               -0.00000000               -0.00000000                0.17997413                0.00000000                0.11416616                0.01259254
               3.00000000                2.00000000                0.00000000                1.00000000               -0.00000000               -0.00000000               -0.01656030               -0.00000000                0.04936155               -0.01081622
               4.00000000                2.00000000                0.00000000                1.00000000                0.00000000               -0.00000000                0.00355767                0.00000000                0.01973697               -0.00890312
               5.00000000                2.00000000                0.00000000                1.00000000               -0.00000000                0.00000000               -0.00055118                0.00000000                0.01272482               -0.00384443
               6.00000000                2.00000000                0.00000000                1.00000000               -0.00000000                0.00000000               -0.00146326                0.00000000                0.02530333               -0.00302652
               7.00000000                2.00000000                0.00000000                1.00000000                0.00000000                0.00000000               -0.00004357                0.00000000                0.06407964               -0.01920000
               8.00000000                2.00000000                0.00000000                1.00000000                0.00000000               -0.00000000               -0.06685960               -0.00000000                0.15574990               -0.02685784
               9.00000000                2.00000000                0.00000000                1.00000000               -0.00000000               -0.00000000               -0.69578446               -0.00000000                0.43283456               -0.13476649
              10.00000000                2.00000000                0.00000000                1.00000000               -0.00000000               -0.00000000               -1.76179910                0.00000000                1.03994301               -0.20789998
               0.00000000                3.00000000                0.00000000                1.00000000                0.00000000               -0.00000000                1.38462140               -0.00000000                0.80996066                0.13493908
               1.00000000                3.00000000                0.00000000                1.00000000               -0.00000000                0.00000000                0.65481571                0.00000000                0.33483602                0.05488801
               2.00000000                3.00000000                0.00000000                1.00000000               -0.00000000               -0.00000000                0.03973631               -0.00000000                0.15726961               -0.03596653
               3.00000000                3.00000000                0.00000000                1.00000000               -0.00000000               -0.00000000                0.00329237                0.00000000                0.06257560               -0.00957991
               4.00000000                3.00000000                0.00000000                1.00000000                0.00000000               -0.00000000                0.00118081               -0.00000000                0.02538918               -0.00449390
               5.00000000                3.00000000                0.00000000                1.00000000                0.00000000               -0.00000000               -0.00000305                0.00000000                0.01509858               -0.00309592
               6.00000000                3.00000000                0.00000000                1.00000000                0.00000000                0.00000000               -0.00064324                0.00000000                0.02205582               -0.00531428
               7.00000000                3.00000000                0.00000000                1.00000000               -0.00000000               -0.00000000               -0.00894658               -0.00000000                0.04908073               -0.01156217
               8.00000000                3.00000000                0.00000000                1.00000000               -0.00000000                0.00000000                0.03153387                0.00000000                0.11955003               -0.02288954
               9.00000000                3.00000000                0.00000000                1.00000000               -0.00000000                0.00000000               -0.41150629               -0.00000000                0.32649818               -0.04302622
              10.00000000                3.00000000                0.00000000                1.00000000                0.00000000               -0.00000000               -1.57197511                0.00000000                0.88581927               -0.00651250
               0.00000000                4.00000000                0.00000000                1.00000000               -0.00000000               -0.00000000                1.31884917                0.00000000                0.77673874                0.01643181
               1.00000000                4.00000000                0.00000000                1.00000000                0.00000000               -0.00000000                0.51072339               -0.00000000                0.32568002               -0.02295107
               2.00000000                4.00000000                0.00000000                1.00000000               -0.00000000                0.00000000               -0.07260810                0.00000000                0.17836726               -0.05004259
               3.00000000                4.00000000                0.00000000                1.00000000                0.00000000               -0.00000000                0.01272472               -0.00000000                0.06981748               -0.00554955
               4.00000000                4.00000000                0.00000000                1.00000000                0.00000000                0.00000000                0.00091745                0.00000000                0.02677332               -0.00206028
               5.00000000                4.00000000                0.00000000                1.00000000               -0.00000000               -0.00000000                0.00024104               -0.00000000                0.01478974               -0.00212527
               6.00000000                4.00000000                0.00000000                1.00000000               -0.00000000               -0.00000000               -0.00093417                0.00000000                0.01815620               -0.00414589
               7.00000000                4.00000000                0.00000000                1.00000000               -0.00000000               -0.00000000               -0.00415458                0.00000000                0.04008921               -0.00914947
               8.00000000                4.00000000                0.00000000                1.00000000                0.00000000               -0.00000000                0.01383883                0.00000000                0.09793773               -0.01626199
               9.00000000                4.00000000                0.00000000                1.00000000               -0.00000000               -0.00000000               -0.30547166               -0.00000000                0.27359738                0.01023504
              10.00000000                4.00000000                0.00000000                1.00000000                0.00000000                0.00000000               -1.38554961                0.00000000                0.75302673                0.08371380
               0.00000000                5.00000000                0.00000000                1.00000000               -0.00000000                0.00000000                1.24028157               -0.00000000                0.72247675               -0.06900532
               1.00000000                5.00000000                0.00000000                1.00000000                0.00000000               -0.00000000                0.34270042                0.00000000                0.29380483               -0.06618385
               2.00000000                5.00000000                0.00000000                1.00000000               -0.00000000               -0.00000000               -0.11731424               -0.00000000                0.16603752               -0.03869561
               3.00000000                5.00000000                0.00000000                1.00000000                0.00000000               -0.00000000                0.01587739                0.00000000                0.06684471               -0.00195781
               4.00000000                5.00000000                0.00000000                1.00000000               -0.00000000               -0.00000000                0.00063451                0.00000000                0.02589090               -0.00024992
               5.00000000                5.00000000                0.00000000                1.00000000                0.00000000                0.00000000                0.00035365               -0.00000000                0.01354572               -0.00121745
               6.00000000                5.00000000                0.00000000                1.00000000               -0.00000000                0.00000000               -0.00054887               -0.00000000                0.01500036               -0.00325779
               7.00000000                5.00000000                0.00000000                1.00000000                0.00000000                0.00000000               -0.00352178                0.00000000                0.03130500               -0.00777960
               8.00000000                5.00000000                0.00000000                1.00000000               -0.00000000               -0.00000000                0.00943320               -0.00000000                0.07751903               -0.01366766
               9.00000000                5.00000000                0.00000000                1.00000000                0.00000000                0.00000000               -0.20804174                0.00000000                0.22232311                0.04554567
              10.00000000                5.00000000                0.00000000                1.00000000               -0.00000000               -0.00000000               -1.19803305               -0.00000000                0.64553696                0.15022972
               0.00000000                6.00000000                0.00000000                1.00000000               -0.00000000                0.00000000                1.13109267               -0.00000000                0.64596041               -0.12476508
               1.00000000                6.00000000                0.00000000                1.00000000                0.00000000               -0.00000000                0.20360406                0.00000000                0.25614116               -0.08360805
               2.00000000                6.00000000                0.00000000                1.00000000                0.00000000               -0.00000000               -0.11063837               -0.00000000                0.14488539               -0.02851279
               3.00000000                6.00000000                0.00000000                1.00000000               -0.00000000                0.00000000                0.01375466                0.00000000                0.06092464               -0.00065059
               4.00000000                6.00000000                0.00000000                1.00000000               -0.00000000               -0.00000000                0.00077263                0.00000000                0.02401287                0.00063877
               5.00000000                6.00000000                0.00000000                1.00000000               -0.00000000               -0.00000000                0.00039147               -0.00000000                0.01209636               -0.00056555
               6.00000000                6.00000000                0.00000000                1.00000000               -0.00000000               -0.00000000               -0.00041285                0.00000000                0.01209007               -0.00244437
               7.00000000                6.00000000                0.00000000                1.00000000               -0.00000000               -0.00000000               -0.00219759               -0.00000000                0.02319553               -0.00587713
               8.00000000                6.00000000                0.00000000                1.00000000               -0.00000000                0.00000000                0.00400494                0.00000000                0.05251219               -0.00944103
               9.00000000                6.00000000                0.00000000                1.00000000                0.00000000               -0.00000000               -0.11546035               -0.00000000                0.14383741                0.05704085
              10.00000000                6.00000000                0.00000000                1.00000000               -0.00000000                0.00000000               -0.88301929                0.00000000                0.51714623                0.20468758
               0.00000000                7.00000000                0.00000000                1.00000000                0.00000000                0.00000000                0.99855512                0.00000000                0.56567171               -0.15692631
               1.00000000                7.00000000                0.00000000                1.00000000               -0.00000000               -0.00000000                0.10477637                0.00000000                0.23067939               -0.08853484
               2.00000000                7.00000000                0.00000000                1.00000000                0.00000000                0.00000000               -0.11629629                0.00000000                0.13988381               -0.02145171
               3.00000000                7.00000000                0.00000000                1.00000000               -0.00000000               -0.00000000                0.01309225                0.00000000                0.05865465                0.00079122
               4.00000000                7.00000000                0.00000000                1.00000000               -0.00000000                0.00000000                0.00068647               -0.00000000                0.02231295                0.00163593
               5.00000000                7.00000000                0.00000000                1.00000000                0.00000000               -0.00000000                0.00040153                0.00000000                0.01048082               -0.00000511
               6.00000000                7.00000000                0.00000000                1.00000000                0.00000000               -0.00000000               -0.00028690               -0.00000000                0.00963538               -0.00190596
               7.00000000                7.00000000                0.00000000                1.00000000               -0.00000000                0.00000000               -0.00123704                0.00000000                0.01771362               -0.00351391
               8.00000000                7.00000000                0.00000000                1.00000000               -0.00000000               -0.00000000               -0.00033585                0.00000000                0.03655059                0.00081320
               9.00000000                7.00000000                0.00000000                1.00000000                0.00000000                0.00000000               -0.04413736                0.00000000                0.08521056                0.06149768
              10.00000000                7.00000000                0.00000000                1.00000000               -0.00000000                0.00000000               -0.52658737               -0.00000000                0.35324960                0.17769680
               0.00000000                8.00000000                0.00000000                1.00000000                0.00000000               -0.00000000                0.85948118                0.00000000                0.49486454               -0.18941193
               1.00000000                8.00000000                0.00000000                1.00000000               -0.00000000               -0.00000000                0.02653018               -0.00000000                0.21539977               -0.07879752
               2.00000000                8.00000000                0.00000000                1.00000000               -0.00000000               -0.00000000               -0.15166810                0.00000000                0.15043421               -0.00039627
               3.00000000                8.00000000                0.00000000                1.00000000                0.00000000                0.00000000                0.01100329                0.00000000                0.06120017                0.01047809
               4.00000000                8.00000000                0.00000000                1.00000000                0.00000000               -0.00000000                0.00006635               -0.00000000                0.02026673                0.00473442
               5.00000000                8.00000000                0.00000000                1.00000000               -0.00000000               -0.00000000                0.00052688               -0.00000000                0.00870972                0.00025823
               6.00000000                8.00000000                0.00000000                1.00000000               -0.00000000                0.00000000               -0.00015663                0.00000000                0.00769384               -0.00195733
               7.00000000                8.00000000                0.00000000                1.00000000                0.00000000               -0.00000000               -0.00091603               -0.00000000                0.01449751               -0.00345973
               8.00000000                8.00000000                0.00000000                1.00000000               -0.00000000                0.00000000               -0.00146160               -0.00000000                0.03747474                0.00702088
               9.00000000                8.00000000                0.00000000                1.00000000                0.00000000                0.00000000               -0.00721088                0.00000000                0.08109268                0.08177605
              10.00000000                8.00000000                0.00000000                1.00000000               -0.00000000                0.00000000               -0.40126035                0.00000000                0.27040450                0.14588834
               0.00000000                9.00000000                0.00000000                1.00000000               -0.00000000               -0.00000000                0.69300896               -0.00000000                0.39215214               -0.26705635
               1.00000000                9.00000000                0.00000000                1.00000000               -0.00000000                0.00000000               -0.03637042                0.00000000                0.19211251               -0.04279143
               2.00000000                9.00000000                0.00000000                1.00000000               -0.00000000               -0.00000000               -0.28470254                0.00000000                0.17087767                0.08440369
               3.00000000                9.00000000                0.00000000                1.00000000                0.00000000               -0.00000000               -0.02462163                0.00000000                0.06934239                0.05040888
               4.00000000                9.00000000                0.00000000                1.00000000                0.00000000               -0.00000000                0.00351970                0.00000000                0.01894927                0.00971283
               5.00000000                9.00000000                0.00000000                1.00000000               -0.00000000                0.00000000                0.00029274               -0.00000000                0.00961876               -0.00083891
               6.00000000                9.00000000                0.00000000                1.00000000               -0.00000000               -0.00000000               -0.00005331                0.00000000                0.00684646               -0.00183870
               7.00000000                9.00000000                0.00000000                1.00000000                0.00000000                0.00000000               -0.00037762               -0.00000000                0.01003561               -0.00560903
               8.00000000                9.00000000                0.00000000                1.00000000                0.00000000                0.00000000               -0.00407612                0.00000000                0.03553046               -0.00771119
               9.00000000                9.00000000                0.00000000                1.00000000               -0.00000000               -0.00000000                0.08073040               -0.00000000                0.11880631                0.08910951
              10.00000000                9.00000000                0.00000000                1.00000000               -0.00000000               -0.00000000               -0.45568251               -0.00000000                0.26536499                0.20308485
               0.00000000               10.00000000                0.00000000                1.00000000               -0.00000000                0.00000000                0.65210115               -0.00000000                0.10536693               -0.44844809
               1.00000000               10.00000000                0.00000000                1.00000000                0.00000000               -0.00000000               -0.07736952                0.00000000               -0.01478325                0.01386469
               2.00000000               10.00000000                0.00000000                1.00000000                0.00000000                0.00000000               -0.50667439                0.00000000                0.10125418                0.33725581
               3.00000000               10.00000000                0.00000000                1.00000000               -0.00000000                0.00000000               -0.13840703                0.00000000                0.12885923                0.16006068
               4.00000000               10.00000000                0.00000000                1.00000000               -0.00000000                0.00000000               -0.00008270               -0.00000000                0.05200117                0.02104419
               5.00000000               10.00000000                0.00000000                1.00000000                0.00000000               -0.00000000               -0.00093750               -0.00000000                0.01774698                0.00256152
               6.00000000               10.00000000                0.00000000                1.00000000                0.00000000                0.00000000                0.00082635                0.00000000                0.00938472               -0.00168110
               7.00000000               10.00000000                0.00000000                1.00000000               -0.00000000               -0.00000000                0.00261412                0.00000000                0.01161195               -0.00794527
               8.00000000               10.00000000                0.00000000                1.00000000               -0.00000000                0.00000000                0.01337178               -0.00000000                0.01526116               -0.02890175
               9.00000000               10.00000000                0.00000000                1.00000000               -0.00000000                0.00000000                0.10536231                0.00000000                0.01131318                0.01894693
              10.00000000               10.00000000                0.00000000                1.00000000                0.00000000               -0.00000000               -0.57378454                0.00000000                0.07748029                0.38656722
               0.00534983                0.01100127                1.01834663                1.00000000               -0.50505134               -0.51211290                1.78122053               -0.14794972               -0.05334454                0.50188672
               1.00029932                0.00747925                1.01260073                1.00000000               -0.34825626               -0.37980192                1.26454601               -0.12409770               -0.27683849                0.24957499
               1.99838470                0.00379758                1.00668831                0.88292638               -0.08775341               -0.25878706                0.72591416               -0.11440153               -0.39778622                0.02781469
               2.99854425                0.00086459                1.00144981                0.46534838                0.06469454               -0.09311315                0.23407405               -0.03868563               -0.24931087               -0.09234178
               3.99967860               -0.00007510                0.99986040                0.37941666                0.07364985               -0.00703969               -0.04189955               -0.00912734                0.17510119               -0.08920928
               5.00001724               -0.00005133                0.99994136                0.38197893                0.01387504                0.00139951               -0.12902543                0.00834193                0.38939028               -0.07739411
               5.99995610               -0.00001565                0.99985896                0.43884682               -0.02748368                0.00534556               -0.25637121               -0.01533455                0.32623403               -0.06896756
               6.99946757               -0.00091072                0.99913362                0.61282308               -0.02307434                0.07259307               -0.54140224               -0.11461911               -0.06724967               -0.12147967
               7.99949461               -0.00470632                0.99237055                1.00000000                0.14779089                0.31341162               -0.94759346               -0.18460984               -0.35163266               -0.04407217
               9.00242339               -0.00868182                0.98436046                1.00000000                0.45862960                0.47854338               -1.53348234               -0.15255416               -0.15996082               -0.19359083
              10.00866720               -0.01207377                0.97749239                1.00000000                0.62438122                0.63824141               -2.15412326               -0.16018415                0.14991681               -0.51822087
               0.00739235                1.00588014                1.01486782                1.00000000               -0.47321687               -0.39484015                1.57805678               -0.07981628                0.18922566                0.40861103
               1.00266018                1.00368123                1.00932566                1.00000000               -0.34221662               -0.28892708                1.05381629               -0.08498569               -0.00792172                0.16374795
               2.00054802                1.00120971                1.00404938                0.39549151               -0.12832241               -0.18358275                0.56785814               -0.04954067               -0.04441321               -0.06767479
               3.00009373                0.99993346                1.00046059                0.00010000               -0.02513675               -0.04863757                0.18871330                0.02970784                0.14951444               -0.13501905
               4.00004528                0.99985450                0.99998867                0.00010000               -0.00113976               -0.00069637                0.01160706                0.02739890                0.31440285               -0.13809200
               5.00007094                0.99996266                0.99999101                0.00010000                0.00935793                0.00064446               -0.05393510                0.01466536                0.36824011               -0.05575494
               6.00023244                1.00003780                0.99992565                0.00010000                0.02978866               -0.00073064               -0.16878961                0.00747450                0.43177959                0.03897669
               7.00066671                0.99981521                0.99991489                0.01130471                0.06508109                0.03593581               -0.39692279               -0.02183886                0.33309461                0.00738735
               8.00153406                0.99842780                0.99623012                0.82577845                0.19574306                0.22188685               -0.77001601               -0.08243565                0.05908746                0.09125391
               9.00458157                0.99610361                0.98915049                1.00000000                0.44616198                0.36670787               -1.33384742               -0.11070982                0.04553357               -0.02595331
              10.01045730                0.99430865                0.98136730                1.00000000                0.58757307                0.49973830               -1.89280952               -0.09288491                0.26136943               -0.37661776
               0.00815132                2.00310446                1.01442001                1.00000000               -0.48812917               -0.22653730                1.48278260               -0.10501287                0.21553314                0.34474866
               1.00327003                2.00170071                1.00789131                1.00000000               -0.35048297               -0.15661742                0.88775917               -0.11451796                0.03319276                0.11138493
               2.00114166                2.00012593                1.00179974                0.05679078               -0.13882069               -0.07846876                0.30063041               -0.03920952                0.14809214               -0.10160498
               3.00049362                1.99989184                0.99983440                0.00010000               -0.04721460               -0.00146285                0.02658151                0.01585328                0.55484837               -0.17795918
               4.00019737                1.99991097                1.00003558                0.00010000               -0.01831837                0.00502809               -0.01437265                0.01391631                0.64455924               -0.11093713
               5.00012725                1.99996156                0.99999449                0.00010000                0.00278318                0.00031896               -0.07607015                0.00694066                0.62255392               -0.07411111
               6.00025303                1.99996973                0.99998537                0.00010000                0.02567741               -0.00454730               -0.14309788               -0.00827198                0.68656784               -0.02826358
               7.00064080                1.99980800                0.99999956                0.00010000                0.06522329                0.00345819               -0.37532746               -0.02071089                0.80039082                0.02382973
               8.00155750                1.99973142                0.99933140                0.15271799                0.18437746                0.06716519               -0.62730359               -0.07471142                0.43481830                0.10780291
               9.00432835                1.99865234                0.99304216                1.00000000                0.44209655                0.17330631               -1.08249933               -0.15635062                0.07020296                0.05765795
              10.01039943                1.99792100                0.98238201                1.00000000                0.60710845                0.28131134               -1.70339558               -0.15308904                0.08169586               -0.21905844
               0.00809961                3.00134939                1.01384621                1.00000000               -0.47512464               -0.14700723                1.41204553               -0.09924776                0.20561197                0.18771366
               1.00334836                3.00054888                1.00654816                1.00000000               -0.32634552               -0.09651084                0.74128178               -0.08611426                0.06382225                0.00879355
               2.00157270                2.99964033                1.00039736                0.00010000               -0.13613021               -0.03131756                0.06224253               -0.00013341                0.33071863               -0.10855591
               3.00062576                2.99990420                1.00003292                0.00010000               -0.06594022                0.00263334               -0.27475316                0.02596428                0.79723637               -0.19214403
               4.00025389                2.99995506                1.00001181                0.00010000               -0.02373851                0.00342142               -0.03931716                0.00676017                0.81973648               -0.07339967
               5.00015099                2.99996904                0.99999997                0.00010000               -0.00166668                0.00085958               -0.08261195                0.00062227                0.82224450               -0.06474312
               6.00022056                2.99994686                0.99999357                0.00010000                0.01699107               -0.00055968               -0.13862263               -0.00780670                0.83655610               -0.03771731
               7.00049081                2.99988438                0.99991053                0.00010000                0.04874711                0.00502527               -0.15229053               -0.02078285                0.89181619                0.00478577
               8.00119550                2.99977110                1.00031534                0.03760028                0.13870873                0.00529793               -0.61672718               -0.04463811                0.85321184                0.04565104
               9.00326498                2.99956974                0.99588494                1.00000000                0.38313462                0.07250077               -0.72343540               -0.07143007                0.11951016                0.02452245
              10.00885819                2.99993488                0.98428025                1.00000000                0.55932109                0.14580689               -1.54698026               -0.10694442               -0.01934127                0.01097642
               0.00776739                4.00016432                1.01318849                1.00000000               -0.45105872               -0.10197220                1.33173405               -0.08312483                0.16504307                0.07444516
               1.00325680                3.99977049                1.00510723                0.89663543               -0.29918574               -0.06053593                0.60888838               -0.05375279                0.09163069               -0.08022397
               2.00178367                3.99949957                0.99927392                0.00010000               -0.12793127               -0.00136454               -0.13007396                0.01308472                0.49761682               -0.10346750
               3.00069817                3.99994450                1.00012725                0.00010000               -0.07579697                0.00381105               -0.08116303                0.02612570                0.90724079               -0.07767717
               4.00026773                3.99997940                1.00000917                0.00010000               -0.02751387                0.00212199               -0.09138051                0.00196300                0.93523342               -0.06993098
               5.00014790                3.99997875                1.00000241                0.00010000               -0.00430856                0.00093923               -0.08629415               -0.00181923                0.97506020               -0.04566139
               6.00018156                3.99995854                0.99999066                0.00010000                0.01264973                0.00102825               -0.09586547               -0.00703982                0.98561384               -0.01968400
               7.00040089                3.99990851                0.99995845                0.00010000                0.03989077                0.00189129               -0.10031939               -0.01494591                1.01104953                0.00860030
               8.00097938                3.99983738                1.00013839                0.02444424                0.11675408                0.00461094               -0.03773290               -0.01132324                0.81455187                0.09364386
               9.00273597                4.00010235                0.99694528                1.00000000                0.32754450                0.04428595               -0.51931066               -0.00209964                0.19950414                0.01963717
              10.00753027                4.00083714                0.98614450                1.00000000                0.47942936                0.07837111               -1.37803125               -0.04666239                0.00485973                0.12274388
               0.00722477                4.99930995                1.01240282                1.00000000               -0.42867192               -0.07059844                1.23656178               -0.06256769                0.09518227               -0.02337705
               1.00293805                4.99933816                1.00342700                0.73610101               -0.27821961               -0.03032849                0.47588739               -0.01961457                0.14845638               -0.12952549
               2.00166038                4.99961304                0.99882686                0.00010000               -0.11348006                0.01076490               -0.34078220                0.01537209                0.66023280               -0.07173221
               3.00066845                4.99998042                1.00015877                0.00010000               -0.07007331                0.00244948               -0.19544250                0.01477642                1.06851464               -0.11670783
               4.00025891                4.99999750                1.00000635                0.00010000               -0.02664949                0.00134953               -0.12622949               -0.00101005                1.07380143               -0.06060351
               5.00013546                4.99998783                1.00000354                0.00010000               -0.00544527                0.00077986               -0.08648335               -0.00285062                1.10635556               -0.03030208
               6.00015000                4.99996742                0.99999451                0.00010000                0.00887964                0.00085076               -0.05627018               -0.00631413                1.11055399               -0.00822025
               7.00031305                4.99992220                0.99996478                0.00010000                0.03125934                0.00163617                0.00417240               -0.01365178                1.08022439                0.02522408
               8.00077519                4.99986332                1.00009433                0.03019139                0.09550905                0.00341048                0.40234141                0.00394986                0.79249144                0.14482784
               9.00222323                5.00045546                0.99791958                0.93793666                0.28400896                0.02340290               -0.36497083                0.01706871                0.26407545                0.08388741
              10.00645537                5.00150230                0.98801967                1.00000000                0.42321385                0.06048689               -1.26141576               -0.01325620                0.03676932                0.27170599
               0.00645960                5.99875235                1.01131093                1.00000000               -0.38981926               -0.04396050                1.13071973               -0.03724549                0.06103448               -0.11024634
               1.00256141                5.99916392                1.00203604                0.66147803               -0.25053751               -0.01117550                0.31517378                0.01656343                0.22944034               -0.12738976
               2.00144885                5.99971487                0.99889362                0.08026638               -0.09760826                0.00862195               -0.57685242                0.02840187                0.78044008               -0.05622163
               3.00060925                5.99999349                1.00013755                0.00010000               -0.06043626                0.00137452               -0.80852275                0.01048075                1.21052489               -0.10036885
               4.00024013                6.00000639                1.00000773                0.00010000               -0.02441414                0.00094292               -0.14762376               -0.00174646                1.20143673               -0.03395161
               5.00012096                5.99999434                1.00000391                0.00010000               -0.00596140                0.00060617               -0.09070408               -0.00307402                1.21743665               -0.01291454
               6.00012090                5.99997556                0.99999587                0.00010000                0.00554958                0.00067592               -0.01627882               -0.00533828                1.20892617                0.00189575
               7.00023196                5.99994123                0.99997802                0.00010000                0.02021106                0.00213284                0.09313130               -0.01029402                1.13684561                0.03132093
               8.00052512                5.99990559                1.00004005                0.04760890                0.06032094                0.00724043                0.80215412                0.01097477                0.76928524                0.16576468
               9.00143837                6.00057041                0.99884540                0.76817678                0.23231702                0.00797601               -0.24228292                0.03850804                0.37966889                0.13212308
              10.00517146                6.00204688                0.99116981                1.00000000                0.37330882                0.01373354               -1.22430750                0.00150305                0.18890173                0.43674350
               0.00565672                6.99843074                1.00998555                1.00000000               -0.33499232               -0.03232343                1.01387367               -0.00715647                0.06441533               -0.17394636
               1.00230679                6.99911465                1.00104776                0.65834930               -0.21289395                0.00240527                0.15805946                0.04736660                0.28906531               -0.10725882
               2.00139884                6.99978548                0.99883704                0.18383535               -0.08601237                0.01405826               -0.76995614                0.04743744                0.85026778               -0.04021094
               3.00058655                7.00000791                1.00013092                0.00010000               -0.05878543                0.00556434               -1.23488728                0.01168159                1.26470156                0.05204183
               4.00022313                7.00001636                1.00000686                0.00010000               -0.02408691                0.00204783               -0.18042442               -0.00227124                1.28080554                0.00866733
               5.00010481                6.99999995                1.00000402                0.00010000               -0.00633878                0.00041189               -0.10113407               -0.00346427                1.29982764                0.01075909
               6.00009635                6.99998094                0.99999713                0.00010000                0.00361640                0.00024352                0.01609961               -0.00395251                1.28822553                0.00757350
               7.00017714                6.99996486                0.99998763                0.00010000                0.01345761                0.00120870                0.16896135               -0.00298943                1.17911537                0.02331333
               8.00036551                7.00000813                0.99999664                0.08080685                0.03374847                0.00823096                1.16180615                0.02498707                0.74288799                0.14324573
               9.00085211                7.00061498                0.99955863                0.69856842                0.15834950                0.01236760               -0.08243477                0.05706944                0.51948117                0.15676137
              10.00353250                7.00177697                0.99473413                1.00000000                0.26803904               -0.02939962               -1.17518813               -0.00717174                0.39162169                0.38698033
               0.00494865                7.99810588                1.00859481                1.00000000               -0.27946478               -0.05506502                0.88620675                0.02385463                0.06865020               -0.24000558
               1.00215400                7.99921202                1.00026530                0.72365619               -0.17221517                0.02287171                0.04022375                0.07522439                0.31438703               -0.08149563
               2.00150434                7.99999604                0.99848332                0.31372804               -0.07709980                0.05292770               -0.88389030                0.06013474                0.88487391               -0.02214498
               3.00061200                8.00010478                1.00011003                0.00010000               -0.06508374                0.02480883               -1.17440693                0.00790921                1.31657106                0.15003768
               4.00020267                8.00004734                1.00000066                0.00010000               -0.02624523                0.00403845               -0.22493646               -0.00679177                1.29752692                0.08328448
               5.00008710                8.00000258                1.00000527                0.00010000               -0.00628644               -0.00041690               -0.11976980               -0.00377691                1.35546066                0.03704141
               6.00007694                7.99998043                0.99999843                0.00010000                0.00289390                0.00003363                0.04149091               -0.00325344                1.34878352                0.00670254
               7.00014498                7.99996540                0.99999084                0.00010000                0.01489045               -0.00104756                0.22612650                0.00065010                1.21584691                0.00458706
               8.00037475                8.00007021                0.99998538                0.14698819                0.03329758               -0.00426220                1.41481310                0.04210782                0.73185705                0.04949300
               9.00081093                8.00081776                0.99992789                0.75584392                0.11646488                0.01380592                0.11984679                0.08623160                0.55845656                0.18621138
              10.00270405                8.00145888                0.99598740                1.00000000                0.18931182                0.01269402               -0.98310608                0.02016998                0.43205788                0.19756151
               0.00392152                8.99732944                1.00693009                1.00000000               -0.20003963               -0.12951808                0.75208775                0.02951612                0.06261006               -0.26323697
               1.00192113                8.99957209                0.99963630                0.88775876               -0.11063724                0.04633111               -0.04934939                0.06063851                0.24870057               -0.04369418
               2.00170878                9.00084404                0.99715297                0.52137408               -0.06138506                0.16882604               -0.85643291                0.02201014                0.84694357               -0.01503381
               3.00069342                9.00050409                0.99975378                0.00010000               -0.07596420                0.07479129               -1.11056976               -0.00351590                1.27618454                0.19529058
               4.00018949                9.00009713                1.00003520                0.00010000               -0.02986181                0.00815488               -0.26676705               -0.00975668                1.27968996                0.16889270
               5.00009619                8.99999161                1.00000293                0.00010000               -0.00605141                0.00115164               -0.14243817               -0.00125714                1.39766165                0.06423294
               6.00006846                8.99998161                0.99999947                0.00010000                0.00020843                0.00013812                0.05875632               -0.00153962                1.39764626                0.00370727
               7.00010036                8.99994391                0.99999622                0.00010000                0.01434200               -0.00224277                0.27952744               -0.00437903                1.23219463               -0.04038906
               8.00035530                8.99992289                0.99995924                0.31152956                0.05438535               -0.01796132                1.48472057                0.03625249                0.77287385               -0.02860713
               9.00118806                9.00089110                1.00080730                1.00000000                0.11491726               -0.03141456                0.25113105                0.07050827                0.50827656                0.14556259
              10.00265365                9.00203085                0.99544317                1.00000000                0.14655868                0.12033944               -0.69152476                0.01751323                0.23860811                0.09759410
               0.00105367                9.99551552                1.00652101                1.00000000               -0.12015018               -0.18139174                0.65360351                0.17552757               -0.16179242               -0.29238206
               0.99985217               10.00013865                0.99922630                1.00000000               -0.00205638                0.05665612               -0.13293005                0.18595619               -0.03426098               -0.00430163
               2.00101254               10.00337256                0.99493326                0.84044701                0.07182124                0.25285212               -0.89033263                0.00347450                0.64155203                0.07797578
               3.00128859               10.00160061                0.99861593                0.37166400               -0.02462650                0.10965180               -1.25229246               -0.09858897                1.25685729                0.31012262
               4.00052001               10.00021044                0.99999917                0.35039586               -0.05555613                0.01133136               -0.32359763               -0.04569768                1.37703417                0.27603040
               5.00017747               10.00002562                0.99999063                0.36425350               -0.02130823                0.00340043               -0.18010338               -0.00323443                1.48224910                0.10695570
               6.00009385                9.99998319                1.00000826                0.39931924               -0.00306751                0.00015761                0.06167723               -0.00271514                1.47138805                0.00430279
               7.00011612                9.99992055                1.00002614                0.46948887                0.00293822               -0.00233624                0.31121693               -0.01203399                1.26843672               -0.10393527
               8.00015261                9.99971098                1.00013372                0.74193359               -0.00014939               -0.02119056                1.58457218               -0.00682320                0.68677273               -0.10782555
               9.00011313               10.00018947                1.00105362                1.00000000                0.03110957               -0.07016258                0.29530432                0.10024135                0.30342778                0.03175988
              10.00077480               10.00386567                0.99426215                1.00000000                0.06616712                0.18348237               -0.55469561                0.17973559               -0.08260373                0.13716206
               0.01042491                0.01699535                2.03562441                1.00000000               -0.43033570               -0.48965059                1.72799153               -0.10097996               -0.25349939                0.23619130
               1.00612155                0.01154163                2.02529092                1.00000000               -0.36148560               -0.35572563                1.26362034               -0.10421375               -0.24656577                0.01258395
               2.00319519                0.00583416                2.01451828                0.95512045               -0.21399272               -0.22990849                0.76582598               -0.09233928               -0.26700099               -0.09689207
               3.00184170                0.00013161                2.00468148                0.49668513                0.09076409               -0.12165777                0.29632896                0.12718552               -0.06904295               -0.11707815
               4.00501048               -0.00204073                1.99916201                0.40682487                0.29737724               -0.08962865               -0.01173012                0.08577540                0.45992201               -0.05391454
               5.00778924               -0.00164719                1.99741949                0.41313126                0.11609729                0.04789627               -0.22510621               -0.00974210                0.78407392               -0.01173799
               6.00733242               -0.00151273                1.99487258                0.48791038               -0.08229088                0.21658624               -0.49898506                0.02068094                0.60547492                0.00998416
               7.00614342               -0.00399215                1.98917196                0.70505902                0.02040382                0.32739478               -0.82452025                0.06700769                0.30804170                0.02743392
               8.00774050               -0.00860059                1.98104813                1.00000000                0.27677559                0.34648089               -1.13220280               -0.05242096                0.08545006                0.00089306
               9.01167893               -0.01345187                1.96933035                1.00000000                0.44969870                0.42511150               -1.52443673               -0.06622608               -0.08836552               -0.08769453
              10.01673447               -0.01811422                1.95691753                1.00000000                0.50555387                0.56922552               -1.99611576               -0.06030494               -0.17635610               -0.11450997
               0.01486883                1.01209884                2.03156114                1.00000000               -0.42088174               -0.45393850                1.65691486               -0.06429006               -0.04115893                0.34645725
               1.01066001                1.00798437                2.02107633                1.00000000               -0.34460069               -0.32682125                1.16884292               -0.07006016                0.02361220                0.06535045
               2.00797681                1.00353507                2.01135716                0.62617866               -0.18045064               -0.21071209                0.69515471               -0.06228885                0.14208379               -0.18863742
               3.00705100                0.99891503                2.00377427                0.00010000               -0.06095903               -0.16315650                0.24969411                0.22736722                0.41394232               -0.22922889
               4.00675763                0.99706298                2.00023214                0.00010000                0.01884117               -0.01005731                0.01941319                0.38186774                0.71154955               -0.19896138
               5.00742782                0.99883177                1.99892130                0.00010000                0.09770393                0.00780065               -0.14136557                0.41510980                0.81722244               -0.11285482
               6.00871171                1.00065313                1.99662421                0.00010000                0.14648037                0.04397741               -0.37200703                0.34219429                0.75397417                0.03073799
               7.01035743                0.99928180                1.99206154                0.20616885                0.16172202                0.22365519               -0.70264085                0.23647245                0.58793801               -0.02198458
               8.01194615                0.99486422                1.98459968                1.00000000                0.27080322                0.33357134               -1.04538085               -0.02846402                0.33170739               -0.03010045
               9.01577349                0.99079924                1.97332305                1.00000000                0.44238119                0.39352933               -1.48139076               -0.03058347                0.16537680               -0.06007399
              10.02079377                0.98757803                1.96214381                1.00000000                0.50202836                0.54100526               -1.89697466               -0.01113425                0.12082138               -0.22284756
               0.01736804                2.00791658                2.02965565                1.00000000               -0.40839257               -0.35565288                1.53205931               -0.09916107                0.02098582                0.39620703
               1.01328412                2.00500521                2.01775518                1.00000000               -0.31746423               -0.25122117                0.99485820               -0.11156891                0.07451856                0.07231317
               2.01101876                2.00161991                2.00601261                0.22096402               -0.02114935               -0.15901839                0.44759099               -0.14919661                0.39160615               -0.30842635
               3.01286113                1.99686848                2.00053163                0.00010000                0.08561668               -0.15253817               -0.00472801                0.27087456                0.91910092               -0.49436348
               4.01273109                1.99775812                1.99971255                0.00010000               -0.01799222                0.07477146               -0.04577779                0.56551962                1.25470978               -0.20875291
               5.01250129                1.99850882                1.99847860                0.00010000                0.04975936               -0.00672776               -0.16789291                0.53220026                1.27436999               -0.18394877
               6.01372628                1.99936681                1.99713804                0.00010000                0.20802461               -0.07063827               -0.34818091                0.50404900                1.18791023               -0.09768739
               7.01666178                2.00048095                1.99249345                0.00010000                0.09637471                0.04275136               -0.42969195                0.29305748                1.02160164                0.17853079
               8.01565377                1.99807084                1.98745393                0.43760928                0.08458371                0.26209082               -0.89612949                0.15407211                0.80280643               -0.13985114
               9.01835345                1.99441871                1.97835001                1.00000000                0.36502175                0.28940395               -1.34992104               -0.13565777                0.43503676                0.15065872
              10.02295421                1.99270588                1.96593209                1.00000000                0.46007559                0.44395014               -1.67972070               -0.06984447                0.19287557               -0.25169552
               0.01870835                3.00498579                2.02824091                1.00000000               -0.39830573               -0.24921394                1.43313032               -0.09781692                0.04505066                0.32012072
               1.01472530                3.00295995                2.01482564                1.00000000               -0.27893736               -0.17442663                0.82521071               -0.10840075                0.09123290                0.03851759
               2.01312961                3.00035470                2.00124485                0.07564307                0.08024932               -0.10593798                0.15364367               -0.15910595                0.43460837               -0.28426827
               3.01633028                2.99586427                1.99450494                0.00010000                0.16490390                0.07260630               -0.37328659                0.13760665                1.40434027               -0.15438225
               4.01642768                2.99855841                1.99921366                0.00010000                0.00664241                0.04243617               -0.14402099                0.44656789                1.86103693               -0.19935155
               5.01646313                2.99869722                1.99834776                0.00010000                0.01964367                0.02871922               -0.19185197                0.38501933                1.63787360               -0.13904976
               6.01682056                2.99924036                1.99722755                0.00010000                0.05257111                0.01192811               -0.26521137                0.37347810                1.69196420               -0.06768428
               7.01751455                3.00013683                1.99695419                0.00010000                0.21346383               -0.01815981               -0.42999545                0.21385771                1.32028195                0.14759212
               8.02108983                3.00010604                1.98766546                0.29929919                0.04553702                0.20115230               -0.54800564                0.00504643                1.08077643                0.38209372
               9.01842529                2.99658732                1.98553129                1.00000000                0.08663585                0.19696922               -1.05977050               -0.20092449                0.75887063                0.19414410
              10.02282255                2.99645703                1.96906039                1.00000000                0.43972579                0.30047881               -1.51202249               -0.07580156               -0.02857084               -0.15015807
               0.01946338                4.00293230                2.02663468                1.00000000               -0.37161905               -0.17878813                1.33561937               -0.08421704                0.08415741                0.21729078
               1.01574719                4.00151667                2.01217777                1.00000000               -0.22655270               -0.12396338                0.67158974               -0.08056782                0.12930003               -0.00125965
               2.01493232                3.99950116                1.99739852                0.05723135                0.08311870               -0.07045229               -0.11223631                0.00736066                0.92811543               -0.29524204
               3.01740956                3.99832061                1.99837674                0.00010000                0.19485911                0.08956374               -0.24659453                0.14831055                1.84993909                0.05564869
               4.01882951                3.99860684                1.99817239                0.00010000                0.10550799                0.01154847               -0.22220059                0.29830904                1.93216991               -0.15859997
               5.01951972                3.99908321                1.99827412                0.00010000                0.04633639                0.03476193               -0.20024235                0.33371737                1.99818156               -0.09411735
               6.01975623                3.99960538                1.99808269                0.00010000                0.02767702                0.02950095               -0.20257270                0.32319148                2.00685508               -0.01639402
               7.02007326                4.00011776                1.99799361                0.00010000               -0.02260124                0.01740432               -0.18298864                0.32393111                2.03005103                0.06137648
               8.01930421                4.00209388                1.99924534                0.29182058               -0.10446467                0.14444297               -0.01445134               -0.24772328                1.36791667                0.86761774
               9.01798397                3.99835810                1.98961379                1.00000000                0.11972727                0.15951571               -0.77826173               -0.22237742                0.43624916                0.08824208
              10.02169875                3.99871546                1.97243938                1.00000000                0.37147864                0.19758915               -1.35977144               -0.07863102               -0.00101396               -0.06561162
               0.01985527                5.00141002                2.02473124                1.00000000               -0.33101828               -0.13599819                1.23075277               -0.07757981                0.12624610                0.12400667
               1.01654509                5.00048068                2.00951775                1.00000000               -0.16911911               -0.08426141                0.52560628               -0.06027174                0.14345852               -0.07111551
               2.01647289                4.99894566                1.99318436                0.09725935                0.18228598               -0.03178837               -0.39521471               -0.01250835                1.09567900               -0.35450989
               3.02019081                4.99765554                1.99609115                0.00010000                0.25791899               -0.01500660               -0.41866187                0.27652736                2.16771719               -0.65894781
               4.02163127                4.99878938                1.99747541                0.00010000                0.09740699                0.03568024               -0.29785621                0.35348857                2.23503753               -0.06556812
               5.02213895                4.99939245                1.99827033                0.00010000                0.03092841                0.03290126               -0.20489582                0.29409356                2.29249880               -0.05710735
               6.02224983                4.99983038                1.99887460                0.00010000               -0.03171389                0.02149595               -0.11452157                0.27703195                2.31569019                0.00786945
               7.02150467                5.00048491                2.00008345                0.00010000               -0.21774029                0.02429066                0.06682175                0.28919939                2.56687435                0.12393485
               8.01789503                5.00299490                2.00804683                0.30294241               -0.20742478                0.06595501                0.45438861               -0.17465762                1.50877782                0.75441716
               9.01735617                4.99977764                1.99270058                1.00000000                0.13200921                0.13226599               -0.54858893               -0.20532131                0.17606005                0.09387673
              10.02053521                5.00040882                1.97477168                1.00000000                0.31790410                0.16524780               -1.25749084               -0.06535886               -0.02012065               -0.10057281
               0.01977046                6.00021234                2.02261439                1.00000000               -0.27643445               -0.10864182                1.12044728               -0.07265859                0.10687136                0.03584238
               1.01700612                5.99983145                2.00630348                0.92498970               -0.11315830               -0.04275605                0.35470384               -0.04811075                0.10643467               -0.12840306
               2.01750730                5.99886539                1.98846295                0.17433372                0.30451353                0.03302100               -0.68059112               -0.01808301                0.75172168               -0.32417251
               3.02309639                5.99802047                1.98382954                0.00010000                0.33275355                0.17064031               -0.97289817                0.21942293                2.30222828               -0.90147738
               4.02416237                5.99932045                1.99704752                0.00010000                0.06321000                0.06955156               -0.42745626                0.29162540                2.93153641               -0.01652755
               5.02436059                5.99974123                1.99818592                0.00010000                0.00210238                0.04106869               -0.21319652                0.22910943                2.52466291               -0.02991541
               6.02420441                6.00003530                1.99967442                0.00010000               -0.08339267                0.01592630               -0.03127500                0.21967014                2.57359865                0.02376682
               7.02269273                6.00060357                2.00186263                0.00010000               -0.38430408               -0.00157304                0.29801582                0.27279093                3.02994849                0.11448755
               8.01651833                6.00341298                2.01604308                0.32793092               -0.31145571               -0.00376579                0.86690576               -0.11042093                1.61910109                0.70729425
               9.01646362                6.00100342                1.99515434                1.00000000                0.13054405                0.11375488               -0.33971815               -0.15483021               -0.11434054                0.16440734
              10.01912921                6.00202041                1.97551385                1.00000000                0.26655932                0.12566003               -1.22095821               -0.05098940               -0.13873557               -0.10276920
               0.01916388                6.99923719                2.02027747                1.00000000               -0.22340612               -0.09784939                1.00737195               -0.04808440                0.06599402               -0.05363108
               1.01692982                6.99962556                2.00316119                0.90821436               -0.06208424               -0.00249449                0.17255668               -0.01189965                0.06477669               -0.10828585
               2.01792220                6.99960608                1.98460088                0.27725248                0.35971916                0.11878874               -0.92889916                0.08941196                0.53127352               -0.17877062
               3.02412420                7.00106835                1.97530225                0.00010000                0.39104106                0.26787090               -1.35256709                0.11460098                2.36664705               -0.26503692
               4.02574302                7.00018041                1.99639151                0.00010000                0.09410414                0.11584545               -0.58174331                0.05192068                3.39145929                0.00720308
               5.02600629                7.00021383                1.99797732                0.00010000                0.00189391                0.05003427               -0.23943884                0.13596769                2.72178895               -0.01192092
               6.02578090                7.00014891                2.00032199                0.00010000               -0.12117448                0.00482097                0.03809733                0.15126543                2.79123761                0.02663843
               7.02358280                7.00045345                2.00337923                0.00010000               -0.52470666               -0.02602121                0.50074498                0.22039629                3.43673524                0.08414994
               8.01528676                7.00291958                2.02323612                0.37084735               -0.39653292               -0.11928607                1.24559841               -0.01094806                1.75490583                0.55541509
               9.01565214                7.00205273                1.99835130                1.00000000                0.10973354                0.07360661               -0.11743165               -0.06470321               -0.37774434                0.27129544
              10.01748143                7.00292202                1.97649624                1.00000000                0.18292954                0.06108843               -1.18152312               -0.04342486               -0.29691466                0.11399816
               0.01803202                7.99825535                2.01772413                1.00000000               -0.16327907               -0.12140634                0.89285274               -0.01358411                0.05733185               -0.13333384
               1.01639923                7.99978156                2.00080447                0.97949790               -0.00896385                0.02697754                0.02101431                0.04035593                0.04626306               -0.05589932
               2.01785275                8.00124116                1.98232219                0.41373711                0.42074217                0.18216541               -1.05230909                0.12477618                0.67595283                0.07573206
               3.02481408                8.00337789                1.97651186                0.00010000                0.41012777                0.21657823               -1.33587552               -0.05432704                2.31244109                0.31989290
               4.02605530                8.00163736                1.99550127                0.00010000                0.11486832                0.15994676               -0.74377118               -0.15171695                3.36799624                0.04723695
               5.02711144                8.00074192                1.99760460                0.00010000                0.04673984                0.05427373               -0.28074860                0.02385171                2.90114240                0.01216105
               6.02699010                8.00013171                2.00082982                0.00010000               -0.13907276               -0.00422961                0.09348706                0.07599818                2.97400483                0.02314779
               7.02432999                8.00008315                2.00452253                0.01662585               -0.61450049               -0.06482669                0.66459531                0.09984359                3.72300885                0.03992569
               8.01470009                8.00102726                2.02829626                0.44909557               -0.45814346               -0.18200282                1.53315648                0.08760184                1.91278627                0.23291836
               9.01516712                8.00247555                2.00239694                1.00000000                0.09110287               -0.01336064                0.12314988                0.06221878               -0.45509063                0.23794996
              10.01652215                8.00324218                1.98033788                1.00000000                0.13550282                0.03775533               -0.99634971               -0.02238751               -0.31763724                0.40253239
               0.01583979                8.99680906                2.01504175                1.00000000               -0.10886624               -0.16424176                0.79154241                0.00168231                0.05484113               -0.14963928
               1.01475113                9.00016511                1.99901301                1.00000000                0.04907974                0.04761970               -0.10480229                0.04718142                0.09470720               -0.02502989
               2.01682138                9.00324939                1.98287134                0.63285126                0.39451710                0.23788949               -1.05195347                0.04117351                0.68821664                0.21489479
               3.02264147                9.00539991                1.97778860                0.00010000                0.42616360                0.25501340               -1.28815955               -0.23064450                2.12183214                0.31219925
               4.02534466                9.00337934                1.99466466                0.00010000                0.26737474                0.19776494               -0.91718407               -0.19949633                3.35044739                0.10411279
               5.02798896                9.00129930                1.99715124                0.00010000                0.13074866                0.07109015               -0.32319502               -0.03952902                3.06884760                0.02929819
               6.02795963                9.00006432                2.00117513                0.00010000               -0.16524211               -0.00316261                0.13411630                0.01298801                3.14779844                0.01731168
               7.02468412                8.99915692                2.00559055                0.04662916               -0.66566160               -0.11108436                0.80670325                0.00642501                3.80497739               -0.00745916
               8.01464640                8.99927952                2.02969441                0.61050623               -0.50012628               -0.17663659                1.61442985                0.03182429                1.91681529                0.00706322
               9.01468160                9.00178552                2.00502262                1.00000000                0.04270119               -0.11664953                0.31176170                0.05853002               -0.33854367                0.06759506
              10.01550042                9.00367712                1.98616950                1.00000000                0.08188254                0.09315500               -0.73412915               -0.04040382               -0.09558778                0.37876617
               0.01135357                9.99497051                2.01307207                1.00000000               -0.04510293               -0.18385460                0.62491015                0.12772111               -0.03134972               -0.11465839
               1.01090254               10.00073395                1.99734140                1.00000000                0.10439253                0.05688361               -0.25141608                0.16656284                0.03681010                0.00228128
               2.01344142               10.00599895                1.98219335                0.88939177                0.45843465                0.27495659               -1.06298366                0.04921376                0.46674619                0.18746260
               3.02007123               10.00847816                1.97495415                0.37658328                0.63622862                0.30782455               -1.34210328               -0.27733877                1.94301026                0.16705701
               4.02616599               10.00559266                1.99352805                0.35224940                0.47823313                0.22133115               -1.02022745               -0.23358881                3.54260667                0.08661107
               5.02963589               10.00216372                1.99639793                0.37210805                0.16131283                0.08644165               -0.35604156               -0.11151682                3.24222652                0.04875149
               6.02939224               10.00006846                2.00123354                0.42589866               -0.21963057                0.00041470                0.15357856               -0.07185136                3.31877208                0.02946366
               7.02524328                9.99786146                2.00622434                0.53329330               -0.83421360               -0.12954574                0.89193728               -0.07278065                3.95090603               -0.00397000
               8.01270797                9.99749453                2.03169144                0.86324705               -0.66515806               -0.17849926                1.69099218               -0.07978743                1.83449997                0.01475701
               9.01194012               10.00014256                2.00590609                1.00000000               -0.03885551               -0.16429605                0.49030716                0.10638991               -0.40803454               -0.03064969
              10.01193086               10.00510528                1.98890609                1.00000000               -0.00092563                0.14281578               -0.48690289                0.13931643               -0.01532950                0.20707557
               0.02094682                0.02385164                3.05290646                1.00000000               -0.44726942               -0.50736015                1.73164544               -0.10995570               -0.21581374                0.25298666
               1.01647413                0.01616012                3.03787314                1.00000000               -0.36463494               -0.36361414                1.25957035               -0.09725608               -0.26053615               -0.00659288
               2.01365412                0.00818198                3.02200483                0.92653409               -0.19772325               -0.22393432                0.77339544               -0.08736996               -0.23344335               -0.12525973
               3.01251966                0.00033746                3.00737639                0.50366723                0.12424507               -0.08387254                0.30255840                0.12401192                0.18214451               -0.12809062
               4.01613903               -0.00329366                2.99962579                0.43648455                0.37342466               -0.13816071                0.09093340                0.11766357                0.78018941               -0.00985397
               5.01998816               -0.00328971                2.99543923                0.44922515                0.20870527               -0.00638337               -0.17977171                0.00223775                0.96720267                0.00617936
               6.02031313               -0.00331923                2.98987926                0.51480011               -0.02676531                0.17063293               -0.50120135                0.04327939                0.87750514                0.04158448
               7.01945285               -0.00614122                2.98264321                0.70635337                0.03660409                0.21952434               -0.72230233                0.07609896                0.53937968                0.03380068
               8.02104521               -0.01179155                2.96972649                1.00000000                0.26669121                0.32115467               -1.13247858               -0.02784549                0.10261718                0.15776409
               9.02478667               -0.01842111                2.95387173                1.00000000                0.44602519                0.43035814               -1.53158455               -0.09541768               -0.08164573                0.00226964
              10.02996572               -0.02481651                2.93757008                1.00000000                0.51790415                0.56536585               -1.92826905               -0.11289064               -0.10612547               -0.13889708
               0.02753879                1.01877804                3.04800612                1.00000000               -0.42023930               -0.47514066                1.63277372               -0.05414899               -0.01224547                0.34431855
               1.02333640                1.01252397                3.03270252                1.00000000               -0.34235189               -0.33812279                1.15178773               -0.04530439                0.02289963                0.00203286
               2.02069175                1.00594264                3.01795247                0.58691635               -0.19193984               -0.20561345                0.66988744               -0.02410146                0.16519014               -0.28752824
               3.01949760                0.99949873                3.00545447                0.00010000               -0.07812557               -0.05317794                0.21547847                0.10190645                0.62820455               -0.32056155
               4.01912924                0.99532473                3.00037693                0.00010000                0.02628595                0.00240272                0.04948821                0.41766509                1.08327734               -0.16254728
               5.02002332                0.99664646                2.99716370                0.00010000                0.15212184                0.00729120               -0.16884679                0.56316794                1.12664309               -0.14473323
               6.02217168                0.99838710                2.99248551                0.00010000                0.22133395                0.03659401               -0.43341369                0.45454106                1.01418871               -0.09051042
               7.02445000                0.99605403                2.98586208                0.22242177                0.23675125                0.23135934               -0.66626835                0.21684954                0.78687204                0.12295457
               8.02690670                0.99141999                2.97532250                1.00000000                0.29474896                0.28300873               -0.94232431                0.02701485                0.38291217                0.17298132
               9.03034498                0.98588247                2.95952268                1.00000000                0.41627554                0.39391895               -1.37435839               -0.04093024                0.09138338                0.04802503
              10.03523222                0.98083714                2.94342781                1.00000000                0.48872360                0.53935098               -1.83592294               -0.04817906                0.06085258               -0.17132948
               0.03237197                2.01434883                3.04506119                1.00000000               -0.39685303               -0.40026320                1.52572591               -0.08049797                0.03773220                0.44558071
               1.02840344                2.00939766                3.02778848                1.00000000               -0.30873185               -0.28136633                1.00107510               -0.07232193                0.06420760                0.01415508
               2.02619734                2.00406971                3.01075156                0.21464963               -0.16138747               -0.16867899                0.48319851               -0.01149770                0.37917598               -0.44856999
               3.02517570                1.99927390                2.99973984                0.00010000                0.05736303               -0.02636421                0.00644306                0.19654190                1.06741343               -0.52072701
               4.02734460                1.99675440                2.99912002                0.00010000                0.15067288                0.10917268               -0.08939852                0.60423918                1.56575794               -0.25103237
               5.02818915                1.99685612                2.99663663                0.00010000                0.13258928                0.03730331               -0.20952250                0.77647492                1.46723646               -0.22358042
               6.02999638                1.99741265                2.99302175                0.00010000                0.12838954               -0.03692864               -0.37706580                0.74557939                1.52866972               -0.12108264
               7.03075694                1.99848597                2.99140573                0.00010000                0.08803404                0.06410160               -0.24611687                0.42322562                1.14084069                0.01565172
               8.03175706                1.99386862                2.98140881                0.42621221                0.18969886                0.21007856               -0.68926106               -0.08507397                0.57503381                0.26762737
               9.03455092                1.98945727                2.96604373                1.00000000                0.36678633                0.31531873               -1.22822909               -0.05978203                0.22779170                0.20492087
              10.03909279                1.98597050                2.94878760                1.00000000                0.45418710                0.47936418               -1.69075847               -0.04885871                0.11898107               -0.20314492
               0.03583117                3.01077278                3.04250882                1.00000000               -0.36620917               -0.31645099                1.40933139               -0.08799347                0.05464717                0.41633954
               1.03216908                3.00689665                3.02305237                1.00000000               -0.26228037               -0.21722379                0.82694295               -0.07641016                0.07427228                0.00500502
               2.03058556                3.00256906                3.00347024                0.07875063               -0.07126613               -0.12072412                0.24903847                0.00122352                0.49906092               -0.41975578
               3.03074376                2.99897145                2.99256719                0.00010000                0.15231220                0.00986840               -0.13969115                0.33432615                1.59553773               -0.09966045
               4.03363181                2.99750819                2.99713139                0.00010000                0.20754059                0.08956246               -0.21877578                0.50451172                2.15412461               -0.23697260
               5.03489457                2.99739253                2.99616293                0.00010000                0.09108038                0.06588555               -0.23431894                0.60762059                1.90175297               -0.17279455
               6.03545341                2.99764852                2.99468934                0.00010000                0.07819851                0.02854822               -0.28341290                0.52731590                1.79336876               -0.05893465
               7.03645854                2.99733606                2.99131063                0.00010000               -0.06097438               -0.02395971               -0.42472053                0.35276799                1.74935612               -0.05451087
               8.03423393                2.99562157                2.98935523                0.30636648                0.02944593                0.14698704               -0.15726653               -0.00933709                1.00228771                0.49793867
               9.03704746                2.99218885                2.97468953                1.00000000                0.34973220                0.26203157               -1.07573977               -0.07405675                0.31380167                0.26017948
              10.04122857                2.99042443                2.95403980                1.00000000                0.41811142                0.39215555               -1.50319033               -0.03814094               -0.00846334               -0.18371609
               0.03836436                4.00801981                3.03990088                1.00000000               -0.32854015               -0.24812049                1.30002292               -0.07938772                0.07176343                0.34176634
               1.03507896                4.00505318                3.01853903                1.00000000               -0.21086767               -0.15532523                0.64548644               -0.05897802                0.09555184               -0.01879108
               2.03414701                4.00165523                2.99702919                0.02890322                0.09220632               -0.05553206                0.00426744                0.04165361                1.05896224               -0.36406924
               3.03692309                3.99947127                2.99519536                0.00010000                0.24333722                0.11886067               -0.29656788                0.29391987                2.14854081                0.07848597
               4.03901375                3.99854564                2.99556516                0.00010000                0.16390703                0.11514082               -0.27496811                0.39256166                2.27054363               -0.15447239
               5.04020123                3.99817383                2.99599756                0.00010000                0.07927074                0.07706758               -0.24473330                0.45648236                2.26967202               -0.11745372
               6.04059917                3.99798361                2.99593920                0.00010000               -0.01809833                0.04422773               -0.22025326                0.45151135                2.26374611               -0.04231916
               7.03983926                3.99800678                2.99629868                0.00010000               -0.19408162                0.05979139               -0.16881886                0.24222596                2.38158892                0.21411251
               8.03671754                3.99680836                2.99984936                0.30556118               -0.07861687                0.12661805               -0.05618179                0.03954046                1.37218827                0.54976863
               9.03826692                3.99469790                2.98138005                1.00000000                0.25706378                0.23017951               -0.84155398               -0.05113140                0.22409923                0.15580106
              10.04185881                3.99381362                2.95894908                1.00000000                0.35918877                0.29959695               -1.33978080               -0.05431933                0.00993617               -0.17397580
               0.04017666                5.00581037                3.03701787                1.00000000               -0.28225666               -0.20484248                1.19316069               -0.05929702                0.07333154                0.24645680
               1.03735410                5.00379014                3.01393913                0.95002723               -0.15880559               -0.10503836                0.46909624               -0.02946822                0.10726411               -0.05874777
               2.03700055                5.00145842                2.99092256                0.01080310                0.11888191                0.00798362               -0.19349602                0.11843630                1.28230587               -0.31276294
               3.03973174                5.00134866                2.99178554                0.00010000                0.28899617                0.16407883               -0.35585691               -0.02506302                2.51930108               -0.47870234
               4.04278048                4.99981100                2.99404922                0.00010000                0.24272552                0.11070455               -0.35045531                0.15429734                2.60008251               -0.14158319
               5.04458625                4.99893388                2.99590562                0.00010000                0.09351081                0.07576113               -0.25475277                0.32540848                2.61910005               -0.07819986
               6.04465069                4.99853308                2.99770408                0.00010000               -0.10539708                0.05099427               -0.12196235                0.34575038                2.69057499                0.00494857
               7.04247831                4.99853189                3.00130122                0.00010000               -0.31585407                0.04642121                0.06311730                0.21219265                2.93120859                0.21534227
               8.03833361                4.99815393                3.00918210                0.31584211               -0.17293648                0.10269085                0.03814307                0.05792210                1.64072678                0.45031458
               9.03901958                4.99679244                2.98694780                1.00000000                0.17885712                0.17549667               -0.59741706               -0.01618443                0.11471316                0.11814889
              10.04191075                4.99641637                2.96286985                1.00000000                0.28911782                0.22266619               -1.16000424               -0.04666095                0.00321453               -0.16300735
               0.04121887                6.00392296                3.03371987                1.00000000               -0.23773212               -0.17809958                1.07848279               -0.04542919                0.05716237                0.14893363
               1.03884155                6.00295242                3.00913012                0.81443772               -0.11308254               -0.06711039                0.31424319               -0.00916164                0.11856345               -0.08292627
               2.03895722                6.00181490                2.98528179                0.01403560               -0.03861546                0.04462064               -0.34111567                0.13415578                1.09884291               -0.24493426
               3.03806924                6.00275284                2.98067958                0.00010000                0.27786326                0.03380986               -0.07755541               -0.23290243                2.76202230               -0.67085324
               4.04451448                6.00075974                2.99145860                0.00010000                0.49590421                0.09478356               -0.52354764               -0.02335082                3.24130505               -0.18877166
               5.04798732                5.99968905                2.99573998                0.00010000                0.17008413                0.07044838               -0.27342791                0.21338107                2.97434877               -0.06525962
               6.04791617                5.99900350                2.99937037                0.00010000               -0.17625283                0.04126182               -0.02907881                0.25573274                3.07608354                0.01422012
               7.04446227                5.99893520                3.00593834                0.00989896               -0.41503689                0.02280343                0.28189725                0.16890440                3.39760452                0.19386163
               8.03961543                5.99886218                3.01737816                0.33319124               -0.23907354                0.03546640                0.13040679                0.07152836                1.86755714                0.38156602
               9.03968080                5.99820783                2.99205103                0.93920713                0.10311528                0.10029273               -0.34630095                0.02111442                0.04137264                0.11476562
              10.04167773                5.99826694                2.96675064                1.00000000                0.19969383                0.14082684               -0.90530945               -0.02441029                0.02275755               -0.10900483
               0.04120917                7.00224837                3.03013299                1.00000000               -0.19302417               -0.16240184                0.96321343               -0.04425731                0.03723983                0.06786651
               1.03927892                7.00244794                3.00449890                0.74879492               -0.06629610               -0.03551006                0.15186506               -0.01289475                0.12774917               -0.05677169
               2.03988324                7.00235083                2.98025905                0.03766576               -0.15750353                0.07126567               -0.53163771               -0.00321420                1.04679754               -0.11417148
               3.03612885                7.00202486                2.97307958                0.00010000                0.27470038                0.06317232                0.01510052               -0.25158227                2.98238735               -0.26262974
               4.04537725                7.00170667                2.98837200                0.00010000                0.72406267                0.09796003               -0.72342296                0.01366767                3.69865402               -0.22034153
               5.05061011                7.00034284                2.99521524                0.00010000                0.25709732                0.06914172               -0.31189967                0.12228572                3.32148354               -0.07136148
               6.05051920                6.99935831                3.00075908                0.00010000               -0.23061982                0.02933757                0.05239526                0.16840269                3.42595866                0.01283739
               7.04599771                6.99898796                3.01000253                0.02347196               -0.50138263               -0.01913030                0.48644564                0.10906908                3.82046597                0.15091730
               8.04049154                6.99886325                3.02490861                0.35742540               -0.29803029               -0.02959461                0.22596145                0.04754872                2.08334510                0.29580488
               9.04003710                6.99879829                2.99720999                0.89817304                0.04063962                0.03488046               -0.14142821                0.01781754               -0.01415958                0.11205703
              10.04130434                6.99923290                2.97110366                1.00000000                0.12672328                0.07846622               -0.66115922               -0.01695478                0.06327973               -0.01872312
               0.03993460                8.00067492                3.02645187                1.00000000               -0.14534025               -0.16298296                0.85764572               -0.04993746                0.05018630                0.01360376
               1.03848120                8.00224222                3.00068559                0.75455982               -0.03092951                0.00433144               -0.02380334               -0.03639749                0.19188930               -0.00186224
               2.03931601                8.00324021                2.97743714                0.09015490               -0.23997266                0.14599756               -0.74208763               -0.07058269                1.29577158                0.05280698
               3.03368175                8.00401629                2.97339252                0.00010000                0.35769187                0.31404635               -0.52700247               -0.26566909                3.05290931                0.03790549
               4.04646985                8.00271894                2.98512524                0.00010000                0.95498255                0.12229663               -0.92626188               -0.02429227                3.78901661               -0.22951996
               5.05278140                8.00107189                2.99439030                0.00010000                0.30846298                0.07207008               -0.35585630                0.06119390                3.66095871               -0.06338591
               6.05263911                7.99959025                3.00186817                0.00010000               -0.28213447                0.02829029                0.12062101                0.07733166                3.73685772                0.01255624
               7.04713871                7.99855259                3.01328275                0.03871973               -0.59415210               -0.04475188                0.67520807                0.01814741                4.13552125                0.10644218
               8.04075607                7.99827029                3.03064851                0.39098431               -0.37356053               -0.10971417                0.36662059               -0.04395791                2.26149444                0.07369527
               9.03966750                7.99890544                3.00239089                0.89232814               -0.01433259               -0.00322227                0.01077632               -0.02645162               -0.00852619                0.08315307
              10.04046942                7.99983626                2.97606040                0.97898136                0.08019175                0.09025298               -0.55846762               -0.04972849                0.08124891                0.05193286
               0.03707583                8.99898872                3.02276094                1.00000000               -0.10901473               -0.17566006                0.75821229               -0.04774443                0.09191115               -0.00813670
               1.03598568                9.00253456                2.99754025                0.81264410               -0.01891563                0.06426417               -0.20214317               -0.03660219                0.29685238                0.02390642
               2.03669752                9.00527078                2.97611391                0.17665994               -0.23244664                0.26187925               -1.03394263               -0.04050391                1.48020763                0.11318309
               3.03133675                9.00830578                2.97399059                0.00010000                0.55691460                0.32971833               -1.46952336               -0.29929105                2.97129344                0.02813570
               4.04783581                9.00415261                2.98169152                0.00010000                1.18129613                0.07484752               -1.07488449               -0.15315120                3.87312888               -0.16360051
               5.05496267                9.00178425                2.99353903                0.00010000                0.33746562                0.07176842               -0.39450431                0.01533091                3.99938319               -0.04069249
               6.05458512                8.99992412                3.00268179                0.00010000               -0.36410266                0.04326888                0.17955031                0.01562226                4.03035885                0.02041339
               7.04768062                8.99809292                3.01613029                0.04252192               -0.76627915                0.00104864                0.82171535               -0.08587583                4.23670508                0.07111941
               8.03925954                8.99666897                3.03224784                0.41759744               -0.48692614               -0.11291147                0.58380008               -0.14771380                2.34838408               -0.12263050
               9.03794210                8.99873385                3.00704254                0.95185256               -0.04057058               -0.05479493                0.21889046               -0.02803547                0.13069971                0.03840570
              10.03844813                9.00103796                2.98076059                0.96881237                0.05060304                0.13488770               -0.56638072               -0.06964860                0.06465937                0.03932271
               0.03188802                9.99716172                3.01901921                1.00000000               -0.04209249               -0.18269947                0.58171013                0.11779658                0.11386156               -0.00640540
               1.03146709               10.00352750                2.99419798                0.92876448                0.04233482                0.09929350               -0.39494423                0.11394491                0.34403092                0.05011816
               2.03273471               10.00847780                2.97367358                0.62090637               -0.13264975                0.32070196               -1.25016983               -0.04212252                1.52763291                0.15715973
               3.02881410               10.01061066                2.97177386                0.36502668                0.85968249                0.23048707               -1.61367738               -0.46536084                3.09000720                0.13386778
               4.04992836               10.00421589                2.97959462                0.35077291                1.42512028                0.00632789               -1.17354128               -0.19591460                4.07702181               -0.17295074
               5.05731650               10.00250725                2.99286979                0.37082725                0.33572595                0.07230073               -0.38974512                0.04737007                4.21440773               -0.02655367
               6.05664288               10.00045563                3.00307983                0.41822940               -0.43200809                0.05315056                0.23106363                0.00909183                4.23654062                0.03674853
               7.04867634                9.99857357                3.01786489                0.51057130               -0.97410097                0.04806496                0.92691383               -0.12260615                4.40689145                0.15241418
               8.03716086                9.99601206                3.03395356                0.70060540               -0.69692722               -0.06569125                0.73756955               -0.24806864                2.46436300               -0.20796671
               9.03473780                9.99780954                3.01085977                1.00000000               -0.13463266               -0.09243012                0.48809215                0.00566804                0.23750673                0.02491797
              10.03446821               10.00253402                2.98452410                0.99049429               -0.02695868                0.14960553               -0.41090710                0.07445566                0.06764372               -0.01065196
               0.03617528                0.03185577                4.07025732                1.00000000               -0.43628199               -0.50252826                1.72014438               -0.10489338               -0.23491078                0.27516766
               1.03181246                0.02175100                4.05048233                1.00000000               -0.35761013               -0.36413109                1.26281939               -0.08518542               -0.26273972               -0.01372464
               2.02902307                0.01143368                4.02998619                0.92101189               -0.19744185               -0.23959015                0.81372268               -0.06630881               -0.23471383               -0.15389357
               3.02786362                0.00141364                4.01073265                0.51661399                0.17641733               -0.12732836                0.37254716                0.17401188                0.30297832               -0.13861444
               4.03255142               -0.00374009                4.00098068                0.47437072                0.45081033               -0.19420988                0.16286375                0.09694366                1.00651138               -0.00822525
               5.03687983               -0.00497254                3.99382406                0.49659894                0.25635633               -0.02877501               -0.14884804               -0.01044515                1.06938624                0.00471098
               6.03767855               -0.00589355                3.98484855                0.55025974                0.01019800                0.15939800               -0.50652351                0.02278979                0.95940285                0.03292179
               7.03708379               -0.00975387                3.97472591                0.72745981                0.04428882                0.27322429               -0.80719537                0.08022007                0.61677072                0.01118922
               8.03856432               -0.01663733                3.95839856                1.00000000                0.25593213                0.32788525               -1.13700645               -0.00977836                0.13128004                0.20191791
               9.04220243               -0.02470838                3.93869866                1.00000000                0.43254686                0.42961120               -1.51054904               -0.06917175               -0.07635999                0.02095990
              10.04721526               -0.03260762                3.91835215                1.00000000                0.50128320                0.55415429               -1.90090956               -0.09139341               -0.12084475               -0.14965233
               0.04523111                1.02683048                4.06421661                1.00000000               -0.40594599               -0.47651368                1.59856491               -0.04743738               -0.00604174                0.38214605
               1.04117165                1.01810969                4.04411208                1.00000000               -0.33512198               -0.34062711                1.13575617               -0.03636322                0.04355239               -0.01240952
               2.03852867                1.00903777                4.02475491                0.57480927               -0.19905118               -0.21514628                0.69415266               -0.01707448                0.21456400               -0.35798397
               3.03719062                1.00014035                4.00808384                0.00010000               -0.09073605               -0.10362101                0.29741338                0.16286764                0.82701904               -0.41221804
               4.03671395                0.99431781                4.00122191                0.00010000                0.03307392               -0.01384436                0.12203589                0.45986963                1.35231943               -0.22726096
               5.03785210                0.99473971                3.99554436                0.00010000                0.17915811                0.00052621               -0.14728594                0.62235427                1.32543412               -0.16048668
               6.04029711                0.99570043                3.98795593                0.00010000                0.27028879                0.03174413               -0.46251044                0.50453489                1.16966488               -0.05356619
               7.04325788                0.99297838                3.97873618                0.23857386                0.28233426                0.25496539               -0.72635436                0.24744161                0.95651391                0.27267838
               8.04594379                0.98664152                3.96575319                1.00000000                0.31189882                0.30139958               -0.98217355                0.02807393                0.45353071                0.23895368
               9.04949586                0.97958774                3.94583588                1.00000000                0.41283870                0.40293279               -1.36831459               -0.01897590                0.09024661                0.06209456
              10.05420057                0.97293393                3.92542535                1.00000000                0.47047136                0.53193027               -1.77246648               -0.03383859                0.05205935               -0.17954038
               0.05266812                2.02232549                4.06017017                1.00000000               -0.37902136               -0.41787967                1.48842370               -0.06454893                0.04034200                0.49448922
               1.04887790                2.01493846                4.03777669                1.00000000               -0.30085970               -0.29000946                0.99369190               -0.05585319                0.07099450               -0.01683004
               2.04665092                2.00713075                4.01567658                0.23382793               -0.15184803               -0.16779090                0.50654977               -0.02649529                0.43802875               -0.57214592
               3.04584094                1.99934122                4.00066049                0.00010000                0.02492690               -0.08624071                0.13156238                0.31207643                1.42423220               -0.78018965
               4.04714946                1.99598302                3.99792458                0.00010000                0.10516738                0.15280039               -0.08187982                0.74486282                1.91737435               -0.38087208
               5.04794429                1.99503798                3.99428815                0.00010000                0.11905605                0.05703410               -0.22138455                0.89232251                1.78055275               -0.27651256
               6.04953058                1.99474133                3.98959673                0.00010000                0.15736201               -0.02781082               -0.36329131                0.87752921                1.85260666               -0.10915183
               7.05109153                1.99534544                3.98757111                0.00010000                0.14929308                0.05876384               -0.44346826                0.46136189                1.45835904                0.13478860
               8.05251644                1.98939066                3.97366871                0.43589017                0.22194893                0.24913703               -0.80884241               -0.00911341                0.59579232                0.43415832
               9.05553051                1.98335028                3.95378543                1.00000000                0.36648345                0.34334299               -1.22574827               -0.04193871                0.22096156                0.22952429
              10.05984611                1.97803099                3.93211692                1.00000000                0.43156034                0.48436528               -1.64161755               -0.04432059                0.11541257               -0.19389876
               0.05871420                3.01847289                4.05642754                1.00000000               -0.34648695               -0.35334572                1.37108174               -0.06862730                0.04793409                0.48695251
               1.05524933                3.01230950                4.03136449                1.00000000               -0.25590957               -0.23421829                0.83101409               -0.05694624                0.06194966               -0.02304875
               2.05359600                3.00568196                4.00622562                0.09531473               -0.03347203               -0.11816535                0.29426771               -0.05448210                0.58271762               -0.55103060
               3.05457989                2.99841554                3.99171111                0.00010000                0.11592172                0.06653817               -0.08263014                0.38476620                2.02084059               -0.39996836
               4.05591444                2.99737381                3.99483814                0.00010000                0.11801764                0.13082722               -0.19401669                0.68767813                2.57834909               -0.28401948
               5.05694024                2.99588039                3.99366138                0.00010000                0.08128996                0.09767286               -0.25028706                0.71826152                2.27290621               -0.20552832
               6.05754024                2.99514421                3.99155929                0.00010000                0.04477757                0.05014598               -0.31168062                0.67363587                2.16205883               -0.06815228
               7.05783579                2.99415365                3.98845978                0.00010000                0.01082244               -0.04680119               -0.34811216                0.45917002                2.05600060               -0.00987203
               8.05775669                2.99162426                3.98452013                0.30552951                0.10904820                0.19358587               -0.52083502                0.07255546                1.30370385                0.74349653
               9.06001675                2.98645460                3.96401650                1.00000000                0.30980271                0.29327811               -1.05924612               -0.05836500                0.23351793                0.29924120
              10.06395274                2.98262123                3.93899659                1.00000000                0.39359870                0.41874494               -1.48789952               -0.03767079               -0.01215376               -0.19003240
               0.06362235                4.01525858                4.05263514                1.00000000               -0.30924365               -0.29763615                1.25358180               -0.06218910                0.05686193                0.43526709
               1.06052991                4.01025409                4.02508750                1.00000000               -0.20835532               -0.17974308                0.66182033               -0.04773920                0.07204587               -0.02854972
               2.05945524                4.00476744                3.99748387                0.03644645                0.06572485               -0.06220791                0.07475870                0.05472405                1.18563966               -0.48485142
               3.06184441                4.00067198                3.99244538                0.00010000                0.19914656                0.20908651               -0.25940178                0.33512018                2.50840368               -0.01814464
               4.06343817                3.99859956                3.99267303                0.00010000                0.13473562                0.13452305               -0.26798101                0.49589269                2.74831932               -0.21846486
               5.06453912                3.99699144                3.99337945                0.00010000                0.06459330                0.11028224               -0.26176438                0.55352697                2.72191877               -0.15539188
               6.06473004                3.99574425                3.99367763                0.00010000               -0.03721188                0.06769856               -0.23821811                0.52717375                2.70948585               -0.01018060
               7.06379488                3.99440942                3.99461723                0.00010000               -0.15317154                0.04992232               -0.21245240                0.41665753                2.87178847                0.26448564
               8.06166661                3.99326238                3.99812171                0.30703345               -0.02143217                0.14240609               -0.24358285                0.10563586                1.63037806                0.77202200
               9.06336624                3.98921584                3.97278271                1.00000000                0.25464090                0.25075160               -0.85853587               -0.04552791                0.10813892                0.20484783
              10.06675942                3.98640589                3.94564376                1.00000000                0.33931861                0.33629352               -1.31503074               -0.04086224                0.00177057               -0.21242665
               0.06747938                5.01252017                4.04859445                1.00000000               -0.26937062               -0.25913433                1.14048417               -0.05700909                0.07021772                0.35946713
               1.06478568                5.00871464                4.01889967                0.94483297               -0.16033926               -0.13204705                0.50271128               -0.03984066                0.09133829               -0.05185387
               2.06427260                5.00443780                3.98931444                0.01501454                0.13322469               -0.00686157               -0.12955458                0.11810398                1.54603556               -0.43601833
               3.06745017                5.00259727                3.98897401                0.00010000                0.26201179                0.13186920               -0.24196464                0.29710486                3.09253401               -0.36866376
               4.06951283                5.00006428                3.99046630                0.00010000                0.17079588                0.13113373               -0.31983043                0.29893304                3.16353203               -0.28201848
               5.07086609                4.99808604                3.99317528                0.00010000                0.05764522                0.10674896               -0.26647178                0.39152918                3.18960475               -0.13483732
               6.07066574                4.99649819                3.99643535                0.00010000               -0.11076360                0.07602234               -0.15159061                0.39318769                3.26778394                0.03677730
               7.06865081                4.99515210                4.00134579                0.00693600               -0.28013799                0.06850377               -0.05411280                0.34081743                3.49184616                0.27830890
               8.06506298                4.99447238                4.00880969                0.31915089               -0.13440643                0.10277103               -0.07068490                0.12038531                1.88668082                0.58947928
               9.06596269                4.99146963                3.98075224                1.00000000                0.18462143                0.19103492               -0.63033717               -0.02864628                0.07197830                0.15250779
              10.06875541                4.98934710                3.95157160                1.00000000                0.27927195                0.26003089               -1.12321937               -0.04096657                0.00712220               -0.22280860
               0.07009322                6.01007589                4.04418405                1.00000000               -0.22777542               -0.23288216                1.03179433               -0.06139977                0.07019442                0.28278387
               1.06781546                6.00761315                4.01258834                0.80386445               -0.10792653               -0.08899907                0.34340376               -0.04363071                0.11829260               -0.08088608
               2.06793469                6.00463021                3.98164064                0.01744748                0.21722809                0.03647535               -0.34031298                0.08505402                1.72571805               -0.41512105
               3.07216003                6.00330937                3.98227844                0.00010000                0.29966892                0.02527726               -0.02706080                0.24004310                3.71523854               -0.53547045
               4.07392807                6.00122224                3.98657657                0.00010000                0.18878831                0.10213319               -0.37373464                0.19423314                3.77013610               -0.36960323
               5.07593579                5.99912642                3.99271736                0.00010000                0.07998311                0.10251249               -0.28262413                0.26126268                3.72054198               -0.14105315
               6.07552773                5.99726470                3.99909285                0.00010000               -0.16493804                0.07048332               -0.06478692                0.27500567                3.78671109                0.04122608
               7.07263703                5.99577949                4.00750057                0.01734004               -0.38854732                0.04876467                0.09500192                0.26224341                4.05384164                0.24273612
               8.06775678                5.99531780                4.01865122                0.33665679               -0.23592186                0.05464721                0.11262364                0.09701365                2.11979394                0.51792228
               9.06791859                5.99303654                3.98822832                0.94067071                0.12141816                0.12421948               -0.40430679               -0.02500437                0.03598790                0.13282796
              10.07018515                5.99160651                3.95740766                1.00000000                0.22665507                0.19453466               -0.94092521               -0.03278948                0.02439812               -0.18765426
               0.07117686                7.00786252                4.03954174                1.00000000               -0.18181238               -0.20882068                0.92448718               -0.06903211                0.04989660                0.22849900
               1.06935874                7.00693466                4.00619849                0.72855988               -0.04497000               -0.04550972                0.15879215               -0.06294669                0.12282322               -0.07006752
               2.07027746                7.00516731                3.97396812                0.04298162                0.31501328                0.09061194               -0.61200292               -0.03526431                1.88185627               -0.34427743
               3.07565901                7.00310282                3.97560426                0.00010000                0.36514884               -0.00421875               -0.04771213                0.14818839                4.24321509               -0.57662125
               4.07758044                7.00210694                3.98192305                0.00010000                0.21949361                0.12526016               -0.47809271                0.19716319                4.31924497               -0.38439470
               5.08004888                7.00013629                3.99173933                0.00010000                0.09661688                0.10119946               -0.31121719                0.17264012                4.24666858               -0.13937489
               6.07951278                6.99790785                4.00136990                0.00010000               -0.21031469                0.05977121                0.01578461                0.16490909                4.28139733                0.03377500
               7.07584258                6.99612739                4.01310814                0.02774011               -0.48832887                0.01523697                0.24724053                0.16402593                4.57014386                0.20529363
               8.06974620                6.99556533                4.02775535                0.35807596               -0.33343458               -0.00779285                0.29790148                0.04458397                2.34536884                0.43023836
               9.06917389                6.99395402                3.99552274                0.90039336                0.06067431                0.06347630               -0.19358166               -0.03307108                0.00693689                0.13853479
              10.07095969                6.99323780                3.96327305                1.00000000                0.17857947                0.15087029               -0.79239748               -0.04047462                0.02395010               -0.13049243
               0.07056831                8.00589948                4.03487705                1.00000000               -0.13165584               -0.18917722                0.81816660               -0.07252579                0.05411796                0.19965933
               1.06925175                8.00670296                4.00032841                0.72056892                0.02464685                0.00980941               -0.05668729               -0.07402801                0.15951924               -0.01911411
               2.07106124                8.00644245                3.96748044                0.09926324                0.44662056                0.20546486               -0.97767960               -0.18901192                1.85121081               -0.19127069
               3.07818416                8.00322499                3.96597181                0.00010000                0.48883082                0.22392356               -0.76376425               -0.09421448                4.58407990               -1.08282320
               4.08083786                8.00372744                3.97697603                0.00010000                0.27017612                0.17655053               -0.65043835                0.18018883                4.89075331               -0.28776920
               5.08358768                8.00115041                3.99048748                0.00010000                0.09984720                0.09348348               -0.34185439                0.08350774                4.73585325               -0.11485168
               6.08283480                7.99846012                4.00324224                0.00010000               -0.26638041                0.06765357                0.08818165                0.06982938                4.73403407                0.03048342
               7.07826007                7.99608423                4.01802669                0.03500640               -0.60064846               -0.00651136                0.40853726                0.03557066                5.01619745                0.15560229
               8.07082184                7.99516194                4.03562867                0.38162960               -0.43376840               -0.10217314                0.53378752               -0.04112680                2.57321414                0.26048182
               9.06958471                7.99430607                4.00261246                0.89442776               -0.00068686                0.00653693                0.00339147               -0.04645452                0.02554526                0.13387184
              10.07080810                7.99462391                3.96916853                0.97200637                0.12233920                0.13810441               -0.67995621               -0.04832495                0.01779704               -0.08773589
               0.06811939                9.00407898                4.03020600                1.00000000               -0.07841808               -0.17868120                0.70985422               -0.05956568                0.09232277                0.15193169
               1.06733521                9.00713085                3.99497015                0.76595722                0.09279030                0.08589440               -0.29370745               -0.04626696                0.24631188                0.00710860
               2.06997519                9.00927660                3.96219249                0.17702780                0.45772600                0.37901703               -1.37682408               -0.20963052                1.40184597               -0.07026323
               3.07648973                9.00758129                3.94839814                0.00010000                0.66418026                0.61819912               -1.96262401               -0.29362405                4.67045224               -0.89186266
               4.08325880                9.00563795                3.97316697                0.00010000                0.52483114                0.12999916               -0.79277398                0.00986510                5.76029673               -0.18356873
               5.08698635                9.00200596                3.98926115                0.00010000                0.13583727                0.09103515               -0.36482717                0.02370633                5.12804143               -0.06560155
               6.08597554                8.99926092                4.00476613                0.00010000               -0.35670849                0.07736128                0.15433242                0.01421844                5.13342144                0.03148142
               7.07985218                8.99599716                4.02202486                0.02937740               -0.76368574                0.06781581                0.53932888               -0.07458748                5.35754017                0.07688629
               8.07070183                8.99352187                4.04137041                0.39494136               -0.55346732               -0.26190982                0.93359433               -0.18669450                2.85391480                0.10440947
               9.06878283                8.99408476                4.00940043                0.94250762               -0.06721645               -0.06498023                0.22274688               -0.04934853                0.14175147                0.09438497
              10.06935750                8.99599988                3.97484189                0.95762264                0.05746669                0.13706608               -0.56450511               -0.05113842                0.01227192               -0.07743248
               0.06327326               10.00232585                4.02470627                1.00000000               -0.01444729               -0.17531254                0.53352240                0.12488637                0.19363419                0.12206211
               1.06312879               10.00842085                3.98944251                0.91263835                0.15724671                0.12899996               -0.51691208                0.16420483                0.37567919                0.01451422
               2.06641819               10.01402279                3.95718995                0.61905873                0.64107729                0.47461889               -1.60339312                0.00270629                1.50259033               -0.01179687
               3.07595033               10.01558897                3.94268060                0.35941694                1.00961507                0.80076856               -2.23296679               -0.43870788                4.90748039               -0.28558549
               4.08661049               10.00632742                3.97005722                0.35132752                0.72442520                0.06894738               -0.89199468               -0.29572346                6.11977854               -0.14335348
               5.09043884               10.00297111                3.98860303                0.37266682                0.12587349                0.09651567               -0.36208127                0.02924490                5.45184673               -0.03024457
               6.08912796               10.00000735                4.00585482                0.41960201               -0.39657265                0.07464261                0.21728910                0.03871378                5.43623261                0.03758698
               7.08250738                9.99744055                4.02476262                0.50793621               -1.00638055                0.14433827                0.65357406               -0.23865992                5.72388112                0.07278058
               8.06900035                9.98992375                4.04644283                0.69662441               -0.81938324               -0.35981202                1.22755869               -0.39185185                3.11756917               -0.04051939
               9.06611972                9.99300646                4.01566793                1.00000000               -0.15226388               -0.10782944                0.46232288                0.10576279                0.28381627                0.06734399
              10.06595508                9.99736523                3.98068795                0.98450020               -0.01646422                0.13653488               -0.36530491                0.09563457                0.07895174               -0.08008690
               0.05579859                0.04143641                5.08730935                1.00000000               -0.43081293               -0.49283037                1.68641667               -0.09818716               -0.26302240                0.31310309
               1.05149046                0.02862612                5.06312952                1.00000000               -0.35445326               -0.36446911                1.26370807               -0.07561895               -0.29056702               -0.01417013
               2.04870953                0.01556667                5.03827928                0.92680686               -0.19528583               -0.24740979                0.83960815               -0.05799078               -0.25331936               -0.18039027
               3.04758474                0.00286279                5.01482733                0.53125185                0.22341596               -0.15362670                0.43759494                0.22325992                0.39500364               -0.16619134
               4.05317784               -0.00394062                5.00288307                0.51196671                0.49616322               -0.22237637                0.20861689                0.07878133                1.12724953               -0.01696788
               5.05750801               -0.00663610                4.99246227                0.54391657                0.27107457               -0.03912664               -0.12916915               -0.01775071                1.07837234                0.00446085
               6.05859934               -0.00887557                4.97974879                0.58584855                0.03651227                0.14431622               -0.50628336                0.01228900                0.95619775                0.02957669
               7.05823825               -0.01393797                4.96649930                0.75116565                0.05493618                0.26003593               -0.82389542                0.07513154                0.63761370                0.02670443
               8.05969806               -0.02246246                4.94698636                1.00000000                0.25338128                0.33913833               -1.14855570                0.00103594                0.13117056                0.23842718
               9.06330588               -0.03227635                4.92366075                1.00000000                0.42718894                0.43139485               -1.50133761               -0.05748721               -0.10130828                0.02712153
              10.06824184               -0.04195596                4.89955189                1.00000000                0.49359583                0.54375266               -1.86161871               -0.08269718               -0.14729250               -0.17467468
               0.06762702                1.03650811                5.07997742                1.00000000               -0.39578713               -0.47043646                1.55304443               -0.04430872               -0.00509009                0.43276169
               1.06366914                1.02498143                5.05541765                1.00000000               -0.33078686               -0.34087360                1.12592875               -0.02945373                0.05341312               -0.01535054
               2.06101128                1.01309257                5.03183553                0.58910454               -0.20490779               -0.22052922                0.71852363               -0.01451583                0.25802570               -0.41189657
               3.05957099                1.00132653                5.01140274                0.00010000               -0.11480873               -0.14099843                0.34886500                0.22853202                0.99750195               -0.46815923
               4.05871510                0.99383561                5.00281765                0.00010000                0.01134930               -0.02693303                0.17996945                0.52663467                1.54140370               -0.29711642
               5.05979797                0.99297264                4.99421798                0.02545237                0.18290289               -0.00775282               -0.12402915                0.66760144                1.40646686               -0.18791634
               6.06237316                0.99256759                4.98323530                0.00959839                0.29925216                0.02509112               -0.46961214                0.54279845                1.24470707               -0.03299944
               7.06578302                0.98866239                4.97133499                0.25829875                0.32522250                0.26980551               -0.74445030                0.29876068                1.04973869                0.33428670
               8.06887761                0.98092892                4.95567903                1.00000000                0.33473680                0.31236601               -1.01824285                0.05678684                0.50827105                0.28917833
               9.07247775                0.97203759                4.93215638                1.00000000                0.41084280                0.40717486               -1.36463788               -0.01156446                0.08691127                0.07110462
              10.07709447                0.96348157                4.90797848                1.00000000                0.46167137                0.52386241               -1.72524299               -0.03079083                0.04669049               -0.20728528
               0.07796578                2.03202768                5.07482967                1.00000000               -0.36488584               -0.42306263                1.44281533               -0.05745781                0.04196398                0.55834392
               1.07431693                2.02180864                5.04766232                1.00000000               -0.29458390               -0.29282821                0.98354689               -0.04653780                0.07443188               -0.02855307
               2.07207411                2.01115608                5.02088256                0.25123329               -0.14522928               -0.16757085                0.53607639               -0.04419012                0.50496058               -0.66822064
               3.07141234                2.00004283                5.00237108                0.00010000               -0.00048386               -0.10696693                0.19108176                0.36708455                1.60657463               -0.90466284
               4.07206443                1.99552072                4.99748242                0.00010000                0.03578583                0.16218659               -0.00258857                0.88497177                2.20392892               -0.50443902
               5.07212806                1.99320885                4.99220894                0.00010000                0.08505606                0.06090095               -0.15983609                0.99695527                2.04818954               -0.33215022
               6.07376555                1.99162626                4.98575592                0.00010000                0.18620429               -0.01815080               -0.43217562                0.98861635                2.14476855               -0.07562754
               7.07585214                1.99145814                4.98253636                0.00010000                0.18465211                0.07150533               -0.52824307                0.54966482                1.64145356                0.21589142
               8.07745859                1.98378486                4.96523197                0.42719604                0.23348983                0.25547886               -0.85946593                0.01413374                0.63234759                0.54797211
               9.08052194                1.97586714                4.94152877                1.00000000                0.36397375                0.35694006               -1.22212627               -0.02499831                0.22244867                0.24937648
              10.08473807                1.96852129                4.91595524                1.00000000                0.42161281                0.48076841               -1.59731783               -0.03804284                0.12025944               -0.21995537
               0.08691594                3.02804686                5.06993046                1.00000000               -0.33059497               -0.37347225                1.32935635               -0.06064447                0.04150663                0.55912029
               1.08360999                3.01912486                5.03967265                1.00000000               -0.25113218               -0.24308167                0.82879348               -0.04757410                0.05299642               -0.03931908
               2.08189330                3.00974115                5.00935559                0.10166247               -0.05309716               -0.11433498                0.32918012               -0.07549311                0.63807986               -0.65965622
               3.08254805                2.99918719                4.99091459                0.00010000                0.06776121                0.09013243               -0.05449818                0.39139275                2.24155449               -0.49572012
               4.08324852                2.99707935                4.99325105                0.00010000                0.05417484                0.15137331               -0.13498287                0.79925536                2.97958229               -0.38124306
               5.08363154                2.99419066                4.99115719                0.00010000                0.03238372                0.11716245               -0.23720850                0.83160902                2.66033216               -0.25011864
               6.08389619                2.99220458                4.98845573                0.00010000                0.04930850                0.06388422               -0.32182844                0.78436962                2.52511424               -0.04372135
               7.08461771                2.99009250                4.98434838                0.00010000                0.04275459               -0.05238336               -0.43976068                0.54063623                2.41143500                0.02437698
               8.08475129                2.98603850                4.97893853                0.29584829                0.13118196                0.20871912               -0.60743353                0.13924649                1.36856762                0.88157092
               9.08724135                2.97917639                4.95350460                1.00000000                0.31370130                0.30959845               -1.04603371               -0.02779243                0.19011837                0.33222838
              10.09102531                2.97309694                4.92428181                1.00000000                0.37839594                0.42343893               -1.45374614               -0.03624304               -0.01249993               -0.20509125
               0.09459689                4.02455824                5.06497252                1.00000000               -0.29257390               -0.32980296                1.21513221               -0.05839112                0.04593767                0.52584015
               1.09167115                4.01694701                5.03177544                1.00000000               -0.20474851               -0.19363195                0.66960374               -0.04189835                0.05839955               -0.03755947
               2.09050192                4.00886938                4.99852437                0.03277426                0.01154272               -0.05799367                0.12401712                0.04260464                1.28422941               -0.58839818
               3.09190200                4.00184547                4.99000732                0.00010000                0.12720769                0.24775704               -0.21320376                0.37806509                2.86951814               -0.04139337
               4.09304607                3.99854818                4.99020554                0.00010000                0.08665014                0.15938716               -0.23257942                0.61539760                3.25657800               -0.27423730
               5.09363501                3.99555210                4.99076228                0.00010000                0.02525154                0.13542832               -0.25633840                0.65667545                3.20823669               -0.18177051
               6.09355110                3.99290394                4.99117484                0.00010000               -0.04020278                0.08244114               -0.26453156                0.63990201                3.19072181                0.00255540
               7.09283095                3.99041047                4.99204963                0.00010000               -0.11957383                0.05611160               -0.28970673                0.51892372                3.32445009                0.34713310
               8.09115962                3.98795924                4.99497770                0.29858556                0.00383497                0.16877514               -0.35441670                0.17790655                1.77287911                0.86154454
               9.09290765                3.98205911                4.96420933                1.00000000                0.25062471                0.26102911               -0.85436485               -0.02566447                0.05092103                0.24962283
              10.09617212                3.97699007                4.93264846                1.00000000                0.32644698                0.35496765               -1.28682920               -0.03744557                0.00009908               -0.22650434
               0.10097057                5.02145080                5.05982755                1.00000000               -0.25096950               -0.29634478                1.10457951               -0.05899298                0.06129276                0.47172792
               1.09846088                5.01525222                5.02399336                0.93220247               -0.15618238               -0.14555671                0.51067550               -0.03949273                0.08610454               -0.05339127
               2.09784693                5.00858128                4.98833147                0.00660646                0.09848353               -0.00052961               -0.07555518                0.10848362                1.79925986               -0.53514361
               3.10043055                5.00414233                4.98694624                0.00010000                0.20014629                0.17838526               -0.19806988                0.36109413                3.54110435               -0.29061372
               4.10184985                5.00026709                4.98765261                0.00010000                0.09893742                0.16813691               -0.26953304                0.45945515                3.67966975               -0.27743610
               5.10240930                4.99689922                4.99057618                0.00010000               -0.00069979                0.13759227               -0.25484963                0.49165968                3.77305134               -0.16033907
               6.10183586                4.99385340                4.99467227                0.00010000               -0.12342042                0.09947655               -0.19509323                0.48157915                3.86057311                0.05577165
               7.09994089                4.99121473                5.00021896                0.00261210               -0.25875379                0.08085515               -0.14536166                0.43551881                4.03082615                0.35304034
               8.09666078                4.98941400                5.00776841                0.31134224               -0.11218285                0.11578621               -0.13487439                0.16530893                2.10059674                0.66752664
               9.09769723                4.98439698                4.97434106                1.00000000                0.18768514                0.20173917               -0.64527576               -0.02406232                0.03555524                0.20256283
              10.10041448                4.98019629                4.94040547                1.00000000                0.27172509                0.29111652               -1.11133376               -0.03832352                0.00281561               -0.24872648
               0.10581418                6.01863134                5.05435576                1.00000000               -0.20633671               -0.26627211                0.99503782               -0.06339527                0.06611144                0.41442332
               1.10375081                6.01403588                5.01599819                0.79018505               -0.10163485               -0.09728531                0.33935435               -0.04622112                0.12551288               -0.08848675
               2.10378148                6.00885879                4.97847553                0.00746895                0.18436319                0.05220982               -0.29708543                0.08224861                2.11741054               -0.54061591
               3.10743808                6.00541318                4.98013837                0.00010000                0.28484000                0.13283635               -0.25912722                0.28299038                4.11001207               -0.47973468
               4.10947828                6.00191092                4.98398391                0.00010000                0.12219056                0.16761150               -0.27380286                0.33339999                4.29557127               -0.35816991
               5.10988189                5.99830394                4.99008750                0.00010000               -0.03055525                0.14430037               -0.24852844                0.33349424                4.38464304               -0.16924428
               6.10886718                5.99489347                4.99807463                0.00010000               -0.19505793                0.10155109               -0.12174066                0.33330554                4.50253763                0.05821762
               7.10598073                5.99202758                5.00783838                0.01218544               -0.37918108                0.06764893                0.00032700                0.32278687                4.67989878                0.31712324
               8.10128356                5.99027496                5.01963064                0.32847010               -0.21683088                0.05382829                0.08008469                0.11949298                2.41689094                0.59035085
               9.10164411                5.98609389                4.98396490                0.94355198                0.12617318                0.13939350               -0.43558830               -0.02508261                0.03931507                0.17469834
              10.10380702                5.98281240                4.94793214                1.00000000                0.21629084                0.23329486               -0.94458236               -0.03473779                0.01344698               -0.24333913
               0.10889360                7.01612536                5.04862273                1.00000000               -0.15845932               -0.23137471                0.87981725               -0.06688073                0.04729125                0.37728349
               1.10730901                7.01330652                5.00767474                0.71276553               -0.03895028               -0.04738012                0.14436045               -0.05912496                0.13046066               -0.09791258
               2.10811459                7.00962548                4.96801900                0.03240416                0.28646092                0.11658210               -0.57302975                0.02039414                2.37091466               -0.53464056
               3.11303823                7.00679906                4.97212534                0.00010000                0.37562478                0.20763857               -0.41735492                0.12117601                4.61097115               -0.71721564
               4.11562709                7.00361932                4.97881014                0.00010000                0.15292038                0.19043564               -0.33280553                0.16385698                4.89199253               -0.43517426
               5.11609663                6.99978523                4.98899089                0.00010000               -0.04243804                0.14745429               -0.25267218                0.18077372                5.02303776               -0.17074471
               6.11477833                6.99588442                5.00107477                0.00010000               -0.25407500                0.09551055               -0.04927295                0.18479393                5.12819063                0.05005470
               7.11101513                6.99256771                5.01494734                0.02017183               -0.48970042                0.03601738                0.15054864                0.18508177                5.29947864                0.27957658
               8.10498432                6.99049057                5.03086664                0.34818631               -0.31784959               -0.02050500                0.30536731                0.04840814                2.72959350                0.51434714
               9.10465814                6.98718485                4.99333836                0.90003918                0.06491965                0.08056476               -0.23001104               -0.03169682                0.04652230                0.16250341
              10.10628271                6.98486219                4.95525571                1.00000000                0.16245730                0.18501536               -0.79471205               -0.03695532                0.00903269               -0.22788296
               0.11011424                8.01400385                5.04281520                1.00000000               -0.10460514               -0.19636150                0.75650948               -0.06653806                0.04507884                0.36147619
               1.10906819                8.01308827                4.99955184                0.70038573                0.02912901                0.01280567               -0.07822023               -0.05984956                0.14453525               -0.07429048
               2.11069682                8.01119043                4.95788355                0.08411169                0.33997801                0.22652645               -0.92069276               -0.01652353                2.30133734               -0.45481384
               3.11586775                8.00956595                4.95811724                0.00010000                0.45362127                0.34803414               -0.67818628               -0.23688552                4.94470719               -1.33773612
               4.11976925                8.00571964                4.97211647                0.00010000                0.26822523                0.18903623               -0.48243641               -0.08806423                5.66971208               -0.44086198
               5.12123226                8.00125303                4.98755321                0.00010000                0.00056638                0.12857172               -0.27197092                0.04558753                5.66878234               -0.13895344
               6.11978058                7.99680368                5.00363181                0.00010000               -0.30780177                0.10283731                0.01955548                0.06032068                5.71709044                0.04281049
               7.11507622                7.99274792                5.02145349                0.02412063               -0.60729991                0.01635062                0.30699555                0.01365953                5.88640427                0.21793035
               8.10763458                7.98986486                5.04132426                0.36914372               -0.42188356               -0.12737832                0.57190447               -0.05323979                3.04774906                0.41510229
               9.10663855                7.98770519                5.00245872                0.89689417                0.00393249                0.01906155               -0.02700048               -0.03523238                0.07215834                0.15770888
              10.10771323                7.98651271                4.96246128                0.96966497                0.10746780                0.15538519               -0.65684630               -0.04285166                0.00697578               -0.22242657
               0.10939399                9.01219813                5.03695802                1.00000000               -0.04685574               -0.17007152                0.62763249               -0.05485095                0.06593364                0.29292448
               1.10892543                9.01356263                4.99166610                0.74026397                0.09562293                0.08923887               -0.32319123               -0.03066577                0.19658732               -0.05631179
               2.11130645                9.01415601                4.94857742                0.14323452                0.24229413                0.35282521               -1.28626308               -0.04756414                1.74462042               -0.29697815
               3.11377131                9.01375974                4.93473811                0.00010000                0.54361415                0.33840312               -0.99304492               -0.42636399                5.19996127               -1.08880106
               4.12217873                9.00740004                4.96583604                0.00010000                0.60765115                0.09243381               -0.67220499               -0.23854092                6.85674036               -0.32371796
               5.12592434                9.00235666                4.98624248                0.00010000                0.11555570                0.09827883               -0.29116615               -0.00676447                6.24057246               -0.07277350
               6.12448984                8.99794117                5.00576844                0.00010000               -0.38485976                0.11131574                0.08090409               -0.00172854                6.23254755                0.03103489
               7.11822714                8.99289472                5.02691687                0.02052491               -0.77637925                0.09028679                0.45808618               -0.12542232                6.43667757                0.11646999
               8.10896226                8.98794300                5.05091972                0.38423442               -0.54607469               -0.24040180                0.90835320               -0.21781442                3.40373308                0.26413402
               9.10730565                8.98756608                5.01149748                0.94537149               -0.05758076               -0.05418820                0.19215783               -0.02213231                0.12472003                0.13941065
              10.10781064                8.98796989                4.96947049                0.95653242                0.05049964                0.13637303               -0.51507228               -0.04491939               -0.00945119               -0.18941557
               0.10628822               10.01060242                5.02968966                1.00000000                0.02087803               -0.15957066                0.45051711                0.11648616                0.24228628                0.24058896
               1.10649700               10.01487305                4.98385974                0.89897624                0.16301068                0.13104226               -0.54628841                0.13938257                0.44061346               -0.05478827
               2.10954843               10.01824694                4.94160572                0.59198545                0.37997181                0.40909329               -1.48061151               -0.10275357                1.98256826               -0.22772269
               3.11409643               10.01633401                4.92711453                0.35660902                0.84265382                0.25742738               -1.20418766               -0.50141936                5.49327755               -0.61085769
               4.12640151               10.00756831                4.96175473                0.35154021                0.82297040                0.01682670               -0.74806426               -0.23349284                7.32289436               -0.26203893
               5.13055584               10.00321860                4.98562817                0.37388081                0.14032210                0.08619395               -0.29472167                0.03623477                6.66816982               -0.03636294
               6.12920795                9.99903000                5.00742562                0.42041460               -0.39949481                0.10888266                0.13463408                0.03856339                6.63869571                0.03665682
               7.12256595                9.99455366                5.03093637                0.50723004               -1.03005087                0.16589404                0.58100907               -0.26477806                6.91997276                0.07222701
               8.10860693                9.98505683                5.05850474                0.69485070               -0.81984675               -0.28861721                1.13214231               -0.43214444                3.80698126                0.21098364
               9.10616901                9.98662143                5.02010622                1.00000000               -0.12998603               -0.09446520                0.41509964                0.09550338                0.32127404                0.13096761
              10.10600721                9.98924017                4.97721800                0.98455492               -0.01617993                0.12702761               -0.32880160                0.08153099                0.09927366               -0.16073159
               0.07927447                0.05278169                6.10398565                1.00000000               -0.42432926               -0.48162901                1.64820125               -0.09159606               -0.30201094                0.35597213
               1.07503118                0.03689136                6.07575649                1.00000000               -0.35077976               -0.36214677                1.25825302               -0.06835315               -0.33274821               -0.01328103
               2.07225888                0.02071339                6.04677835                0.93993944               -0.19356374               -0.25168162                0.85454562               -0.05309646               -0.28415098               -0.19636721
               3.07115991                0.00493900                6.01948455                0.54709627                0.26012966               -0.17055842                0.48218481                0.26676275                0.45114156               -0.19751079
               4.07746147               -0.00394862                6.00515301                0.54779262                0.52108226               -0.22752587                0.23406473                0.05984310                1.17729334               -0.02056160
               5.08158155               -0.00839474                5.99124067                0.58861876                0.26520001               -0.03705408               -0.11762615               -0.01809757                1.04244376                0.00268972
               6.08276547               -0.01227504                5.97472288                0.61929210                0.05084693                0.13083517               -0.49549382                0.00605676                0.91885418                0.02332062
               7.08259849               -0.01889115                5.95824800                0.77282882                0.06304093                0.25182036               -0.82505127                0.07208931                0.62062048                0.02780610
               8.08402629               -0.02925413                5.93542745                1.00000000                0.25061227                0.34336099               -1.15788833                0.01284961                0.10227058                0.26445116
               9.08761074               -0.04115722                5.90867191                1.00000000                0.42304199                0.42990259               -1.49529398               -0.05261797               -0.13783554                0.03000087
              10.09248713               -0.05295428                5.88111978                1.00000000                0.48763946                0.53391495               -1.82993091               -0.07940006               -0.18307588               -0.20576253
               0.09424885                1.04796540                6.09527750                1.00000000               -0.38670449               -0.46211784                1.50880185               -0.04117014               -0.01023916                0.49002796
               1.09038180                1.03326989                6.06663066                1.00000000               -0.32723778               -0.33894824                1.11560502               -0.02431814                0.05528504               -0.01304411
               2.08770409                1.01819657                6.03912538                0.61431209               -0.21116327               -0.22335567                0.73547264               -0.01269920                0.28256893               -0.45288184
               3.08615854                1.00323342                6.01506114                0.00010000               -0.14886574               -0.16014467                0.37659794                0.28961060                1.13456484               -0.51817741
               4.08472678                0.99377612                6.00482129                0.03511585               -0.02973740               -0.02952730                0.20701870                0.59650041                1.68309306               -0.34784960
               5.08556379                0.99123472                5.99306378                0.07814112                0.16737340               -0.00747420               -0.11116532                0.71551076                1.43908543               -0.18233339
               6.08807424                0.98903331                5.97856369                0.04806297                0.31225688                0.01417006               -0.46104662                0.58626969                1.27978516               -0.06083049
               7.09180893                0.98362705                5.96384717                0.27928817                0.36067881                0.27705135               -0.74817032                0.34961199                1.10924244                0.39662138
               8.09528782                0.97417948                5.94538834                1.00000000                0.35628547                0.31723673               -1.03194302                0.08297246                0.53905297                0.32356960
               9.09893464                0.96314181                5.91854313                1.00000000                0.41011881                0.40734038               -1.35649723               -0.00745759                0.08478264                0.07425786
              10.10349020                0.95238486                5.89092049                1.00000000                0.45555612                0.51414163               -1.69121519               -0.03013334                0.04075135               -0.24240109
               0.10784209                2.04353933                6.08902648                1.00000000               -0.35284446               -0.42264763                1.39835548               -0.05213983                0.04028295                0.63120587
               1.10431365                2.03011239                6.05744762                1.00000000               -0.29003641               -0.29299436                0.97348594               -0.03953713                0.07761464               -0.02984518
               2.10204136                2.01624627                6.02639811                0.26653013               -0.14705413               -0.16747737                0.56432032               -0.04823539                0.55826962               -0.75098563
               3.10137257                2.00173611                6.00448213                0.00010000               -0.03255908               -0.11842585                0.22472615                0.42857691                1.77530357               -1.00650413
               4.10139018                1.99546084                5.99787281                0.00010000               -0.03689924                0.16248564                0.10534234                1.01281859                2.46463616               -0.62139134
               5.10063458                1.99145577                5.99109143                0.00010000                0.03541736                0.05449829               -0.00710081                1.09629714                2.17838575               -0.34796319
               6.10209853                1.98800836                5.98095321                0.00010000                0.19049881               -0.00912204               -0.56109935                1.09855938                2.29672806               -0.08244804
               7.10444456                1.98664988                5.97700625                0.00010000                0.20362272                0.07504329               -0.56097667                0.64275072                1.81124309                0.26602568
               8.10617098                1.97709061                5.95647939                0.41816987                0.24058229                0.26652294               -0.88063369                0.05118548                0.66632637                0.62364826
               9.10925620                1.96698959                5.92934291                1.00000000                0.36136826                0.36383969               -1.21304297               -0.01104287                0.23479640                0.26890128
              10.11339835                1.95732855                5.90017056                1.00000000                0.41421471                0.47206626               -1.56367809               -0.03319727                0.12686034               -0.25507583
               0.12005993                3.03951245                6.08301467                1.00000000               -0.31758134               -0.38305253                1.28834143               -0.05558620                0.03662265                0.63798796
               1.11688412                3.02741000                6.04794036                1.00000000               -0.24721336               -0.24650946                0.82352321               -0.04165115                0.04561590               -0.04450767
               2.11511566                3.01484702                6.01280922                0.10704052               -0.06843037               -0.11113366                0.35873335               -0.08392607                0.68550395               -0.75619719
               3.11551551                3.00086490                5.99062115                0.00010000                0.00739098                0.10381750               -0.00313521                0.41799211                2.50004165               -0.60888565
               4.11526348                2.99702584                5.99213848                0.00010000               -0.02866516                0.16262118               -0.08501908                0.89421869                3.33834351               -0.47989736
               5.11494221                2.99232468                5.98891721                0.00010000               -0.02060777                0.12406310               -0.21618354                0.94625028                2.99669448               -0.32391478
               6.11485133                2.98885087                5.98512272                0.00010000                0.03197418                0.07852312               -0.32711394                0.89809107                2.84217541                0.00340845
               7.11558169                2.98512792                5.97966457                0.00010000                0.05602436               -0.05841882               -0.48850689                0.63477685                2.65981791                0.04470410
               8.11597182                2.97950994                5.97237146                0.28678041                0.14470732                0.22863904               -0.67714598                0.20420949                1.48536955                1.01650644
               9.11847584                2.97041860                5.94309582                1.00000000                0.30882590                0.31911268               -1.03493749               -0.01130258                0.19190890                0.36902282
              10.12214833                2.96182619                5.90992167                1.00000000                0.36724962                0.42117979               -1.42208150               -0.03500123               -0.01280093               -0.22732848
               0.13093526                4.03587828                6.07693778                1.00000000               -0.27892101               -0.34704823                1.17738198               -0.05392278                0.03923920                0.61616848
               1.12814605                4.02518220                6.03847957                1.00000000               -0.20136583               -0.19929720                0.66870819               -0.03674759                0.04874330               -0.04069162
               2.12690794                4.01402360                5.99996421                0.03240977               -0.02962276               -0.05316316                0.15972925                0.04097492                1.37635423               -0.68109323
               3.12755359                4.00381246                5.98818131                0.00010000                0.04534170                0.28945243               -0.17736443                0.40626326                3.22488813               -0.04960611
               4.12781478                3.99871326                5.98802144                0.00010000                0.00904798                0.18556761               -0.20605521                0.71686890                3.73201240               -0.31597451
               5.12773455                3.99393703                5.98825268                0.00010000               -0.02788305                0.16146734               -0.24609534                0.76154063                3.67106627               -0.20684970
               6.12725712                3.98957882                5.98838699                0.00010000               -0.06267664                0.09314795               -0.28696053                0.74637790                3.63334433                0.01041315
               7.12648102                3.98548150                5.98882310                0.00010000               -0.11463124                0.06481209               -0.34135555                0.63370378                3.71907273                0.39948717
               8.12496449                3.98166339                5.99103337                0.29057395                0.01164412                0.18300211               -0.41114645                0.24356702                1.93114544                0.99612293
               9.12671390                3.97337184                5.95569541                1.00000000                0.24593287                0.26733585               -0.84757792               -0.01751753                0.02997610                0.29466512
              10.12988315                3.96575214                5.91990718                1.00000000                0.31692451                0.36313519               -1.26296078               -0.03524118               -0.00095555               -0.24216794
               0.14037364                5.03257148                6.07068604                1.00000000               -0.23697865               -0.31545515                1.06545493               -0.05497638                0.05952253                0.57612974
               1.13800385                5.02342406                6.02911318                0.91724323               -0.15343650               -0.15100846                0.51141976               -0.03639121                0.08534457               -0.05871856
               2.13730491                5.01378376                5.98780333                0.00256677                0.04736335                0.00533858               -0.03323427                0.12323378                2.01657830               -0.64070119
               3.13895112                5.00665395                5.98501261                0.00010000                0.10856906                0.23615590               -0.18553743                0.41258647                3.98414814               -0.26631748
               4.13947629                5.00073719                5.98507564                0.00010000                0.01781711                0.20940242               -0.25317766                0.54878297                4.17959118               -0.28171542
               5.13930746                4.99555403                5.98807829                0.00010000               -0.06209322                0.16948946               -0.24957701                0.58900075                4.32210185               -0.16608214
               6.13823442                4.99071383                5.99253348                0.00010000               -0.15681294                0.12238646               -0.22417682                0.57203098                4.40984934                0.07304603
               7.13617120                4.98642416                5.99843856                0.00010000               -0.26408050                0.09560392               -0.19763751                0.53270695                4.54098509                0.40991098
               8.13295281                4.98316998                6.00611220                0.30336842               -0.10672338                0.11815970               -0.18159871                0.21723754                2.32369840                0.77537614
               9.13403673                4.97576532                5.96784673                1.00000000                0.18650482                0.20806825               -0.64948978               -0.01957991                0.01809792                0.25206822
              10.13668291                4.96908889                5.92934492                1.00000000                0.26461768                0.30686648               -1.09807203               -0.03581973               -0.00031762               -0.27412980
               0.14813058                6.02956918                6.06408481                1.00000000               -0.19246334               -0.28113639                0.94920380               -0.05846254                0.06695676                0.52927822
               1.14620595                6.02216203                6.01937543                0.77500046               -0.09939280               -0.10006499                0.33664116               -0.04354824                0.13122276               -0.10766966
               2.14614272                6.01413037                5.97569893                0.00168862                0.13229734                0.06413623               -0.25785982                0.11568993                2.42719299               -0.68735876
               3.14885189                6.00853558                5.97709589                0.00010000                0.18738165                0.20628414               -0.30194420                0.34535507                4.70119557               -0.54978314
               4.14989036                6.00290131                5.98110051                0.00010000                0.03430174                0.22668508               -0.28959811                0.39348476                4.85759187               -0.38380711
               5.14953793                5.99732682                5.98774679                0.00010000               -0.10313767                0.18508279               -0.23693266                0.40313962                5.01690401               -0.17826006
               6.14782760                5.99202655                5.99665803                0.00010000               -0.24294628                0.13189718               -0.15199474                0.39762385                5.15503036                0.07827886
               7.14467900                5.98739358                6.00750711                0.00538491               -0.39297608                0.08398257               -0.05223251                0.39345601                5.30691019                0.37592823
               8.13996808                5.98402658                6.02025291                0.32017703               -0.21378041                0.04943304                0.04771387                0.15669346                2.71243065                0.70044945
               9.14040339                5.97753321                5.97951656                0.94515993                0.12757602                0.14724734               -0.44913854               -0.02292888                0.03153439                0.21930034
              10.14251960                5.97188947                5.93851601                1.00000000                0.21162079                0.25310514               -0.93563540               -0.03323728                0.01360827               -0.29001432
               0.15401868                7.02694875                6.05713809                1.00000000               -0.14469844               -0.23877327                0.82334348               -0.05929885                0.04723909                0.49637819
               1.15257169                7.02142276                6.00908570                0.69722919               -0.03867586               -0.04681224                0.14083062               -0.05070549                0.13334171               -0.13693829
               2.15324516                7.01506648                5.96250753                0.02439224                0.22577941                0.13286879               -0.52663042                0.08683737                2.76011897               -0.74179628
               3.15708728                7.01077963                5.96725717                0.00010000                0.26547879                0.26609583               -0.46616265                0.20989443                5.36565360               -0.84217002
               4.15855474                7.00527089                5.97526694                0.00010000                0.05788638                0.24915008               -0.34906922                0.16909125                5.58035314               -0.53307011
               5.15824501                6.99925568                5.98668588                0.00010000               -0.12172946                0.18964636               -0.23051729                0.19954737                5.76885118               -0.20499973
               6.15612015                6.99335177                6.00038444                0.00010000               -0.31023601                0.12980560               -0.07862495                0.21484270                5.89966760                0.06618569
               7.15204029                6.98810381                6.01611911                0.01258170               -0.50865474                0.05398670                0.09770802                0.22117871                6.05452037                0.34237094
               8.14594705                6.98415864                6.03386270                0.33982048               -0.31625118               -0.03078390                0.28616389                0.07049807                3.10146844                0.64626440
               9.14571526                6.97871027                5.99092252                0.89940936                0.06792909                0.08839604               -0.24926510               -0.02600919                0.04669499                0.19858840
              10.14730563                6.97415100                5.94737881                1.00000000                0.15903690                0.20355652               -0.78056244               -0.03478230                0.01286298               -0.30060968
               0.15799660                8.02479371                6.05000724                1.00000000               -0.09224893               -0.19428744                0.68667975               -0.05663121                0.04032333                0.48132057
               1.15707411                8.02122579                5.99876400                0.68124020                0.02629996                0.01369773               -0.07479627               -0.04650534                0.12864345               -0.13351253
               2.15852260                8.01678775                5.94906659                0.06717589                0.28856343                0.22741905               -0.84138095                0.05910687                2.83992334               -0.70292744
               3.16284538                8.01385749                5.95240809                0.00010000                0.31367675                0.30141710               -0.50581978               -0.13801889                5.96641436               -1.52977618
               4.16479613                8.00788431                5.96732730                0.00010000                0.13013092                0.21272219               -0.42499566               -0.12016216                6.51310993               -0.59101799
               5.16544799                8.00111975                5.98504806                0.00010000               -0.07598999                0.16099206               -0.24228213                0.01793695                6.57583476               -0.19470053
               6.16327633                7.99462266                6.00363335                0.00010000               -0.35761453                0.13680208               -0.00955255                0.05927634                6.62596573                0.05293376
               7.15829570                7.98847331                6.02416660                0.01662042               -0.62523709                0.03699380                0.25052435                0.00912025                6.79333056                0.28356888
               8.15077159                7.98341090                6.04706676                0.36108187               -0.42024223               -0.12672850                0.54767998               -0.04616759                3.49715912                0.58282675
               9.14989086                7.97930113                6.00207245                0.89829296                0.00854525                0.02575993               -0.04907003               -0.02195492                0.06300700                0.19158427
              10.15094249                7.97596060                5.95603160                0.96976332                0.10516353                0.16519273               -0.63201086               -0.03821175                0.00841441               -0.30671223
               0.16002190                9.02306300                6.04275865                1.00000000               -0.03743509               -0.15596803                0.54388481               -0.04751785                0.05294899                0.39437297
               1.15964755                9.02169671                5.98850632                0.71326041                0.08868438                0.08560059               -0.30543528               -0.02486254                0.17210906               -0.11780228
               2.16179559                9.01961486                5.93646723                0.10648089                0.17913938                0.33119986               -1.15813423               -0.02982805                2.46660088               -0.48924952
               3.16323034                9.01680797                5.92853724                0.00010000                0.35468220                0.23807464               -0.35482484               -0.36340171                6.60284852               -1.37557930
               4.16888923                9.00952533                5.95972287                0.00010000                0.43175269                0.06824737               -0.51656246               -0.22869193                7.87884106               -0.42317643
               5.17186539                9.00247553                5.98343783                0.00010000                0.05314389                0.11763661               -0.26088426               -0.03770844                7.31050218               -0.11434017
               6.16995211                8.99608781                6.00638421                0.00010000               -0.42154716                0.14017367                0.05070248               -0.01572452                7.28132081                0.03473523
               7.16343445                8.98884369                6.03118658                0.01634980               -0.78781153                0.11863862                0.39924365               -0.14658612                7.50585457                0.16778462
               8.15419588                8.98162408                6.05953748                0.37708829               -0.53539918               -0.22187559                0.81467850               -0.22098448                3.94069637                0.41346666
               9.15272647                8.97922546                6.01324359                0.94652231               -0.04867169               -0.04464056                0.15826417               -0.01140738                0.10626399                0.17601789
              10.15322245                8.97745485                5.96454044                0.95747860                0.04959815                0.13474894               -0.47967657               -0.03833603               -0.01416113               -0.25818078
               0.15977883               10.02167435                6.03371661                1.00000000                0.02461707               -0.13886524                0.36978961                0.10203706                0.28484934                0.32291352
               1.16002500               10.02293780                5.97851675                0.88453769                0.15179725                0.12410880               -0.51873254                0.12461407                0.50175424               -0.11123645
               2.16281477               10.02341174                5.92757772                0.56747742                0.28209378                0.37968793               -1.35072993               -0.11402255                2.78853056               -0.33286728
               3.16566687               10.01861899                5.91859685                0.35544336                0.58699850                0.18110118               -0.53581732               -0.46447104                7.10565327               -0.81256572
               4.17455474               10.00924926                5.95509594                0.35179559                0.62322367               -0.02760770               -0.55530894               -0.19077447                8.51709977               -0.25687847
               5.17813135               10.00347248                5.98270860                0.37457159                0.10194688                0.09969579               -0.27185745                0.03543924                7.84440476               -0.04631203
               6.17659368                9.99742614                6.00854750                0.42077205               -0.41518134                0.13383229                0.09788203                0.03283669                7.79359187                0.03831784
               7.16982772                9.99084608                6.03638280                0.50748992               -1.03117781                0.20023968                0.50871097               -0.28331023                8.10552582                0.11261544
               8.15597012                9.97897339                6.06908568                0.69323410               -0.79978921               -0.26506820                1.00258631               -0.44446422                4.45807087                0.29308028
               9.15383194                9.97840832                6.02396992                1.00000000               -0.11265619               -0.08171464                0.36138755                0.09465634                0.35623217                0.16574484
              10.15371700                9.97865558                5.97411191                0.98551523               -0.01149360                0.12007312               -0.30180555                0.07418160                0.12412790               -0.21021562
               0.10621670                0.06597216                7.12027337                1.00000000               -0.41739047               -0.47043198                1.61029354               -0.08607823               -0.34453479                0.40004786
               1.10204280                0.04661216                7.08829458                1.00000000               -0.34591264               -0.35827538                1.24694028               -0.06292852               -0.38469053               -0.01041993
               2.09929845                0.02694527                7.05537019                0.95562052               -0.19049394               -0.25300828                0.85962285               -0.04926493               -0.32706682               -0.20338611
               3.09823292                0.00775940                7.02447103                0.56288144                0.28345692               -0.17940027                0.50779229                0.30166202                0.47710291               -0.23256394
               4.10496759               -0.00368841                7.00756436                0.57992994                0.52770505               -0.21527547                0.24182006                0.04127779                1.18169211               -0.01768011
               5.10878702               -0.01022851                6.99010975                0.62779005                0.25007543               -0.02962693               -0.11036290               -0.01509103                0.98298223                0.00336947
               6.10996909               -0.01609077                6.96983891                0.64797067                0.05795419                0.12114262               -0.48205927                0.00405416                0.86168121                0.01525526
               7.10994610               -0.02458019                6.94999828                0.79051812                0.06752338                0.24167556               -0.82293854                0.06948951                0.57830569                0.02932199
               8.11131956               -0.03709522                6.92382859                1.00000000                0.24553669                0.34435920               -1.15780405                0.02238650                0.05987688                0.28209779
               9.11485683               -0.05141877                6.89375487                1.00000000                0.41825104                0.42705244               -1.48656592               -0.05042853               -0.17738237                0.03009670
              10.11968458               -0.06567263                6.86295327                1.00000000                0.48277474                0.52553959               -1.80646289               -0.07836779               -0.21873985               -0.23899237
               0.12471592                1.06126784                7.11015345                1.00000000               -0.37889595               -0.45287648                1.46877229               -0.03822097               -0.01813224                0.54920439
               1.12092696                1.04302941                7.07772975                1.00000000               -0.32418709               -0.33550653                1.10327582               -0.01989338                0.05104653               -0.00769727
               2.11823218                1.02441518                7.04654498                0.64256871               -0.21802920               -0.22463660                0.74463451               -0.00787297                0.29021190               -0.48134348
               3.11656638                1.00596540                7.01893470                0.00010000               -0.19289279               -0.17033374                0.39467970                0.34772235                1.23860038               -0.56565779
               4.11437432                0.99415883                7.00695803                0.07523790               -0.08645443               -0.02679425                0.21397196                0.66450427                1.78854297               -0.33931973
               5.11483729                0.98947522                6.99199468                0.12613987                0.14055758                0.03123314               -0.10496562                0.73950836                1.44843532               -0.07901259
               6.11718547                0.98512065                6.97401437                0.08313685                0.31529671               -0.02454809               -0.44897201                0.60887705                1.29637040               -0.17533599
               7.12114322                0.97783657                6.95637158                0.29868545                0.38886216                0.27707251               -0.74476126                0.39162227                1.14626321                0.44865778
               8.12496272                0.96634837                6.93504017                1.00000000                0.37490156                0.31849636               -1.03274368                0.10720468                0.55811385                0.35047201
               9.12864125                0.95285176                6.90502644                1.00000000                0.40960243                0.40556206               -1.34577714               -0.00478715                0.08343952                0.07533875
              10.13315476                0.93958277                6.87415417                1.00000000                0.45135125                0.50456157               -1.66558307               -0.03012992                0.03662528               -0.28048522
               0.14192915                2.05691464                7.10279678                1.00000000               -0.34315616               -0.41862674                1.35815020               -0.04720648                0.03763895                0.70817953
               1.13849759                2.03990203                7.06713204                1.00000000               -0.28620778               -0.29133246                0.96295046               -0.03306557                0.08144039               -0.02536523
               2.13620500                2.02245253                7.03216896                0.28268781               -0.15269383               -0.16820392                0.58611533               -0.04294464                0.59798044               -0.82314489
               3.13544371                2.00435273                7.00686561                0.00010000               -0.07285708               -0.13275525                0.24932172                0.49882055                1.97198262               -1.09848125
               4.13474785                1.99577570                6.99958927                0.00010000               -0.14141748                0.15869666                0.30791349                1.16942133                2.73505340               -0.69593058
               5.13261536                1.99039615                6.99206692                0.00010000               -0.04812843                0.05379422                0.14270725                1.16932357                2.03935034               -0.35192681
               6.13378529                1.98341826                6.97453394                0.00010000                0.19677336               -0.01408424               -0.63092424                1.16859939                2.23265062               -0.07995854
               7.13655083                1.98096126                6.97131683                0.00010000                0.23315903                0.06665820               -0.57757637                0.76392771                2.03490142                0.29763254
               8.13844847                1.96927470                6.94761929                0.41037762                0.24879315                0.27331370               -0.88518260                0.08979570                0.69748337                0.67911714
               9.14152669                1.95669247                6.91726791                1.00000000                0.35857480                0.36762960               -1.20105750                0.00159829                0.25168116                0.28742984
              10.14561996                1.94441860                6.88468168                1.00000000                0.40932681                0.46154954               -1.53745281               -0.02924495                0.13566784               -0.29329201
               0.15779699                3.05289531                7.09569728                1.00000000               -0.30692443               -0.38522001                1.24969179               -0.05080776                0.03259575                0.71982060
               1.15472775                3.03720276                7.05614312                1.00000000               -0.24372030               -0.24708360                0.81634633               -0.03611051                0.03933591               -0.04419210
               2.15292259                3.02105110                7.01653026                0.11471881               -0.07540660               -0.10995615                0.38278098               -0.08850970                0.73025469               -0.84609035
               3.15321962                3.00331030                6.99085189                0.00010000               -0.06016304                0.10545799                0.04249506                0.45902431                2.73568330               -0.73162733
               4.15171933                2.99733277                6.99155067                0.00010000               -0.13192112                0.17579163               -0.04230826                1.00539469                3.65061164               -0.61146118
               5.15058120                2.99055110                6.98683352                0.00010000               -0.08634891                0.09289395               -0.18432418                1.07908075                3.28598246               -0.47259188
               6.14999235                2.98483897                6.98191345                0.00010000               -0.00079294                0.11415868               -0.32477145                1.02404569                3.10229251                0.10569286
               7.15056534                2.97916973                6.97457824                0.00010000                0.05175351               -0.06675196               -0.51627837                0.74954350                2.85963151                0.04753432
               8.15102742                2.97181464                6.96539561                0.27752220                0.14819916                0.24331237               -0.71082428                0.27481875                1.60496120                1.13189465
               9.15352932                2.96020435                6.93280585                1.00000000                0.30450937                0.32545186               -1.02282214                0.00528946                0.21316239                0.40530963
              10.15711761                2.94881376                6.89584018                1.00000000                0.35882869                0.41524254               -1.39704310               -0.03358323               -0.01320266               -0.25293964
               0.17229810                4.04921024                7.08852015                1.00000000               -0.26785104               -0.35344702                1.13951186               -0.04950030                0.03423293                0.70353369
               1.16961959                4.03496036                7.04514960                1.00000000               -0.19854150               -0.20103821                0.66433747               -0.03170491                0.04127887               -0.04174826
               2.16832727                4.02025341                7.00171895                0.03581888               -0.06385238               -0.05092828                0.18870179                0.04289996                1.44215216               -0.76548159
               3.16834254                4.00646189                6.98646003                0.00010000               -0.03561620                0.32955493               -0.18214565                0.43298529                3.53726521               -0.08236965
               4.16761494                3.99929153                6.98608444                0.00010000               -0.08258811                0.21104702               -0.18302467                0.82244078                4.18549347               -0.36499777
               5.16669078                3.99225403                6.98584037                0.00010000               -0.09836857                0.17661845               -0.23477054                0.86111001                4.09514092               -0.23124750
               6.16564757                3.98570144                6.98543563                0.00010000               -0.10623747                0.11021571               -0.29713059                0.85262054                4.03144158                0.00003653
               7.16456603                3.97962622                6.98522252                0.00010000               -0.13686734                0.07796039               -0.37004189                0.75280242                4.08633821                0.45079317
               8.16291022                3.97414095                6.98675478                0.28236817                0.00336709                0.19436703               -0.43819938                0.31372244                2.09700451                1.12809271
               9.16463337                3.96320151                6.94725777                1.00000000                0.24096271                0.27064239               -0.83921569               -0.00601759                0.02376144                0.33673248
              10.16772948                3.95272345                6.90738924                1.00000000                0.30961099                0.36455502               -1.24194188               -0.03309935               -0.00145437               -0.26110414
               0.18530674                5.04582637                7.08113665                1.00000000               -0.22562604               -0.32226870                1.02486727               -0.05073844                0.05990649                0.66852592
               1.18305048                5.03318200                7.03422175                0.90272437               -0.15138387               -0.15251967                0.50920766               -0.03261364                0.08816396               -0.06758046
               2.18227906                5.02003254                6.98766679                0.00319403               -0.01046385                0.00770053                0.00371484                0.14985042                2.20578340               -0.74175960
               3.18284120                5.00990139                6.98323550                0.00010000                0.00484719                0.28555381               -0.16927663                0.46195156                4.39061998               -0.26140629
               4.18237600                5.00155371                6.98258906                0.00010000               -0.07238539                0.23759736               -0.24288956                0.62731772                4.66130257               -0.29730931
               5.18139349                4.99408347                6.98558464                0.00010000               -0.13517185                0.19385574               -0.24665510                0.67306239                4.83824935               -0.17616594
               6.17967257                4.98704328                6.99018873                0.00010000               -0.21058094                0.14533279               -0.23900624                0.66026806                4.91904731                0.08665715
               7.17718187                4.98072894                6.99626621                0.00010000               -0.29729927                0.11196839               -0.22714811                0.63083644                5.02728530                0.46397823
               8.17372658                4.97570198                7.00413643                0.29550375               -0.11777031                0.11962526               -0.20740525                0.27503779                2.54832321                0.88653639
               9.17482647                4.96561720                6.96135127                1.00000000                0.18425764                0.21013000               -0.64748845               -0.01093987                0.01007271                0.29711022
              10.17741173                4.95610486                6.91844402                1.00000000                0.25852673                0.31273876               -1.08114916               -0.03369422               -0.00164858               -0.29725378
               0.19657208                6.04276486                7.07333983                1.00000000               -0.18109306               -0.28479410                0.90270881               -0.05366836                0.06722949                0.62287773
               1.19476114                6.03190997                7.02273102                0.76112195               -0.09835995               -0.10014112                0.33424294               -0.04007582                0.13718889               -0.13333215
               2.19460488                6.02040742                6.97331834                0.00051044                0.06496289                0.06946779               -0.21844270                0.15647225                2.69793685               -0.82929100
               3.19606040                6.01217296                6.97409948                0.00010000                0.06871723                0.23710340               -0.28305936                0.41933723                5.24431635               -0.63395598
               4.19597922                6.00404348                6.97819195                0.00010000               -0.06989774                0.25887107               -0.28166149                0.46938064                5.44565773               -0.41759753
               5.19466245                5.99613114                6.98534885                0.00010000               -0.18858779                0.21502477               -0.23725599                0.47636404                5.62333038               -0.18972979
               6.19220746                5.98860809                6.99503474                0.00010000               -0.30691963                0.15947709               -0.16721138                0.47001652                5.76868652                0.09640352
               7.18852405                5.98186559                7.00679373                0.00010000               -0.43423708                0.10133484               -0.08168885                0.46853847                5.90832492                0.43443643
               8.18352272                5.97653346                7.02058491                0.31223412               -0.22561791                0.04500097                0.02140359                0.20111106                2.99912114                0.81442292
               9.18401170                5.96740411                6.97498213                0.94748275                0.12787735                0.14917619               -0.45338391               -0.01528841                0.02584043                0.26139850
              10.18608027                5.95897823                6.92921943                1.00000000                0.20685733                0.26147760               -0.92028643               -0.03180544                0.01262949               -0.32446287
               0.20594316                7.04013049                7.06508960                1.00000000               -0.13367567               -0.23775817                0.76947874               -0.05337612                0.04493956                0.58708213
               1.20460640                7.03117917                7.01049135                0.68334305               -0.03988249               -0.04562838                0.14140198               -0.04440120                0.13427039               -0.17945393
               2.20514551                7.02142189                6.95748639                0.01986353                0.14927417                0.13823824               -0.47570387                0.13553106                3.11725404               -0.92856265
               3.20759188                7.01464346                6.96280209                0.00010000                0.13299654                0.27586951               -0.41737356                0.30920760                6.07499966               -0.90502341
               4.20780544                7.00673113                6.97182876                0.00010000               -0.06178619                0.26999331               -0.32526732                0.25763789                6.30571849               -0.58680244
               5.20635616                6.99838397                6.98438055                0.00010000               -0.22334939                0.22379632               -0.22288693                0.26410794                6.48834737               -0.23390394
               6.20333845                6.99023282                6.99950227                0.00010000               -0.38644396                0.16272432               -0.09194293                0.26727767                6.62735906                0.07989173
               7.19862728                6.98275564                7.01690150                0.00691823               -0.55640837                0.07431228                0.06684935                0.26772707                6.77834376                0.40471725
               8.19221028                6.97660200                7.03658992                0.33199794               -0.32756768               -0.03434184                0.25583788                0.09971359                3.45138748                0.77089920
               9.19207593                6.96860072                6.98835306                0.89953443                0.07085529                0.09058496               -0.26029091               -0.01727177                0.04010341                0.23554222
              10.19362739                6.96133441                6.93964447                1.00000000                0.15514617                0.21193018               -0.76348474               -0.03248334                0.01235151               -0.34899668
               0.21340718                8.03800970                7.05654879                1.00000000               -0.08254669               -0.18771393                0.62642468               -0.05050657                0.03446095                0.56906295
               1.21258171                8.03099740                6.99805592                0.66446104                0.02220135                0.01373340               -0.06563640               -0.03924381                0.11736547               -0.19116460
               2.21385121                8.02317219                6.94105593                0.05398373                0.21768036                0.22189931               -0.76325021                0.10774992                3.37241771               -0.91886189
               3.21693532                8.01769036                6.94800084                0.00010000                0.17701334                0.27079637               -0.41975209                0.06259605                6.87154785               -1.37117064
               4.21739147                8.00944335                6.96361656                0.00010000               -0.02462059                0.22183783               -0.33246707               -0.00168800                7.32957941               -0.66486404
               5.21644291                8.00060707                6.98270757                0.00010000               -0.21050629                0.20126786               -0.21461687                0.07680544                7.41685970               -0.23462212
               6.21318135                7.99186258                7.00344076                0.00010000               -0.44667459                0.17444499               -0.02083545                0.08869122                7.48356678                0.06071535
               7.20750942                7.98335184                7.02646398                0.01199553               -0.67547191                0.06392917                0.21511799                0.02738644                7.65003980                0.34587411
               8.19967191                7.97584662                7.05227786                0.35349779               -0.42877819               -0.12042937                0.49497158               -0.03135651                3.91213516                0.71753338
               9.19893385                7.96921581                7.00147732                0.89848960                0.01456558                0.02941239               -0.06799202               -0.01388775                0.05122895                0.22693181
              10.19996322                7.96321683                6.94982106                0.97155309                0.10293685                0.16957770               -0.61191254               -0.03458188                0.00691995               -0.36252174
               0.21895762                9.03637621                7.04783572                1.00000000               -0.02985856               -0.14324682                0.47888023               -0.04334874                0.04059054                0.46848151
               1.21865904                9.03145384                6.98555740                0.69192909                0.08249644                0.08150399               -0.28364468               -0.02135330                0.15358698               -0.17490877
               2.22060755                9.02585988                6.92541474                0.08065913                0.19568034                0.30982103               -1.05489583               -0.00033606                3.35948523               -0.65358987
               3.22257264                9.02005939                6.92764162                0.00010000                0.21237066                0.11365611               -0.06936818               -0.14680172                7.77255747               -1.22944657
               4.22485496                9.01116788                6.95550479                0.00010000                0.14501965                0.11206298               -0.34823897               -0.12048924                8.64172674               -0.47207980
               5.22547304                9.00240932                6.98102480                0.00010000               -0.12437273                0.15718774               -0.21127732                0.00516527                8.28711005               -0.14310584
               6.22236751                8.99372172                7.00678249                0.00010000               -0.51410324                0.18036019                0.03940003               -0.00754334                8.26897146                0.03873110
               7.21519097                8.98403422                7.03490174                0.01486106               -0.83241647                0.15308499                0.35093857               -0.14497231                8.50664214                0.21302828
               8.20571918                8.97419341                7.06721329                0.37161007               -0.53815054               -0.20122972                0.72976658               -0.21679693                4.43140208                0.51304698
               9.20442796                8.96918897                7.01466276                0.94602847               -0.03927369               -0.03660779                0.12718278               -0.00669422                0.09262145                0.20878459
              10.20493371                8.96472596                6.95987696                0.95891568                0.05057457                0.13380437               -0.45866942               -0.03417217               -0.01762393               -0.30480656
               0.22238494               10.03514476                7.03708545                1.00000000                0.02860351               -0.12314481                0.31090156                0.09100387                0.30789681                0.38124947
               1.22267098               10.03262748                6.97348509                0.87390273                0.14269982                0.11736379               -0.48606553                0.11238637                0.54613405               -0.16101620
               2.22523894               10.02936861                6.91459112                0.55170195                0.30101533                0.35087259               -1.24376434               -0.17006130                3.79481096               -0.44185865
               3.22869128               10.01996348                6.91639818                0.35526316                0.36964092               -0.00959128               -0.11959117               -0.27233586                8.44959125               -0.83361020
               4.23263176               10.01168461                6.95064855                0.35212722                0.26505458                0.05167236               -0.37039109               -0.03295331                9.41346456               -0.22542378
               5.23399238               10.00375082                6.98019102                0.37503869               -0.06130848                0.13415010               -0.21791474                0.04119280                8.91393098               -0.05029485
               6.23140559                9.99546978                7.00938326                0.42116521               -0.49270475                0.17480609                0.08172575                0.03694338                8.88436063                0.04940515
               7.22413828                9.98641354                7.04111059                0.50842565               -1.06121816                0.23793166                0.44802122               -0.28765704                9.22147489                0.14495112
               8.21018122                9.97182202                7.07855646                0.69268535               -0.79354295               -0.23713900                0.90224541               -0.45028968                5.04365004                0.35826774
               9.20826742                9.96848365                7.02733397                1.00000000               -0.09877191               -0.07053141                0.31486232                0.08749079                0.38305714                0.19364552
              10.20820579                9.96589292                6.97118189                0.98646409               -0.00616354                0.11669551               -0.28994465                0.06813459                0.14215471               -0.24465242
               0.13634135                0.08102248                8.13619152                1.00000000               -0.41008042               -0.45963997                1.57490038               -0.08175862               -0.38788279                0.44303564
               1.13224055                0.05781263                8.10069529                1.00000000               -0.34001271               -0.35341415                1.23178620               -0.05925332               -0.44200549               -0.00595272
               2.12954110                0.03429610                8.06397081                0.97094628               -0.18663759               -0.25251656                0.85811878               -0.04638407               -0.37875167               -0.20358439
               3.12850780                0.01136039                8.02964039                0.57728383                0.29577479               -0.18347056                0.52195968                0.33168778                0.47803313               -0.26886097
               4.13545659               -0.00308955                8.00998942                0.60718830                0.52294248               -0.19456336                0.24120684                0.02522633                1.16213461               -0.00960796
               5.13896665               -0.01209721                7.98903342                0.66035261                0.23269872               -0.02055025               -0.10571833               -0.01061500                0.91769598                0.00615806
               6.14011057               -0.02032085                7.96508170                0.67133405                0.06041390                0.11524200               -0.47021455                0.00371191                0.79612008                0.00705440
               7.14017492               -0.03105132                7.94178923                0.80405289                0.06783347                0.23329805               -0.81752422                0.06762327                0.52396047                0.02925435
               8.14146724               -0.04603532                7.91227136                1.00000000                0.23817444                0.34335479               -1.15116291                0.03044498                0.01291815                0.29565041
               9.14493841               -0.06309843                7.87894059                1.00000000                0.41241460                0.42339685               -1.47488874               -0.04992951               -0.21602934                0.02893625
              10.14971553               -0.08013593                7.84499052                1.00000000                0.47771171                0.51826836               -1.78723796               -0.07857994               -0.25234662               -0.27174760
               0.15873362                1.07642608                8.12465294                1.00000000               -0.37224075               -0.44316954                1.43353105               -0.03560915               -0.02727539                0.60725265
               1.15501121                1.05427849                8.08869617                1.00000000               -0.32151180               -0.33104591                1.08941775               -0.01627159                0.04279807               -0.00037595
               2.15230338                1.03177093                8.05401807                0.67059580               -0.22468560               -0.22490014                0.74698148               -0.00132525                0.28640547               -0.49974829
               3.15051750                1.00952568                8.02295473                0.01762344               -0.24328619               -0.17555474                0.40640379                0.40390009                1.31623492               -0.61142566
               4.14743766                0.99496482                8.00910073                0.11118077               -0.15206733                0.00195615                0.21235472                0.68024739                1.87184480               -0.19685463
               5.14747615                0.98769729                7.99096447                0.16803451                0.10935448                0.08378005               -0.10184744                0.66885120                1.45312696                0.06751924
               6.14962475                0.98083157                7.96958425                0.11357944                0.31161213               -0.05845186               -0.43779203                0.54877190                1.30784041               -0.28511540
               7.15370839                0.97128166                7.94895195                0.31567616                0.40852475                0.27235933               -0.73829752                0.42244814                1.17389160                0.48887253
               8.15779524                0.95739823                7.92473346                1.00000000                0.38905161                0.31764185               -1.02595906                0.12781068                0.57269955                0.37320958
               9.16148942                0.94113554                7.89162758                1.00000000                0.40859991                0.40285992               -1.33324973               -0.00312271                0.08340657                0.07542236
              10.16596724                0.92504675                7.85760883                1.00000000                0.44778145                0.49563181               -1.64533680               -0.03044770                0.03416913               -0.31903049
               0.17992435                2.07215909                8.11618948                1.00000000               -0.33540834               -0.41203024                1.32278953               -0.04240942                0.03480404                0.78419976
               1.17657027                2.05119172                8.07670663                1.00000000               -0.28284751               -0.28849486                0.95164318               -0.02671713                0.08652162               -0.01800208
               2.17426740                2.02979809                8.03812041                0.29983930               -0.15891793               -0.16978527                0.60052554               -0.03169044                0.62742456               -0.88573483
               3.17339191                2.00784930                8.00946856                0.00010000               -0.16887328               -0.14438773                0.26800121                0.59213744                2.27344361               -1.18142261
               4.17088994                1.99694958                8.00403108                0.00010000               -0.34574933                0.16683124                0.55887919                1.32927639                2.92398929               -0.72674639
               5.16647692                1.98957839                7.99394557                0.00010000               -0.16941484                0.07010536                0.13578064                1.21917327                1.75557001               -0.40525880
               6.16750164                1.97851011                7.96833473                0.00010000                0.27901531               -0.03842686               -0.55144115                1.21725890                2.11326135               -0.02222058
               7.17205723                1.97439586                7.96545472                0.00010000                0.33339650                0.04456249               -0.59460327                0.86955885                2.24048703                0.31998128
               8.17416957                1.96031751                7.93877574                0.40712271                0.25851033                0.28070630               -0.88015977                0.13055478                0.73477947                0.71774393
               9.17722744                1.94495877                7.90532176                1.00000000                0.35572964                0.36996948               -1.18783366                0.01321376                0.27138138                0.30492548
              10.18128416                1.92977670                7.86942151                1.00000000                0.40567260                0.45065431               -1.51673847               -0.02578728                0.14571428               -0.33229624
               0.19982018                3.06818548                8.10800850                1.00000000               -0.29823173               -0.38247531                1.21446284               -0.04585443                0.02952409                0.79921117
               1.19683786                3.04850860                8.06426729                1.00000000               -0.24040947               -0.24615561                0.80810375               -0.03038453                0.03432625               -0.04154736
               2.19501199                3.02837523                8.02046484                0.12459913               -0.08145504               -0.11103280                0.40160684               -0.08487570                0.77036430               -0.93014099
               3.19520876                3.00663793                7.99147105                0.00010000               -0.13589533                0.09660805                0.07589629                0.52338607                2.94026566               -0.86830562
               4.19229408                2.99830145                7.99129232                0.00010000               -0.24548405                0.17126703               -0.01159560                1.18579210                3.95168296               -0.84718885
               5.19029908                2.98909940                7.98523073                0.00010000               -0.15708156                0.04912821               -0.13270942                1.27854206                3.52745309               -0.66766226
               6.18915245                2.98006303                7.97862729                0.00010000               -0.05034582                0.13970794               -0.33348537                1.20378326                3.30954426                0.20959616
               7.18929216                2.97217291                7.96933900                0.00010000                0.03454883               -0.07932344               -0.52512299                0.88903662                3.03927060                0.05726139
               8.18984343                2.96301235                7.95815497                0.26980001                0.15011741                0.25834511               -0.72650395                0.35308920                1.73018932                1.23616725
               9.19229451                2.94853493                7.92263938                1.00000000                0.29861019                0.33011557               -1.01051773                0.01873550                0.25025508                0.43951628
              10.19581563                2.93405983                7.88198080                1.00000000                0.35211204                0.40747571               -1.37683724               -0.03216186               -0.01298754               -0.27967323
               0.21836103                4.06450959                8.09972802                1.00000000               -0.25881997               -0.35315794                1.10349002               -0.04502873                0.03052177                0.78381927
               1.21577283                4.04626860                8.05176632                1.00000000               -0.19602384               -0.20087822                0.65855671               -0.02665076                0.03540417               -0.04238155
               2.21444055                4.02757744                8.00373825                0.04236070               -0.09197089               -0.05130228                0.21288477                0.04538457                1.47018456               -0.84148377
               3.21393341                4.00978146                7.98453839                0.00010000               -0.11481215                0.35742218               -0.20407558                0.47149802                3.81847976               -0.12671456
               4.21214431                4.00037492                7.98436095                0.00010000               -0.18236165                0.21910243               -0.16153882                0.94193038                4.62630092               -0.42084633
               5.21028618                3.99056096                7.98355727                0.00010000               -0.18202579                0.17114161               -0.22011368                0.95515220                4.48465610               -0.27179321
               6.20850379                3.98130427                7.98244438                0.00010000               -0.16987691                0.13924166               -0.29755279                0.95148933                4.39206695               -0.00760961
               7.20688864                3.97280940                7.98142226                0.00010000               -0.18172316                0.09798048               -0.38462638                0.88285939                4.42835655                0.50247532
               8.20486933                3.96548442                7.98226938                0.27487970               -0.01669890                0.20291106               -0.45475124                0.38712398                2.26682876                1.26543247
               9.20655466                3.95156108                7.93891110                1.00000000                0.23608933                0.27241191               -0.82984127                0.00389396                0.02804068                0.37530719
              10.20959112                3.93792622                7.89506834                1.00000000                0.30364545                0.36268989               -1.22337097               -0.03104748               -0.00156390               -0.27992881
               0.23540157                5.06112232                8.09118338                1.00000000               -0.21645756               -0.32179017                0.98590769               -0.04653991                0.06187790                0.74742919
               1.23323699                5.04449103                8.03929734                0.88839377               -0.14973707               -0.15214078                0.50554351               -0.02873731                0.09346362               -0.07865440
               2.23240683                5.02734918                7.98787763                0.00723325               -0.06978760                0.00737557                0.03618336                0.17938925                2.37004170               -0.83431451
               3.23184124                5.01378637                7.98162708                0.00010000               -0.10268199                0.32542057               -0.15617629                0.51327573                4.75839069               -0.23538432
               4.23035319                5.00268349                7.98021785                0.00010000               -0.16842349                0.24673693               -0.22999058                0.70728473                5.11494403               -0.31509873
               5.22847277                4.99252223                7.98314518                0.00010000               -0.22096935                0.20876824               -0.23805774                0.75199677                5.32219248               -0.18692283
               6.22593380                4.98284786                7.98775336                0.00010000               -0.28517841                0.16684060               -0.24301949                0.74314741                5.39399692                0.09999843
               7.22276920                4.97413252                7.99389560                0.00010000               -0.35497898                0.13188102               -0.24143572                0.73146966                5.48960666                0.51941320
               8.21883422                4.96707057                8.00196410                0.28839488               -0.14193057                0.11885695               -0.22306975                0.33717140                2.77116512                0.99778221
               9.21993059                4.95398317                7.95489696                1.00000000                0.18150979                0.20991512               -0.64256147               -0.00129574                0.00821616                0.33909913
              10.22246442                4.94131363                7.90772194                1.00000000                0.25338245                0.31367800               -1.06425428               -0.03163028               -0.00186652               -0.31547957
               0.25069281                6.05807378                8.08213898                1.00000000               -0.17215865               -0.28204410                0.85925199               -0.04917953                0.06748100                0.69739238
               1.24897122                6.04322579                8.02606029                0.74822548               -0.09799071               -0.09911266                0.33174414               -0.03627555                0.14288169               -0.16156195
               2.24873299                6.02772495                7.97133008                0.00247312               -0.00533046                0.07042308               -0.18097399                0.19683793                2.94451346               -0.95912242
               3.24886461                6.01628987                7.97143471                0.00010000               -0.05894237                0.24957161               -0.24937356                0.49941821                5.74898115               -0.69450912
               4.24755415                6.00530966                7.97546728                0.00010000               -0.18514343                0.27133666               -0.26020129                0.55919540                5.99567967               -0.43517229
               5.24516174                5.99473632                7.98300167                0.00010000               -0.28988464                0.23483286               -0.22794287                0.55985482                6.19716631               -0.19177301
               6.24175645                5.98464108                7.99331381                0.00010000               -0.39332096                0.18478617               -0.17148452                0.54616331                6.34506349                0.11802150
               7.23729532                5.97544702                8.00587333                0.00010000               -0.49971734                0.11976944               -0.09712834                0.54853930                6.48131173                0.49314329
               8.23176211                5.96786156                8.02068098                0.30517329               -0.25048186                0.04065538                0.00001237                0.25006946                3.27711579                0.92420468
               9.23228569                5.95575939                7.97044888                0.95052285                0.12677388                0.14713749               -0.45099588               -0.00647954                0.02267746                0.30120423
              10.23429758                5.94419978                7.92011029                1.00000000                0.20118971                0.26279003               -0.89831031               -0.03068947                0.01256747               -0.34739156
               0.26411397                7.05548144                8.07252766                1.00000000               -0.12536533               -0.23224627                0.72143662               -0.04832798                0.04274577                0.65568418
               1.26286032                7.04250878                8.01191374                0.67090975               -0.04172310               -0.04446673                0.14364925               -0.03903664                0.13472775               -0.22149101
               2.26327951                7.02875764                7.95299345                0.01807318                0.06922922                0.13786034               -0.42479604                0.17810296                3.45012401               -1.09132608
               3.26424490                7.01877781                7.95890970                0.00010000               -0.00944332                0.26523416               -0.36578862                0.41018358                6.73795264               -0.93001950
               4.26309064                7.00811023                7.96876160                0.00010000               -0.19532282                0.28006725               -0.28923470                0.37839650                6.97520793               -0.59255978
               5.26033844                6.99721889                7.98222814                0.00010000               -0.34721329                0.25233679               -0.20479468                0.36163036                7.16148084               -0.23657949
               6.25614638                6.98654359                7.99854558                0.00010000               -0.49094639                0.19578339               -0.09376160                0.33719100                7.30674569                0.10116004
               7.25051952                6.97652791                8.01745610                0.00282438               -0.63115662                0.09717691                0.04869617                0.32520807                7.46328312                0.46458851
               8.24352324                6.96788368                8.03897946                0.32497883               -0.35283663               -0.03616794                0.22357009                0.13184289                3.78412871                0.88371773
               9.24346278                6.95692592                7.98571670                0.90042341                0.07233026                0.08853396               -0.26340867               -0.01138470                0.03371386                0.27037054
              10.24496985                6.94656943                7.93210912                1.00000000                0.15070646                0.21389504               -0.74137839               -0.03085746                0.01259714               -0.38215897
               0.27567157                8.05342886                8.06253573                1.00000000               -0.07572848               -0.17927318                0.57548881               -0.04542089                0.03013058                0.63382435
               1.27491428                8.04233645                7.99745128                0.65044216                0.01772279                0.01302924               -0.05467526               -0.03333728                0.10772919               -0.24445962
               2.27602602                8.03048216                7.93380158                0.04505176                0.14007075                0.21251145               -0.69082578                0.14398327                3.85767153               -1.10050832
               3.27771570                8.02159455                7.94401304                0.00010000                0.03274850                0.25219488               -0.39036179                0.23876925                7.72350100               -1.16615749
               4.27668099                8.01091100                7.96067796                0.00010000               -0.18773540                0.24707593               -0.27689828                0.17192269                8.06352321               -0.63996291
               5.27396099                7.99978306                7.98075572                0.00010000               -0.37448699                0.24555338               -0.17840534                0.18185970                8.17328186               -0.23885272
               6.26919125                7.98855675                8.00321664                0.00010000               -0.57507990                0.21881738               -0.01855037                0.14578603                8.27167646                0.07721383
               7.26245939                7.97739055                8.02846896                0.00913034               -0.75951511                0.09648683                0.19097451                0.05992116                8.45278978                0.40032443
               8.25400095                7.96713820                8.05696619                0.34700297               -0.45435762               -0.11386318                0.44678980               -0.01604147                4.30086608                0.82833940
               9.25337224                7.95753006                8.00071261                0.89825489                0.01962274                0.03092899               -0.08324036               -0.01040377                0.03978732                0.25947760
              10.25439341                7.94847768                7.94379335                0.97438259                0.10211666                0.17142301               -0.59592054               -0.03165271                0.00579132               -0.40252093
               0.28539036                9.05189597                8.05233626                1.00000000               -0.02500888               -0.13144939                0.42663447               -0.03936511                0.03103307                0.52317649
               1.28514027                9.04276936                7.98283343                0.67542366                0.07553576                0.07628158               -0.26046318               -0.01801880                0.13693725               -0.22594240
               2.28690108                9.03300787                7.91536931                0.06292060                0.17255849                0.28698240               -0.95734602                0.04121080                4.18310490               -0.79091879
               3.28859144                9.02382170                7.92714988                0.00010000                0.07197557                0.14195495               -0.13814032                0.04647215                8.75981078               -0.96205717
               4.28834059                9.01305175                7.95275809                0.00010000               -0.11307753                0.17711251               -0.25100733                0.03292260                9.25883708               -0.43768377
               5.28632989                9.00212996                7.97921228                0.00010000               -0.34429929                0.21755424               -0.15823673                0.07912290                9.12446981               -0.14955617
               6.28145460                8.99091993                8.00717221                0.00010000               -0.65966994                0.23279788                0.04423127                0.02488785                9.16564520                0.04884035
               7.27313649                8.97845764                8.03820535                0.01461573               -0.91958484                0.19684279                0.31737602               -0.13444492                9.43148513                0.24782506
               8.26306290                8.96560642                8.07413281                0.36779940               -0.56106310               -0.18428936                0.66076595               -0.21471804                4.88498136                0.58989290
               9.26191523                8.95754450                8.01578724                0.94465280               -0.03106666               -0.02956340                0.09944449               -0.00565565                0.08070099                0.23721794
              10.26244157                8.94999789                7.95536706                0.96045534                0.05263411                0.13374997               -0.44686556               -0.03111756               -0.02064837               -0.33851852
               0.29313749               10.05079987                8.03993465                1.00000000                0.03045204               -0.10961046                0.26404188                0.08093458                0.32484854                0.42548113
               1.29344201               10.04386208                7.96879544                0.86595532                0.13302045                0.10927224               -0.45153430                0.10127074                0.57835718               -0.20503558
               2.29579790               10.03622180                7.90270243                0.54110446                0.25796285                0.32139333               -1.13688296               -0.08173930                4.78999216               -0.53106062
               3.29860127               10.02443365                7.91620503                0.35563708                0.16166478                0.06119463               -0.10529882               -0.08744496                9.52879750               -0.56070738
               4.29903119               10.01445325                7.94768811                0.35248157               -0.04630038                0.14015056               -0.27102771                0.05408558               10.08182008               -0.19932802
               5.29767526               10.00413414                7.97835030                0.37536588               -0.28349355                0.20041889               -0.15905175                0.07250976                9.83437002               -0.04209483
               6.29336132                9.99321271                8.01018201                0.42152758               -0.62956237                0.22927720                0.08502562                0.05033564                9.87386428                0.06190015
               7.28508401                9.98132741                8.04534322                0.50952942               -1.13707938                0.28697671                0.40819636               -0.29326271               10.25155785                0.17248830
               8.27061974                9.96345241                8.08713059                0.69271081               -0.81081807               -0.21540067                0.82024393               -0.46374747                5.57700713                0.40150143
               9.26886765                9.95693880                8.03026717                1.00000000               -0.08777343               -0.06057026                0.27421350                0.08025547                0.40453531                0.21684542
              10.26886427                9.95115268                7.96831302                0.98711796               -0.00033839                0.11547823               -0.28735334                0.06365762                0.15586434               -0.27030730
               0.16945150                0.09791004                9.15177138                1.00000000               -0.40281052               -0.44950955                1.54292029               -0.07862280               -0.43023582                0.48362560
               1.16542340                0.07049135                9.11293031                1.00000000               -0.33365940               -0.34808016                1.21478187               -0.05710983               -0.50109852               -0.00024251
               2.16277831                0.04277905                9.07253257                0.98464066               -0.18242112               -0.25084365                0.85275503               -0.04455060               -0.43462234               -0.19970272
               3.16177497                0.01575351                9.03491022                0.58955569                0.30194703               -0.18447920                0.52897456                0.35923100                0.46219282               -0.30503644
               4.16881725               -0.00210321                9.01238850                0.62939800                0.51368409               -0.17167117                0.23855280                0.01237420                1.13059143                0.00168031
               5.17204866               -0.01396745                8.98799538                0.68682127                0.21592137               -0.01190980               -0.10175880               -0.00581401                0.85276578                0.01042052
               6.17313568               -0.02495479                8.96043462                0.69023903                0.05934932                0.11201061               -0.45914118                0.00425796                0.72687697               -0.00036915
               7.17323564               -0.03832054                8.93364779                0.81437431                0.06454398                0.22690574               -0.80919217                0.06603884                0.46447533                0.02906414
               8.17442656               -0.05610641                8.90080534                1.00000000                0.22907237                0.34146010               -1.14034602                0.03677621               -0.03410375                0.30747888
               9.17781709               -0.07621403                8.86425709                1.00000000                0.40556141                0.41930657               -1.46060310               -0.05019653               -0.25286736                0.02706949
              10.18253779               -0.09634420                8.82720851                1.00000000                0.47206998                0.51153695               -1.76908211               -0.07923056               -0.28384696               -0.30354996
               0.19608396                1.09341494                9.13882407                1.00000000               -0.36661657               -0.43334813                1.40295102               -0.03346745               -0.03668674                0.66219311
               1.19241779                1.06701055                9.09951810                1.00000000               -0.31911137               -0.32602409                1.07481621               -0.01353157                0.03204241                0.00803290
               2.18970173                1.04027062                9.06148461                0.69664344               -0.23046879               -0.22439916                0.74414741                0.00557062                0.27563188               -0.51038066
               3.18780841                1.01390872                9.02706277                0.03813684               -0.29501245               -0.17727789                0.41257658                0.45682067                1.37481430               -0.65429374
               4.18380148                0.99618008                9.01120512                0.14257606               -0.21960527                0.05761986                0.20825349                0.59690518                1.94226470                0.06115589
               5.18341631                0.98591345                8.98995773                0.20410901                0.07766612                0.09960828               -0.09939186                0.56798425                1.45907048                0.16160622
               6.18535480                0.97616531                8.96525853                0.13981670                0.30277658               -0.05571968               -0.42757125                0.47203750                1.31788169               -0.33173260
               7.18947184                0.96394852                8.94160563                0.33076104                0.41931337                0.26471852               -0.73001927                0.44133985                1.19809147                0.51646895
               8.19374107                0.94730819                8.91452099                1.00000000                0.39810881                0.31572446               -1.01528622                0.14404892                0.58693336                0.39424426
               9.19743402                0.92797904                8.87836145                1.00000000                0.40672925                0.39966065               -1.31942519               -0.00227771                0.08461341                0.07506656
              10.20187565                0.90877117                8.84124744                1.00000000                0.44416378                0.48724506               -1.62755701               -0.03093882                0.03309311               -0.35719986
               0.22159093                2.08924307                9.12925257                1.00000000               -0.32938391               -0.40369734                1.29202860               -0.03792310                0.03238732                0.85598986
               1.21829709                2.06397087                9.08616490                1.00000000               -0.27996855               -0.28492138                0.93989431               -0.02059307                0.09282344               -0.00947778
               2.21599156                2.03829107                9.04417947                0.31741333               -0.16475835               -0.17200833                0.60830813               -0.01692664                0.64947717               -0.93939403
               3.21500192                2.01220795                9.01222563                0.00010000               -0.36204639               -0.15171847                0.28080032                0.70735801                2.66496951               -1.25601895
               4.20875063                1.99904919                9.01076686                0.00010000               -0.57894068                0.19395186                0.66222092                1.45042930                3.04535333               -0.78371473
               5.20342311                1.98802471                8.99478254                0.00010000               -0.21046362                0.08363530                0.04114831                1.26302990                1.52881073               -0.46048149
               6.20454136                1.97393081                8.96350511                0.00010000                0.37482273               -0.06220370               -0.44808210                1.28346432                2.13468264                0.03386848
               7.21091956                1.96697384                8.95942476                0.00010000                0.43678329                0.01994490               -0.60830167                0.93142467                2.37898879                0.33964755
               8.21327702                1.95020808                8.93001610                0.40853982                0.26944937                0.28680760               -0.87046138                0.16975524                0.78297268                0.74869107
               9.21630855                1.93177919                8.89351124                1.00000000                0.35288615                0.37131472               -1.17428331                0.02335991                0.29253606                0.32152736
              10.22033475                1.91340070                8.85434691                1.00000000                0.40261952                0.44011449               -1.49935983               -0.02288056                0.15661154               -0.37102664
               0.24586990                3.08534099                9.11998654                1.00000000               -0.29119633               -0.37656684                1.18313647               -0.04083678                0.02753172                0.87271067
               1.24295793                3.06131212                9.07230519                1.00000000               -0.23718917               -0.24440939                0.79927311               -0.02450964                0.03080453               -0.03832095
               2.24112611                3.03683045                9.02456239                0.13605370               -0.08802395               -0.11400603                0.41561990               -0.07352240                0.80524840               -1.00783553
               3.24119745                3.01087435                8.99236981                0.00010000               -0.20664022                0.07818063                0.09993658                0.61580902                3.12702361               -1.02458349
               4.23699331                3.00005912                8.99131876                0.00010000               -0.37010853                0.14499425                0.01821178                1.45416271                4.25831236               -1.19507776
               5.23379528                2.98758615                8.98417933                0.00010000               -0.24591719                0.04394991               -0.09879166                1.48697362                3.73375038               -0.83219007
               6.23207497                2.97492124                8.97524374                0.00010000               -0.09861066                0.12461827               -0.33453635                1.39219136                3.47591514                0.27387125
               7.23182307                2.96434742                8.96407578                0.00010000                0.01279294               -0.09273537               -0.52363317                1.02558462                3.22413196                0.08639091
               8.23233082                2.95304434                8.95086553                0.26426523                0.14427583                0.27161986               -0.72314270                0.42694272                1.85478005                1.32543641
               9.23470859                2.93540533                8.91259550                1.00000000                0.29220921                0.33354445               -0.99863813                0.03078997                0.29392467                0.47152490
              10.23817501                2.91757346                8.86830343                1.00000000                0.34664207                0.39915173               -1.36013359               -0.03073857               -0.01215200               -0.30570460
               0.26883193                4.08171174                9.11058996                1.00000000               -0.25144897               -0.34885013                1.07074239               -0.04058043                0.02796196                0.85507396
               1.26631744                4.05908268                9.05832073                1.00000000               -0.19365238               -0.19985908                0.65212603               -0.02166084                0.03091989               -0.04347809
               2.26495888                4.03601095                9.00597665                0.05109115               -0.11140034               -0.05380145                0.23259487                0.04564586                1.46245602               -0.90920710
               3.26408944                4.01377157                8.98237852                0.00010000               -0.19184012                0.37115228               -0.22272479                0.52047305                4.07612251               -0.17896708
               4.26112208                4.00194907                8.98285366                0.00010000               -0.28944869                0.20431373               -0.14190496                1.06478078                5.06278231               -0.48918709
               5.25830046                3.98890371                8.98143810                0.00010000               -0.27490811                0.16572305               -0.20326614                1.04903263                4.84293822               -0.33421783
               6.25562392                3.97642318                8.97948458                0.00010000               -0.24961530                0.16262941               -0.29271350                1.04712710                4.72118856               -0.00469577
               7.25330816                3.96511913                8.97753000                0.00010000               -0.24329770                0.11593555               -0.38921243                1.00787466                4.75027014                0.55958593
               8.25075797                3.95564047                8.97765975                0.26836225               -0.04564631                0.21008442               -0.46364821                0.45743234                2.43850488                1.39483159
               9.25239523                3.93845007                8.93066095                1.00000000                0.23128762                0.27280315               -0.82040835                0.01338111                0.04011024                0.41071708
              10.25538372                3.92138374                8.88292183                1.00000000                0.29884890                0.35899283               -1.20727619               -0.02916230               -0.00108741               -0.29718851
               0.29031639                5.07836399                9.10085481                1.00000000               -0.20908878               -0.31716525                0.95040712               -0.04254688                0.06512518                0.81358534
               1.28822551                5.05731494                9.04433262                0.87452952               -0.14831226               -0.15101798                0.50134619               -0.02496638                0.10077144               -0.09141883
               2.28735015                5.03575442                8.98839045                0.01354987               -0.12783576                0.00491011                0.06389136                0.20721473                2.50910803               -0.91796177
               3.28566879                5.01829740                8.98011197                0.00010000               -0.20966828                0.36143007               -0.15513171                0.56021763                5.09219054               -0.18023795
               4.28315678                5.00414539                8.97798925                0.00010000               -0.26834783                0.24236090               -0.21636498                0.79034921                5.54532314               -0.32968713
               5.28030183                4.99090062                8.98082349                0.00010000               -0.31773463                0.21545067               -0.22511005                0.82436121                5.77562158               -0.19627373
               6.27680209                4.97817383                8.98532834                0.00010000               -0.37692820                0.18765634               -0.23903032                0.81893340                5.83780333                0.11698499
               7.27276327                4.96666613                8.99143750                0.00010000               -0.43267827                0.15244134               -0.24664597                0.82735793                5.92972536                0.57803691
               8.26814852                4.95724603                8.99967504                0.28196108               -0.17651622                0.11808590               -0.23329571                0.39633968                2.99008513                1.10290087
               9.26923294                4.94086140                8.94850004                1.00000000                0.17879560                0.20791879               -0.63596886                0.00740027                0.00979619                0.37879833
              10.27172444                4.92475332                8.89715894                1.00000000                0.24914912                0.31297415               -1.04832931               -0.02955340               -0.00259319               -0.32596993
               0.31007909                6.07536843                9.09052487                1.00000000               -0.16514048               -0.27582845                0.82049837               -0.04513446                0.06769317                0.75635669
               1.30842769                6.05606232                9.02936590                0.73623884               -0.09791824               -0.09782899                0.32948542               -0.03248100                0.14856861               -0.19077308
               2.30812073                6.03610915                8.96969886                0.00647071               -0.07624347                0.06847230               -0.14753373                0.23698636                3.17101459               -1.07690112
               3.30690282                6.02100017                8.96911201                0.00010000               -0.18974390                0.25836682               -0.21950416                0.58005716                6.21355866               -0.72606595
               4.30432585                6.00679629                8.97298792                0.00010000               -0.30717823                0.27619304               -0.23793241                0.65234605                6.50544222               -0.43240201
               5.30075925                5.99321272                8.98078999                0.00010000               -0.40443878                0.24988551               -0.21336189                0.64399856                6.73161995               -0.18171162
               6.29623707                5.98017630                8.99160505                0.00010000               -0.49880695                0.20896832               -0.16736026                0.61992746                6.88581951                0.14654468
               7.29078311                5.96816795                9.00485116                0.00010000               -0.58737887                0.13928231               -0.10404602                0.62608419                7.02434387                0.55271068
               8.28448949                5.95800219                9.02058516                0.29881465               -0.28735841                0.03725590               -0.01640433                0.29621135                3.54557555                1.02334558
               9.28503594                5.94260845                8.96596221                0.94222908                0.12596556                0.14415000               -0.44903855                0.00143139                0.02518376                0.33993279
              10.28700881                5.92764322                8.91125322                1.00000000                0.19728613                0.26274240               -0.88014078               -0.02801980                0.01810245               -0.35996380
               0.32802592                7.07284742                9.07951834                1.00000000               -0.11907511               -0.22454203                0.68003197               -0.04392507                0.04069064                0.70763862
               1.32683517                7.05535836                9.01336434                0.65987377               -0.04369431               -0.04369045                0.14667513               -0.03403966                0.13523796               -0.26139109
               2.32715203                7.03712387                8.94899047                0.01847603               -0.01261874                0.13385042               -0.37863234                0.22142568                3.75840695               -1.23285281
               3.32658279                7.02346473                8.95548631                0.00010000               -0.15804412                0.25634281               -0.32513233                0.50857652                7.34997988               -0.94054339
               4.32399115                7.00966925                8.96604407                0.00010000               -0.33904996                0.29256514               -0.25924453                0.50135031                7.59002396               -0.57132730
               5.31980179                6.99589833                8.98028466                0.00010000               -0.48728707                0.28165769               -0.18518266                0.46472798                7.78119870               -0.21606660
               6.31424541                6.98235319                8.99762704                0.00010000               -0.61713626                0.23019588               -0.08795301                0.41090092                7.93875972                0.13295814
               7.30745907                6.96945178                9.01787542                0.00010000               -0.73065760                0.12205591                0.03849401                0.38352490                8.10619971                0.52341790
               8.29963226                6.95799115                9.04106132                0.31876877               -0.39192622               -0.03710681                0.19607633                0.16243530                4.10100648                0.98332775
               9.29962054                6.94374440                8.98308488                0.90198296                0.07311222                0.08631845               -0.26480899               -0.00582390                0.03248213                0.30144872
              10.30109450                6.93000817                8.92481690                1.00000000                0.14739570                0.21326263               -0.72371844               -0.02818446                0.01624794               -0.40920420
               0.34417871                8.07087759                9.06805857                1.00000000               -0.07082582               -0.17032984                0.53309963               -0.04100678                0.02653937                0.68187490
               1.34347045                8.05518852                8.99696241                0.63885015                0.01320815                0.01162351               -0.04306833               -0.02809367                0.09941394               -0.29206594
               2.34444287                8.03878616                8.92723941                0.03970077                0.05292558                0.20083933               -0.62537352                0.18698403                4.28905270               -1.25320161
               3.34452896                8.02612702                8.94019361                0.00010000               -0.12618040                0.25807657               -0.38082900                0.38293618                8.50157049               -1.03191904
               4.34191926                8.01264760                8.95807859                0.00010000               -0.35795442                0.28674019               -0.25446125                0.33485014                8.74238215               -0.58078720
               5.33736987                7.99884588                8.97913946                0.00010000               -0.55088114                0.29626476               -0.15160628                0.29395708                8.85982529               -0.21355858
               6.33090164                7.98478022                9.00306975                0.00010000               -0.72771070                0.26899815               -0.01028894                0.21025658                8.99276221                0.10487844
               7.32281566                7.97060907                9.03028347                0.00738249               -0.87280283                0.13323418                0.17572418                0.09404224                9.19801626                0.45102529
               8.31344558                7.95726005                9.06121366                0.34160104               -0.49566057               -0.10821336                0.40644746               -0.00347970                4.66465009                0.92215734
               9.31290245                7.94433482                8.99981251                0.89807102                0.02359969                0.03171869               -0.09504332               -0.00821959                0.03018887                0.28693094
              10.31391758                7.93190847                8.93790265                0.97820027                0.10151296                0.17138775               -0.58277144               -0.02930408                0.00452134               -0.43515652
               0.35858393                9.06944083                9.05636841                1.00000000               -0.02192072               -0.12099946                0.38441600               -0.03591780                0.02343658                0.56388521
               1.35836473                9.05559083                8.98034813                0.66241635                0.06846354                0.07071209               -0.23718630               -0.01501439                0.12295087               -0.26980825
               2.35995320                9.04114065                8.90626782                0.05082878                0.10076770                0.26474946               -0.86821014                0.11108758                4.83843439               -0.90323615
               3.36038008                9.02862626                8.92487881                0.00010000               -0.09919517                0.22560011               -0.29317340                0.20079983                9.66607111               -0.76410420
               4.35796930                9.01540406                8.95048464                0.00010000               -0.34158861                0.25952009               -0.23284688                0.17004892                9.88667657               -0.37914192
               5.35354831                9.00182362                8.97786006                0.00010000               -0.56409782                0.28935047               -0.12444590                0.15725521                9.86459212               -0.13246476
               6.34668734                8.98773316                9.00766712                0.00010000               -0.83441136                0.29539839                0.05428263                0.06405777                9.97419030                0.06569070
               7.33686008                8.97211646                9.04124926                0.01496485               -1.04252140                0.24892441                0.29617789               -0.12505364               10.28086073                0.27771021
               8.32583691                8.95582688                9.08042861                0.36497276               -0.60261738               -0.17017810                0.60416396               -0.21929273                5.30462480                0.65022309
               9.32480773                8.94437877                9.01665165                0.94281111               -0.02379023               -0.02370552                0.07514513               -0.00588540                0.07071286                0.26176677
              10.32536111                8.93343592                8.95093965                0.96204607                0.05533783                0.13431850               -0.44169313               -0.02859526               -0.02312039               -0.36437275
               0.37116033               10.06845760                9.04236629                1.00000000                0.03099989               -0.09832233                0.22663313                0.07215574                0.33708308                0.45853937
               1.37147033               10.05660276                8.96445440                0.85987879                0.12344281                0.10119242               -0.41804625                0.09173808                0.60282038               -0.24151191
               2.37362919               10.04408115                8.89185346                0.53385652                0.14056097                0.29404954               -1.03891002                0.06941218                5.60187152               -0.60105242
               3.37428155               10.03063903                8.91429221                0.35631052               -0.07531533                0.20127626               -0.28227463                0.07798975               10.51615475               -0.38961228
               4.37212288               10.01783800                8.94522800                0.35283220               -0.30478378                0.24339401               -0.25376590                0.11505136               10.73381642               -0.15886835
               5.36818588               10.00463289                8.97700998                0.37557490               -0.51164649                0.28092657               -0.12267922                0.10626662               10.64588207               -0.02743607
               6.36188995                9.99068819                9.01108377                0.42178438               -0.79825074                0.29550342                0.09489629                0.06799480               10.76687378                0.07659812
               7.35222086                9.97558756                9.04927451                0.51060536               -1.25462674                0.34711001                0.38363576               -0.30550665               11.19697768                0.19556823
               8.33679742                9.95385649                9.09496134                0.69284857               -0.85225831               -0.19703861                0.75322276               -0.49029221                6.06451344                0.43267135
               9.33517570                9.94386071                9.03281824                1.00000000               -0.07830257               -0.05180604                0.23855379                0.07371389                0.42260858                0.23612842
              10.33523137                9.93459484                8.96543482                0.98745429                0.00556719                0.11589222               -0.29077872                0.06043913                0.16648403               -0.29038414
               0.20541878                0.11658960               10.16704993                1.00000000               -0.39613903               -0.44008459                1.51443039               -0.07643574               -0.47050130                0.52117208
               1.20145739                0.08463220               10.12499093                1.00000000               -0.32750198               -0.34276381                1.19782754               -0.05616818               -0.55922160                0.00610724
               2.19886874                0.05239797               10.08102591                0.99620148               -0.17808318               -0.24815537                0.84507408               -0.04362087               -0.49097251               -0.19339716
               3.19789572                0.02095456               10.04021988                0.59946895                0.30572625               -0.18301620                0.53050050                0.38539713                0.43734935               -0.33868726
               4.20498326               -0.00068918               10.01476047                0.64705559                0.50400578               -0.15012363                0.23673540                0.00207083                1.09245488                0.01471037
               5.20797584               -0.01581348                9.98699824                0.70824507                0.20062175               -0.00442529               -0.09727030               -0.00151261                0.78888189                0.01568925
               6.20899570               -0.02997605                9.95589887                0.70575401                0.05589393                0.11024770               -0.44751027                0.00526600                0.65553105               -0.00694542
               7.20909372               -0.04638572                9.92560539                0.82263137                0.05900826                0.22197869               -0.79759468                0.06435463                0.40227931                0.02925986
               8.21017586               -0.06731705                9.88946444                1.00000000                0.21920864                0.33894003               -1.12643513                0.04122202               -0.08039666                0.31895728
               9.21347789               -0.09076574                9.84972853                1.00000000                0.39799464                0.41484701               -1.44403231               -0.05065117               -0.28827796                0.02490730
              10.21813576               -0.11428478                9.80960888                1.00000000                0.46578653                0.50491330               -1.75011311               -0.07976789               -0.31400570               -0.33464675
               0.23661183                1.11218876               10.15271196                1.00000000               -0.36203031               -0.42365910                1.37641752               -0.03198716               -0.04577136                0.71297538
               1.23299152                1.08120456               10.11019250                1.00000000               -0.31702398               -0.32085646                1.06049521               -0.01149511                0.01991108                0.01678647
               2.23027135                1.04991642               10.06890102                0.71985450               -0.23491270               -0.22327709                0.73773146                0.01236575                0.26066450               -0.51554934
               3.22829327                1.01912440               10.03120626                0.05622881               -0.34416761               -0.17663429                0.41444149                0.50506817                1.42003767               -0.69331307
               4.22338799                0.99780958               10.01326580                0.16969658               -0.28445604                0.09254110                0.20467127                0.46373485                2.00449178                0.31014070
               5.22260415                0.98414226                9.98897663                0.23521290                0.04732397                0.09803234               -0.09660834                0.48279415                1.46645828                0.21315736
               6.22433447                0.97112643                9.96103283                0.16264652                0.29018075               -0.04108397               -0.41755072                0.41245878                1.32662564               -0.34806113
               7.22840776                0.95583407                9.93435156                0.34462084                0.42218104                0.25521905               -0.71981859                0.44891139                1.22046811                0.53429108
               8.23277809                0.93607235                9.90442774                1.00000000                0.40237409                0.31319242               -1.00278592                0.15576719                0.60170423                0.41488859
               9.23645525                0.91338273                9.86523908                1.00000000                0.40395125                0.39605021               -1.30463946               -0.00192751                0.08668526                0.07457893
              10.24085712                0.89076435                9.82505769                1.00000000                0.44018744                0.47924768               -1.61033898               -0.03137378                0.03287586               -0.39493131
               0.26674743                2.10811642               10.14203005                1.00000000               -0.32476029               -0.39432284                1.26533917               -0.03405114                0.03071868                0.92189358
               1.26349983                2.07821507               10.09550452                1.00000000               -0.27756098               -0.28091093                0.92806082               -0.01487098                0.10020310               -0.00083122
               2.26119621                2.04793243               10.05028658                0.33484388               -0.16979551               -0.17475364                0.61114619               -0.00060991                0.66670302               -0.98509104
               3.26010392                2.01742188               10.01508457                0.00010000               -0.59780571               -0.15655150                0.28974872                0.79644068                3.02808362               -1.32399316
               4.24924010                2.00116164               10.01727549                0.00010000               -0.78945195                0.22517500                0.58054252                1.54940517                3.21667648               -0.87419688
               5.24431488                1.98614716                9.99476854                0.00010000               -0.18435159                0.08288873               -0.02205377                1.32427937                1.39335160               -0.47359150
               6.24555307                1.96920227                9.95937309                0.00010000                0.44055708               -0.07827164               -0.40049588                1.35056642                2.22371461                0.05375289
               7.25312602                1.95871866                9.95328869                0.00010000                0.50947405               -0.00192884               -0.61558941                0.97448919                2.48772238                0.36045946
               8.25574255                1.93894680                9.92136651                0.41299765                0.28106598                0.29025378               -0.85946319                0.20389097                0.84090897                0.78031411
               9.25874734                1.91715526                9.88183609                1.00000000                0.35012465                0.37164943               -1.16097962                0.03166131                0.31438050                0.33757279
              10.26274504                1.89530017                9.83943431                1.00000000                0.39976992                0.43032404               -1.48371592               -0.02052901                0.16798410               -0.40919071
               0.29573351                3.10430230               10.13167123                1.00000000               -0.28554116               -0.36868122                1.15561931               -0.03603202                0.02665750                0.93882547
               1.29287810                3.07558634               10.08025275                1.00000000               -0.23405855               -0.24217281                0.79014974               -0.01881266                0.02891939               -0.03541494
               2.29105234                3.04642134               10.02877724                0.14842087               -0.09426159               -0.11835949                0.42535473               -0.05786488                0.83548925               -1.07889922
               3.29099287                3.01599337                9.99346978                0.00010000               -0.27007637                0.05190394                0.11674016                0.71833348                3.30602855               -1.19530894
               4.28565081                3.00231308                9.99165655                0.00010000               -0.49718798                0.13795238                0.03728299                1.74534747                4.54252492               -1.55261062
               5.28104911                2.98580004                9.98325490                0.00010000               -0.34382559                0.05426399               -0.09672842                1.67235298                3.92808533               -0.94969918
               6.27877430                2.96956099                9.97193656                0.00010000               -0.14480447                0.09617424               -0.32698475                1.56390275                3.63872263                0.31017168
               7.27815302                2.95579549                9.95886633                0.00010000               -0.01774931               -0.10396305               -0.51658412                1.14546397                3.40709282                0.12625041
               8.27841931                2.94187743                9.94369212                0.26041728                0.12910404                0.28123702               -0.70919142                0.48930766                1.97699654                1.40567948
               9.28073510                2.92081572                9.90266662                1.00000000                0.28687058                0.33578127               -0.98769660                0.04204282                0.33633504                0.50197585
              10.28415673                2.89937083                9.85477813                1.00000000                0.34216268                0.39133849               -1.34602251               -0.02936013               -0.01081016               -0.33046035
               0.32345871                4.10074280               10.12114287                1.00000000               -0.24541770               -0.34215978                1.04171281               -0.03637179                0.02651519                0.91685660
               1.32100454                4.07337161               10.06480884                1.00000000               -0.19134136               -0.19844266                0.64537001               -0.01694419                0.02778025               -0.04541466
               2.31963188                4.04556524               10.00839015                0.06111953               -0.12128441               -0.05768041                0.24802079                0.04228220                1.42826915               -0.96918967
               3.31857885                4.01845996                9.98008390                0.00010000               -0.26457521                0.37273763               -0.22844317                0.57244223                4.31049602               -0.24026758
               4.31434038                4.00392069                9.98152285                0.00010000               -0.40324088                0.18212048               -0.12787851                1.18349029                5.49517372               -0.57566943
               5.31051403                3.98723244                9.97949195                0.00010000               -0.37523579                0.17224116               -0.18928657                1.14010338                5.17570376               -0.40074912
               6.30683566                3.97112575                9.97659011                0.00010000               -0.33975808                0.17530492               -0.28516314                1.13542609                5.02711217                0.00346515
               7.30371887                3.95663940                9.97363801                0.00010000               -0.31635948                0.12882982               -0.38636618                1.11548912                5.05656810                0.61935744
               8.30050848                3.94457154                9.97299642                0.26278258               -0.08120376                0.21628765               -0.46703402                0.51927786                2.60880863                1.51319289
               9.30209479                3.92387089                9.92250293                1.00000000                0.22695688                0.27210780               -0.81205217                0.02314588                0.05710080                0.44460548
              10.30504761                3.90312694                9.87092281                1.00000000                0.29528204                0.35460023               -1.19448756               -0.02749382               -0.00017986               -0.31117023
               0.34974845                5.09745911               10.11019153                1.00000000               -0.20316695               -0.31027057                0.91907502               -0.03886622                0.06940915                0.86823610
               1.34771678                5.07161749               10.04932426                0.86139502               -0.14694027               -0.14965019                0.49682617               -0.02136484                0.10968939               -0.10546735
               2.34680964                5.04526773                9.98915546                0.02123739               -0.18152585                0.00108388                0.08653621                0.23029613                2.61893725               -0.99300363
               3.34408626                5.02344812                9.97852445                0.00010000               -0.31307544                0.39671246               -0.17364721                0.59778178                5.39878049               -0.10377048
               4.34054813                5.00595549                9.97589055                0.00010000               -0.37200746                0.23430542               -0.20602096                0.87206842                5.96459356               -0.34191401
               5.33664611                4.98924486                9.97864298                0.00010000               -0.42361351                0.22042415               -0.21188494                0.88872924                6.20443568               -0.20447114
               6.33207586                4.97306709                9.98297275                0.00010000               -0.48145470                0.20737618               -0.23107863                0.88516189                6.25519811                0.13846644
               7.32701702                4.95837209                9.98896268                0.00010000               -0.52512381                0.17119498               -0.24625295                0.91096536                6.34879149                0.63912359
               8.32157339                4.94620318                9.99729818                0.27611069               -0.21872006                0.11853236               -0.24160963                0.44699400                3.20464732                1.20332057
               9.32264262                4.92625787                9.94217758                1.00000000                0.17606810                0.20511514               -0.62873619                0.01430823                0.01541873                0.41474901
              10.32509475                4.90646284                9.88675536                1.00000000                0.24521321                0.31078004               -1.03255927               -0.02800438               -0.00272305               -0.33349418
               0.37436462                6.09453739               10.09854895                1.00000000               -0.15960133               -0.26792958                0.78688696               -0.04151116                0.06789812                0.80264930
               1.37276861                6.07037861               10.03264999                0.72513311               -0.09787257               -0.09665230                0.32733313               -0.02871520                0.15429595               -0.22002401
               2.37240717                6.04558691                9.96837940                0.01170450               -0.14609434                0.06461497               -0.11883347                0.27658134                3.37776136               -1.18318613
               3.36984672                6.02639421                9.96704462                0.00010000               -0.32110801                0.27186103               -0.20024029                0.65622610                6.64229675               -0.72961356
               4.36598501                6.00860680                9.97070864                0.00010000               -0.43348541                0.28187571               -0.22237754                0.73956828                6.98210159               -0.41516809
               5.36117702                5.99164093                9.97873443                0.00010000               -0.52866694                0.26516135               -0.19902413                0.71999073                7.23397647               -0.16264569
               6.35541167                5.97527328                9.98996660                0.00010000               -0.61874639                0.23354784               -0.15953149                0.68386583                7.39527389                0.18100320
               7.34880209                5.96006330               10.00379241                0.00010000               -0.69245514                0.15959345               -0.10584068                0.69305607                7.54043541                0.61334488
               8.34156257                5.94694219               10.02035290                0.29302561               -0.33403935                0.03592797               -0.02968626                0.33352077                3.80394013                1.11475412
               9.34212130                5.92797319                9.96146811                0.92968659                0.12575164                0.14233590               -0.44939884                0.00572936                0.02867133                0.37600201
              10.34407760                5.90934254                9.90250747                1.00000000                0.19563027                0.26365442               -0.87053214               -0.02626342                0.02363690               -0.36954812
               0.39723578                7.09210051               10.08612830                1.00000000               -0.11428340               -0.21605521                0.64505178               -0.04010481                0.03881571                0.74683257
               1.39609295                7.06968444               10.01484724                0.65001706               -0.04550538               -0.04336346                0.14982566               -0.02936848                0.13579772               -0.29836095
               2.39632567                7.04656003                9.94542080                0.02038945               -0.09510231                0.12769287               -0.33843348                0.26848068                4.04164423               -1.35557832
               3.39419090                7.02888534                9.95240705                0.00010000               -0.31164469                0.25847341               -0.29676304                0.60470875                7.91509608               -0.94978552
               4.39009278                7.01159301                9.96357670                0.00010000               -0.49057268                0.31239424               -0.23902209                0.61302577                8.16036463               -0.54097299
               5.38437945                6.99454809                9.97852449                0.00010000               -0.63809882                0.31477770               -0.16943776                0.55671839                8.35965602               -0.18315246
               6.37733080                6.97773805                9.99678652                0.00010000               -0.75851074                0.26704812               -0.08017725                0.47533443                8.53092469                0.17238176
               7.36920923                6.96156396               10.01822598                0.00010000               -0.84984448                0.14869611                0.03340160                0.43287053                8.71214920                0.58199188
               8.36033391                6.94692174               10.04290098                0.31326682               -0.44261913               -0.03640671                0.17449087                0.18714875                4.40356256                1.07178111
               9.36035685                6.92910459                9.98042052                0.89486875                0.07484349                0.08643637               -0.27177280               -0.00100439                0.03364449                0.33182433
              10.36183078                6.91173592                9.91763475                1.00000000                0.14739338                0.21546277               -0.71964585               -0.02556926                0.01957861               -0.42861513
               0.41839467                8.09021628               10.07319773                1.00000000               -0.06729503               -0.16172797                0.49827956               -0.03730106                0.02358121                0.71759099
               1.41772172                8.06951134                9.99658991                0.62910740                0.00906059                0.00983807               -0.03194086               -0.02342889                0.09224782               -0.33372420
               2.41857588                8.04814077                9.92129411                0.03691618               -0.04068985                0.18845313               -0.56812265                0.24328738                4.66702165               -1.38061889
               3.41690793                8.03156367                9.93639646                0.00010000               -0.29965500                0.27778380               -0.37745014                0.51095266                9.21278086               -0.96647486
               4.41258278                8.01485468                9.95558874                0.00010000               -0.53707916                0.33632486               -0.24733337                0.46864456                9.38736903               -0.52619648
               5.40616634                7.99793648                9.97772360                0.00010000               -0.73401469                0.35310239               -0.13646352                0.39096845                9.50320532               -0.17601893
               6.39790249                7.98061424               10.00301086                0.00010000               -0.89452668                0.32408404               -0.00278738                0.26595775                9.66261030                0.14018007
               7.38827581                7.96303722               10.03198345                0.00633513               -1.00687893                0.17284213                0.16618599                0.11913960                9.89402280                0.49990460
               8.37776491                7.94621405               10.06509514                0.33703026               -0.54943904               -0.10292700                0.37348735                0.00418968                5.00857866                1.00328625
               9.37728703                7.92970192                9.99881175                0.89797596                0.02693218                0.03347540               -0.10605543               -0.00503260                0.02503483                0.31034930
              10.37830356                7.91365180                9.93213792                1.00000000                0.10165278                0.17211720               -0.57589192               -0.02639308                0.00702055               -0.46117381
               0.43789964                9.08886596               10.06002458                1.00000000               -0.01997658               -0.11206977                0.35072690               -0.03306243                0.01743059                0.59433899
               1.43769988                9.06988120                9.97808970                0.65187847                0.06197209                0.06539802               -0.21584528               -0.01236669                0.11153836               -0.30677753
               2.43913909                9.05032910                9.89800511                0.04256969               -0.00019183                0.24443478               -0.79070852                0.19907304                5.35869087               -0.99417895
               3.43769604                9.03444102                9.92128641                0.00010000               -0.30231112                0.31254690               -0.38938704                0.33161554               10.50372487               -0.66278170
               4.43309286                9.01831950                9.94810115                0.00010000               -0.56283924                0.34672436               -0.24753780                0.27880374               10.54569347               -0.32882804
               5.42643926                9.00161014                9.97672336                0.00010000               -0.77718261                0.36745511               -0.11083295                0.22355062               10.56075721               -0.10575340
               6.41754921                8.98421973               10.00825787                0.00010000               -1.02235227                0.36485615                0.06141473                0.09712225               10.71977178                0.08744403
               7.40599221                8.96502080               10.04412891                0.01555400               -1.18981000                0.30755203                0.28197093               -0.12431717               11.06778801                0.30497415
               8.39375301                8.94486320               10.08621609                0.36258392               -0.65868801               -0.15868357                0.55883862               -0.23226690                5.69673631                0.70007801
               9.39281845                8.92977410               10.01729015                0.94067499               -0.01749224               -0.01868734                0.05402373               -0.00628081                0.06287892                0.28164114
              10.39340317                8.91517827                9.94653319                0.96383799                0.05847150                0.13514246               -0.44171603               -0.02672123               -0.02516288               -0.38656936
               0.45570293               10.08797489               10.04446731                1.00000000                0.03083207               -0.08910678                0.19721816                0.06476960                0.34598343                0.48343451
               1.45601125               10.07081930                9.96043451                0.85508902                0.11473010                0.09380964               -0.38808388                0.08386600                0.62177211               -0.27139454
               2.45799753               10.05302947                9.88192423                0.52877968               -0.02307100                0.27003717               -0.95398324                0.23560992                6.23926852               -0.65587907
               3.45554983               10.03781461                9.91055953                0.35712565               -0.35038924                0.33735915               -0.42138171                0.22336376               11.43785751               -0.31389505
               4.45098974               10.02178917                9.94261280                0.35316905               -0.54063491                0.34696657               -0.27483989                0.16323661               11.42716511               -0.12767661
               5.44473713               10.00528558                9.97589672                0.37568364               -0.72777374                0.36754464               -0.10899415                0.13589699               11.40837011               -0.00971335
               6.43643427                9.98791136               10.01207994                0.42191088               -0.97955669                0.36916344                0.10177720                0.08364006               11.59162988                0.09200764
               7.42514600                9.96918827               10.05301594                0.51156826               -1.40339973                0.41674642                0.36721388               -0.32817070               12.07258920                0.21535193
               8.40836627                9.94304038               10.10219504                0.69284885               -0.91498269               -0.18228181                0.70057741               -0.53167824                6.51540241                0.45603708
               9.40684634                9.92932817               10.03503824                1.00000000               -0.07027392               -0.04459278                0.20811620                0.06850238                0.43817617                0.25201782
              10.40696080                9.91635465                9.96249745                1.00000000                0.01144542                0.11763779               -0.29910317                0.05841033                0.17479690               -0.30616426
               0.24415947                0.13700941               11.18205999                1.00000000               -0.38964896               -0.43150823                1.48909664               -0.07510414               -0.50774896                0.55581534
               1.24026298                0.10021037               11.13688686                1.00000000               -0.32147802               -0.33776754                1.18170789               -0.05602872               -0.61538176                0.01265639
               2.23772991                0.06316089               11.08943405                1.00000000               -0.17377899               -0.24619222                0.84022137               -0.04303353               -0.54755063               -0.18659617
               3.23678740                0.02700701               11.04552023                0.60713190                0.30790429               -0.18292379                0.53332650                0.40667094                0.40791321               -0.37017382
               4.24388800                0.00118034               11.01712321                0.66090541                0.49502457               -0.13124634                0.23633021               -0.00757814                1.05131822                0.02831431
               5.24668789               -0.01761045               10.98604998                0.72563082                0.18755803                0.00167475               -0.09196187                0.00195867                0.72559431                0.02174655
               6.24763916               -0.03536161               10.95148442                0.71869762                0.05138823                0.10914835               -0.43497732                0.00646077                0.58321997               -0.01286705
               7.24771566               -0.05522769               10.91769590                0.82972216                0.05281636                0.21787260               -0.78288045                0.06245073                0.33822567                0.03002653
               8.24869548               -0.07965386               10.87827663                1.00000000                0.20957184                0.33577519               -1.10996161                0.04375043               -0.12670009                0.33053778
               9.25190710               -0.10673698               10.83537645                1.00000000                0.39007461                0.41000378               -1.42547740               -0.05097711               -0.32313315                0.02276536
              10.25649698               -0.13393475               10.79220625                1.00000000                0.45898817                0.49818679               -1.72951283               -0.07987967               -0.34359041               -0.36530178
               0.28020747                1.13269432               11.16635242                1.00000000               -0.35805126               -0.41438639                1.35309841               -0.03131795               -0.05379632                0.75965407
               1.27662695                1.09683270               11.12072801                1.00000000               -0.31531065               -0.31581899                1.04696645               -0.01068553                0.00692731                0.02522901
               2.27390125                1.06069897               11.07623924                0.73994971               -0.23912833               -0.22239287                0.73133042                0.01803703                0.24350838               -0.51727810
               3.27184439                1.02517778               11.03535160                0.07201231               -0.38901534               -0.17712225                0.41689167                0.54780912                1.45761901               -0.72931844
               4.26612095                0.99986787               11.01529855                0.19308180               -0.34329675                0.09970824                0.20228703                0.33703585                2.06054714                0.49086596
               5.26497845                0.98240630               10.98802556                0.26222385                0.01957189                0.09425321               -0.09357862                0.41833283                1.47403418                0.24422175
               6.26651238                0.96572987               10.95690752                0.18279502                0.27539189               -0.02681301               -0.40764170                0.37005389                1.33404658               -0.35561084
               7.27048629                0.94695104               10.92720926                0.35772628                0.41876255                0.24479690               -0.70792656                0.44694754                1.24104886                0.54566568
               8.27488764                0.92370389               10.89446527                1.00000000                0.40257405                0.31019196               -0.98942682                0.16321693                0.61645759                0.43570168
               9.27853777                0.89736306               10.85226866                1.00000000                0.40041583                0.39200425               -1.28917056               -0.00177564                0.08915891                0.07428757
              10.28289595                0.87104711               10.80904066                1.00000000                0.43581808                0.47156000               -1.59278346               -0.03154359                0.03306474               -0.43220923
               0.31525637                2.12872168               11.15455935                1.00000000               -0.32117419               -0.38448187                1.24198482               -0.03114207                0.02978052                0.98176994
               1.31204463                2.09389399               11.10472612                1.00000000               -0.27554009               -0.27665958                0.91648187               -0.01026453                0.10852900                0.00719226
               2.30974557                2.05871303               11.05640240                0.35170451               -0.17349761               -0.17750356                0.61037320                0.01440968                0.68160691               -1.02398635
               3.30857468                2.02346457               11.01802061                0.00010000               -0.81726894               -0.16044674                0.29541887                0.85278973                3.30895743               -1.38729300
               4.29340019                2.00317450               11.02237771                0.00010000               -0.96910648                0.24458395                0.44834988                1.63738972                3.42897906               -0.94822362
               5.28919255                1.98427462               10.99434146                0.00010000               -0.14523477                0.07312291               -0.05283915                1.40130789                1.33485941               -0.47147840
               6.29049550                1.96410213               10.95549520                0.00010000                0.47440211               -0.09111142               -0.38217886                1.40596147                2.32153915                0.06104357
               7.29868059                1.94966825               10.94711297                0.00010000                0.55261544               -0.02139667               -0.61708501                1.00854680                2.58962399                0.38454428
               8.30154780                1.92654998               10.91282683                0.41873747                0.29238853                0.29120620               -0.84906241                0.23088452                0.90558785                0.81611758
               9.30452836                1.90110310               10.87029164                1.00000000                0.34750921                0.37074766               -1.14823926                0.03789836                0.33666648                0.35369028
              10.30849799                1.87549645               10.82467259                1.00000000                0.39696280                0.42143178               -1.46887513               -0.01867451                0.17964688               -0.44665797
               0.34924000                3.12500469               11.14309893                1.00000000               -0.28096904               -0.35965536                1.13147887               -0.03182244                0.02683325                0.99751181
               1.34643031                3.09129950               11.08810819                1.00000000               -0.23105669               -0.23955531                0.78088684               -0.01373260                0.02860209               -0.03313917
               2.34461887                3.05714889               11.03306949                0.16119556               -0.09958000               -0.12320457                0.43146929               -0.04135106                0.86157259               -1.14365598
               3.34443871                3.02196884               10.99470461                0.00010000               -0.32800867                0.02234909                0.12756684                0.81013169                3.47025021               -1.37040541
               4.33805870                3.00475955               10.99206442                0.00010000               -0.61808658                0.15135932                0.03579093                2.00586142                4.79796687               -1.84969074
               5.33207698                2.98386876               10.98224476                0.00010000               -0.44103579                0.06130125               -0.10700763                1.83514089                4.12067432               -1.02873586
               6.32923798                2.96390765               10.96870405                0.00010000               -0.19338019                0.06770802               -0.32067533                1.70894752                3.80608851                0.33363124
               7.32820938                2.94652311               10.95374410                0.00010000               -0.05837534               -0.11291594               -0.50759962                1.24864953                3.58710731                0.17211507
               8.32807047                2.92952802               10.93668170                0.25779747                0.10699479                0.28741412               -0.69470222                0.53881617                2.09771066                1.48329931
               9.33034927                2.90477801               10.89284157                1.00000000                0.28326518                0.33640582               -0.97788205                0.05151119                0.37489559                0.53182873
              10.33373578                2.87947575               10.84138298                1.00000000                0.33865036                0.38433311               -1.33384786               -0.02810778               -0.00907439               -0.35429661
               0.38203029                4.12152857               11.13142421                1.00000000               -0.24045202               -0.33410281                1.01625103               -0.03261328                0.02610289                0.96979511
               1.37962577                4.08910288               11.07122813                1.00000000               -0.18905401               -0.19675301                0.63837796               -0.01272900                0.02590757               -0.04822041
               2.37824921                4.05624894               11.01093706                0.07178342               -0.12295581               -0.06219016                0.25945893                0.03592517                1.37935109               -1.02223111
               3.37716665                4.02391155               10.97780966                0.00010000               -0.33158531                0.36462105               -0.21976072                0.62116698                4.52037796               -0.31589830
               4.37161750                4.00620169               10.98029609                0.00010000               -0.52096916                0.16808851               -0.12204343                1.29302565                5.91485584               -0.66759057
               5.36674727                3.98550064               10.97765236                0.00010000               -0.47987029                0.18499755               -0.18152412                1.22429847                5.49177015               -0.45815941
               6.36202010                3.96545629               10.97378131                0.00010000               -0.43570308                0.18295096               -0.27711677                1.21288332                5.31978023                0.01596709
               7.35803321                3.94740993               10.96980267                0.00010000               -0.39754378                0.13855490               -0.37991114                1.20231327                5.35004518                0.67954214
               8.35406922                3.93229826               10.96831907                0.25812473               -0.12111789                0.22139723               -0.46734144                0.56886925                2.77571313                1.62253398
               9.35561085                3.90783122               10.91441990                1.00000000                0.22355646                0.27065938               -0.80547811                0.03098601                0.07664890                0.47854996
              10.35854035                3.88318311               10.85903207                1.00000000                0.29295006                0.35115139               -1.18540230               -0.02587864                0.00048813               -0.32081569
               0.41343911                5.11832263               11.11923631                1.00000000               -0.19837472               -0.30219641                0.89185727               -0.03558502                0.07450575                0.91295455
               1.41145536                5.08736444               11.05426914                0.84915257               -0.14552033               -0.14820110                0.49196143               -0.01800782                0.11983207               -0.12039944
               2.41052871                5.05590509               10.99012118                0.02968244               -0.22730305               -0.00344296                0.10415572                0.24644668                2.69265920               -1.06018155
               3.40690930                5.02926126               10.97663903                0.00010000               -0.40992932                0.43068724               -0.21479488                0.62345458                5.68274514               -0.01922859
               4.40233012                5.00812132               10.97386883                0.00010000               -0.48004789                0.23025453               -0.20158012                0.94840044                6.38697405               -0.35278833
               5.39730835                4.98756871               10.97658579                0.00010000               -0.53718818                0.22888306               -0.20169771                0.94394442                6.61628864               -0.20990246
               6.39158636                4.96756667               10.98070677                0.00010000               -0.59473377                0.22631555               -0.22231694                0.93949830                6.65298621                0.16372895
               7.38541367                4.94929420               10.98651244                0.00010000               -0.62798931                0.18808098               -0.24294694                0.97808061                6.74949100                0.70170718
               8.37902657                4.93395596               10.99484284                0.27088641               -0.26647618                0.11981049               -0.24828464                0.48601872                3.41482020                1.30036022
               9.38008415                4.91019120               10.93592531                0.99324705                0.17439285                0.20271647               -0.62572093                0.01933815                0.02641958                0.44977283
              10.38251443                4.88649878               10.87650775                1.00000000                0.24302791                0.30948780               -1.02266853               -0.02611857                0.00103213               -0.33765953
               0.44323497                6.11548464               11.10626261                1.00000000               -0.15518123               -0.25936662                0.75818272               -0.03831620                0.06810830                0.83874059
               1.44168315                6.08613886               11.03591256                0.71490849               -0.09768208               -0.09566070                0.32504408               -0.02506551                0.16009856               -0.24872979
               2.44128132                6.05618008               10.96732219                0.01767926               -0.21318191                0.05962489               -0.09514989                0.31414189                3.56347875               -1.27901187
               3.43741952                6.03252530               10.96510721                0.00010000               -0.45016285                0.29279585               -0.19484956                0.72231034                7.03873231               -0.70342824
               4.43227807                6.01080678               10.96854037                0.00010000               -0.56193498                0.29241847               -0.21614771                0.81519439                7.43643352               -0.38906639
               5.42618082                5.99007830               10.97680951                0.00010000               -0.65967489                0.28387025               -0.18811953                0.78262884                7.71457567               -0.13852119
               6.41908457                5.96998260               10.98841442                0.00010000               -0.74876453                0.25949520               -0.15132628                0.73346526                7.88127125                0.21937823
               7.41120553                5.95117155               11.00273435                0.00010000               -0.80959834                0.18031897               -0.10508868                0.74428944                8.03363052                0.67501507
               8.40289260                5.93469447               11.01999144                0.28778654               -0.38753635                0.03642794               -0.04188412                0.35981973                4.05482709                1.20280629
               9.40345480                5.91188555               10.95697423                0.91626203                0.12551082                0.14230230               -0.45130953                0.00769559                0.03534623                0.40784484
              10.40540282                5.88937287               10.89384258                1.00000000                0.19480209                0.26533171               -0.86792599               -0.02410885                0.03045517               -0.38123064
               0.47136435                7.11313530               11.09241937                1.00000000               -0.11057322               -0.20757535                0.61588026               -0.03685710                0.03712524                0.77634888
               1.47025862                7.08545123               11.01636085                0.64114692               -0.04696207               -0.04336467                0.15257582               -0.02509227                0.13642701               -0.33222406
               2.47042511                7.05709759               10.94222180                0.02329719               -0.17649029                0.12046983               -0.30458195                0.31806862                4.30004313               -1.46220552
               3.46672881                7.03511718               10.94955105                0.00010000               -0.46720542                0.26964362               -0.27940379                0.69712682                8.43887060               -0.95867878
               4.46108100                7.01396969               10.96126362                0.00010000               -0.64718572                0.33962198               -0.22744789                0.70951879                8.69877900               -0.50871076
               5.45378510                6.99324611               10.97689590                0.00010000               -0.79592949                0.35241614               -0.15873834                0.63089592                8.90988948               -0.14585553
               6.44516241                6.97275657               10.99602349                0.00010000               -0.90987547                0.30649365               -0.07322289                0.52319474                9.09456849                0.21542832
               7.43558759                6.95290058               11.01854346                0.00010000               -0.98267230                0.17663424                0.03081899                0.46671277                9.28985966                0.64020283
               8.42550896                6.93468452               11.04455114                0.30837346               -0.50139610               -0.03418998                0.15697649                0.20164565                4.69398509                1.15353626
               9.42555967                6.91303724               10.97764943                0.88049210                0.07743266                0.08933160               -0.28414120                0.00132297                0.03480599                0.36040314
              10.42705762                6.89180541               10.91042398                1.00000000                0.14979516                0.22068432               -0.72702750               -0.02304219                0.02161311               -0.44578248
               0.49786596                8.11133314               11.07802416                1.00000000               -0.06469452               -0.15386388                0.47001828               -0.03426003                0.02112275                0.74434940
               1.49721902                8.08527157               10.99632359                0.62073971                0.00553917                0.00797260               -0.02215076               -0.01936595                0.08611137               -0.36997701
               2.49797675                8.05858948               10.91587696                0.03588841               -0.13645339                0.17646812               -0.51988654                0.30759039                5.00092696               -1.48722411
               3.49448995                8.03791817               10.93264460                0.00010000               -0.48186183                0.30451905               -0.37126817                0.63197306                9.86648939               -0.94295301
               4.48833951                8.01759922               10.95313193                0.00010000               -0.72390470                0.39168730               -0.24439032                0.57868347               10.00710137               -0.48517823
               5.48001186                7.99712662               10.97641019                0.00010000               -0.92227573                0.41446593               -0.12861831                0.46674480               10.12039444               -0.13746088
               6.46989400                7.97611248               11.00301400                0.00010000               -1.07000133                0.38281936                0.00213834                0.30462167               10.29901566                0.17802700
               7.45861183                7.95470424               11.03360719                0.00571466               -1.15525702                0.21414355                0.15947079                0.12841146               10.55383813                0.54703937
               8.44678886                7.93401067               11.06868341                0.33306551               -0.61257315               -0.09779913                0.34758787                0.00346927                5.33793651                1.07503131
               9.44636037                7.91367218               10.99769140                0.88920304                0.03083915                0.03739251               -0.12059450               -0.00177920                0.02339269                0.33289737
              10.44740564                7.89378655               10.92638481                1.00000000                0.10452716                0.17697974               -0.58293167               -0.02285617                0.01169455               -0.48164236
               0.52280229                9.11005802               11.06338295                1.00000000               -0.01873259               -0.10461560                0.32415862               -0.03075220                0.01265052                0.61746993
               1.52261496                9.08561068               10.97603123                0.64307737                0.05640161                0.06068430               -0.19749586               -0.01006187                0.10239593               -0.33792825
               2.52393032                9.06062695               10.89045365                0.03689856               -0.11282135                0.22679197               -0.72604438                0.29548349                5.79069898               -1.06808077
               3.52035853                9.04120756               10.91709107                0.00010000               -0.52420519                0.39483521               -0.42852795                0.45183372               11.27611722               -0.61704213
               4.51344621                9.02180344               10.94553388                0.00010000               -0.78758981                0.43309789               -0.26139950                0.36586819               11.21595696               -0.29431243
               5.50460674                9.00153543               10.97564340                0.00010000               -0.98844903                0.44826428               -0.10754106                0.27418998               11.23803540               -0.07939269
               6.49367723                8.98041296               11.00889541                0.00010000               -1.21745582                0.43858617                0.06433485                0.11786792               11.42763343                0.11038938
               7.48025762                8.95718345               11.04688868                0.01620087               -1.35334142                0.37081543                0.27120554               -0.13693534               11.81032756                0.33021536
               8.46661040                8.93272854               11.09160538                0.36038227               -0.72547075               -0.14956763                0.52393154               -0.25520279                6.06925216                0.74289694
               9.46574820                8.91378509               11.01773212                0.93839961               -0.01193247               -0.01336574                0.03506377               -0.00535403                0.05866455                0.29761112
              10.46637176                8.89534501               10.94210533                0.96581457                0.06235507                0.13782503               -0.44920053               -0.02384552               -0.02439832               -0.40649919
               0.54614560               10.10924082               11.04631066                1.00000000                0.03032511               -0.08171964                0.17443429                0.05877440                0.35261439                0.50253436
               1.54644885               10.08648526               10.95669273                0.85119471                0.10719689                0.08745738               -0.36262446                0.07761365                0.63699704               -0.29603070
               2.54828954               10.06312532               10.87277380                0.52513532               -0.20493555                0.24983644               -0.88312175                0.40240283                6.75918704               -0.69924577
               3.54235014               10.04581487               10.90586457                0.35798693               -0.64802671                0.46073119               -0.48664727                0.35595365               12.29632193               -0.28197728
               4.53532900               10.02626118               10.93973120                0.35348824               -0.77320014                0.44577383               -0.29544157                0.20213079               12.14888163               -0.10822458
               5.52688614               10.00609191               10.97483010                0.37571231               -0.93628352                0.45564786               -0.10677177                0.15909120               12.15332642                0.00609001
               6.51660333                9.98488420               11.01311931                0.42190901               -1.16642977                0.44712422                0.10429833                0.09404163               12.37608203                0.10659565
               7.50355754                9.96212054               11.05661879                0.51240010               -1.57600867                0.49370911                0.35470290               -0.36325175               12.89874338                0.23231233
               8.48508316                9.93101932               11.10897289                0.69265662               -0.99603621               -0.17092173                0.66116361               -0.58850845                6.94056034                0.47548911
               9.48363682                9.91340487               11.03698057                1.00000000               -0.06371291               -0.03802268                0.18206113                0.06504778                0.45179063                0.26417704
              10.48380890                9.89654305               10.95945276                1.00000000                0.01720839                0.11980449               -0.31078165                0.05753305                0.18077806               -0.32117025
               0.28561005                0.15912104               12.19683186                1.00000000               -0.38343659               -0.42385579                1.46661149               -0.07433168               -0.54290884                0.58789660
               1.28177569                0.11720303               12.14862509                1.00000000               -0.31628505               -0.33331495                1.16693147               -0.05651093               -0.66665344                0.01960161
               2.27928435                0.07505568               12.09783034                1.00000000               -0.17054277               -0.24531686                0.83967077               -0.04237762               -0.59993075               -0.18456778
               3.27836483                0.03388835               12.05088641                0.61280228                0.30977655               -0.18506898                0.54027058                0.42568859                0.37208724               -0.40451710
               4.28547988                0.00352643               12.01948708                0.67167594                0.48808420               -0.11540253                0.23727983               -0.01639390                1.00521613                0.04232697
               5.28812652               -0.01932972               11.98515900                0.73976270                0.17671457                0.00649346               -0.08600446                0.00463353                0.66320532                0.02829271
               6.28901417               -0.04107959               11.94719933                0.72958058                0.04697498                0.10830212               -0.42196313                0.00764374                0.51110528               -0.01829888
               7.28906602               -0.06481191               11.90994778                0.83607691                0.04735695                0.21422184               -0.76602766                0.06029821                0.27295265                0.03136089
               8.28996131               -0.09308357               11.86726521                1.00000000                0.20097983                0.33197529               -1.09159229                0.04450668               -0.17398420                0.34222693
               9.29308561               -0.12409485               11.82121898                1.00000000                0.38215156                0.40481346               -1.40538211               -0.05106061               -0.35824545                0.02087807
              10.29760434               -0.15525963               11.77501862                1.00000000                0.45187326                0.49134528               -1.70727004               -0.07947126               -0.37311481               -0.39561163
               0.32678474                1.15488248               12.17977393                1.00000000               -0.35414803               -0.40578582                1.33245581               -0.03128651               -0.06105652                0.80281131
               1.32324326                1.11386988               12.13113182                1.00000000               -0.31334099               -0.31121507                1.03428609               -0.01141488               -0.00542496                0.03359349
               2.32051792                1.07260251               12.08352763                0.75696939               -0.24284587               -0.22166143                0.72710941                0.02086411                0.22778381               -0.52002515
               3.31838634                1.03203766               12.03954409                0.08570041               -0.42964699               -0.17826721                0.42170026                0.58564127                1.48970181               -0.76661117
               4.31192498                1.00237241               12.01731154                0.21330770               -0.39552396                0.09524319                0.20055316                0.23582484                2.10932739                0.61202050
               5.31047586                0.98073521               11.98710506                0.28588177               -0.00466365                0.09140571               -0.09071381                0.36995441                1.48144323                0.26567231
               6.31183171                0.96000343               11.95287999                0.20081435                0.25975628               -0.01468996               -0.39823330                0.33966291                1.34060398               -0.36065623
               7.31567099                0.93733031               11.92019303                0.37027023                0.41080728                0.23433081               -0.69513504                0.43768005                1.25973902                0.55333515
               8.32004785                0.91023618               11.88463920                1.00000000                0.39960255                0.30681452               -0.97571646                0.16686467                0.63041616                0.45678481
               9.32366304                0.87995328               11.83945567                1.00000000                0.39632817                0.38755037               -1.27330076               -0.00165336                0.09165768                0.07453020
              10.32797441                0.84965382               11.79320202                1.00000000                0.43113767                0.46421582               -1.57468721               -0.03135981                0.03336130               -0.46887776
               0.36700951                2.15100532               12.16686975                1.00000000               -0.31821495               -0.37474011                1.22135375               -0.02931283                0.02947438                1.03639670
               1.36382736                2.11097873               12.11383416                1.00000000               -0.27378250               -0.27241724                0.90540084               -0.00732755                0.11701345                0.01462706
               2.36153386                2.07062245               12.06249404                0.36773364               -0.17598004               -0.17944750                0.60693928                0.02568593                0.69439499               -1.05850043
               3.36030776                2.03032300               12.02099294                0.00010000               -1.00175175               -0.16207241                0.29769673                0.89127233                3.51925890               -1.44770103
               4.34149882                2.00543129               12.02624249                0.00010000               -1.12065908                0.25142385                0.34571263                1.71602067                3.63810084               -0.99821226
               5.33789458                1.98249839               11.99371175                0.00010000               -0.11432440                0.05896011               -0.06828592                1.47712121                1.32762827               -0.47041376
               6.33921234                1.95862661               11.95172951                0.00010000                0.48461428               -0.10279654               -0.37337644                1.44706695                2.41470477                0.06827198
               7.34758686                1.93987471               11.94094699                0.00010000                0.57316482               -0.03911069               -0.61473090                1.03363186                2.69075452                0.41267647
               8.35067563                1.91305272               11.90438526                0.42499842                0.30240228                0.29074952               -0.83989968                0.25048296                0.97414537                0.85574390
               9.35363491                1.88365616               11.85887130                1.00000000                0.34502222                0.36853744               -1.13617683                0.04203248                0.35949092                0.37071287
              10.35757608                1.85402468               11.81005681                1.00000000                0.39411683                0.41357995               -1.45446269               -0.01724771                0.19156809               -0.48318968
               0.40625166                3.14738768               12.15430081                1.00000000               -0.27720762               -0.35019999                1.11024737               -0.02844281                0.02777961                1.04968288
               1.40347958                3.10842154               12.09587049                1.00000000               -0.22821452               -0.23662426                0.77160489               -0.00958219                0.02957445               -0.03146197
               2.40168736                3.06901356               12.03740663                0.17404489               -0.10383195               -0.12767607                0.43464840               -0.02609028                0.88387874               -1.20231863
               3.40140294                3.02879621               11.99602112                0.00010000               -0.38086810               -0.00577130                0.13366020                0.88534715                3.61516818               -1.53903227
               4.39407000                3.00740088               11.99237237                0.00010000               -0.72899856                0.16665881                0.02535701                2.22070861                5.03038848               -2.07804431
               5.38682297                2.98191442               11.98111474                0.00010000               -0.53366363                0.06149155               -0.11773121                1.97581260                4.31364996               -1.08484373
               6.38339673                2.95794750               11.96552306                0.00010000               -0.24527279                0.04078815               -0.31591178                1.82511528                3.97684114                0.35597587
               7.38191751                2.93654810               11.94871434                0.00010000               -0.10603343               -0.12063987               -0.49884474                1.33494122                3.76435730                0.22419137
               8.38127606                2.91605117               11.92979807                0.25602836                0.08071065                0.29041753               -0.68416257                0.57529045                2.21766328                1.56221631
               9.38353173                2.88732403               11.88310898                1.00000000                0.28081731                0.33509939               -0.96919869                0.05770510                0.41105562                0.56264126
              10.38689241                2.85792542               11.82810117                1.00000000                0.33606817                0.37805867               -1.32325477               -0.02701352               -0.00717425               -0.37728795
               0.44437293                4.14400132               12.14146789                1.00000000               -0.23630906               -0.32539407                0.99396589               -0.02944558                0.02658459                1.01513046
               1.44200983                4.10624625               12.07757640                1.00000000               -0.18677714               -0.19482341                0.63118029               -0.00917125                0.02514455               -0.05170965
               2.44063738                4.06806893               12.01357932                0.08264311               -0.11912287               -0.06672901                0.26733029                0.02834551                1.32590626               -1.06931126
               3.43962738                4.03020758               11.97568868                0.00010000               -0.39212957                0.34848959               -0.20054783                0.66430583                4.70528299               -0.41436507
               4.43279479                4.00876447               11.97908198                0.00010000               -0.63815831                0.16272832               -0.12364838                1.38957456                6.31474662               -0.75333881
               5.42686421                3.98372822               11.97586147                0.00010000               -0.58569146                0.19876251               -0.17819906                1.29944389                5.79891360               -0.50202706
               6.42108096                3.95944237               11.97104778                0.00010000               -0.53410988                0.18805323               -0.27031938                1.27729475                5.60488457                0.03355610
               7.41618201                3.93746191               11.96603979                0.00010000               -0.48377285                0.14632301               -0.37288224                1.26859733                5.63429616                0.74091773
               8.41140551                3.91886107               11.96364959                0.25423848               -0.16336236                0.22434209               -0.46637581                0.60385438                2.93961054                1.72778853
               9.41291477                3.89035814               11.90639337                1.00000000                0.22137651                0.26874848               -0.80085618                0.03495783                0.09745126                0.51202475
              10.41583304                3.86158586               11.84721477                1.00000000                0.29182687                0.34868593               -1.17948504               -0.02432384                0.00063181               -0.32925740
               0.48117289                5.14087979               12.12802867                1.00000000               -0.19443402               -0.29360925                0.86832420               -0.03277382                0.08019362                0.94947865
               1.47922855                5.10452507               12.05916349                0.83783485               -0.14399721               -0.14669705                0.48668723               -0.01498227                0.13084236               -0.13585072
               2.47829294                5.06767898               11.99123857                0.03848734               -0.26175178               -0.00814337                0.11710493                0.25428255                2.72315248               -1.12046721
               3.47399351                5.03576600               11.97422855                0.00010000               -0.49760479                0.46030176               -0.27509017                0.63761416                5.94614965                0.05956670
               4.46834085                5.01065545               11.97185895                0.00010000               -0.59297846                0.23331021               -0.20326963                1.01701264                6.82452255               -0.36187120
               5.46213394                4.98588967               11.97460903                0.00010000               -0.65659543                0.24160836               -0.19568465                0.98916927                7.01810651               -0.21095435
               6.45520894                4.96170857               11.97852641                0.00010000               -0.71315909                0.24508719               -0.21460291                0.98080931                7.03815787                0.19285610
               7.44787076                4.93947456               11.98410374                0.00010000               -0.73760122                0.20353374               -0.23878044                1.02725583                7.13654944                0.76576241
               8.44045692                4.92053802               11.99233249                0.26629449               -0.31823315                0.12144738               -0.25309293                0.51190846                3.62034168                1.39557000
               9.44150610                4.89269900               11.92966316                0.97899586                0.17467959                0.20239136               -0.63026452                0.02117176                0.04006367                0.48544688
              10.44395051                4.86489914               11.86630198                1.00000000                0.24444088                0.31079222               -1.02442570               -0.02413787                0.00746936               -0.34232536
               0.51642690                6.13812913               12.11371260                1.00000000               -0.15158881               -0.25069247                0.73382150               -0.03556096                0.06831160                0.86683060
               1.51491101                6.10331231               12.03915088                0.70553528               -0.09723962               -0.09480719                0.32235729               -0.02162821                0.16597420               -0.27653775
               2.51448210                6.06790606               11.96647640                0.02409564               -0.27539088                0.05410885               -0.07650435                0.34723483                3.72552671               -1.36556493
               3.50940319                6.03941361               11.96314763                0.00010000               -0.57353611                0.32041842               -0.20560257                0.77287937                7.40609331               -0.64376424
               4.50301138                6.01343067               11.96638568                0.00010000               -0.69043546                0.30858928               -0.21908593                0.87647197                7.87919275               -0.35704446
               5.49559448                5.98856039               11.97497204                0.00010000               -0.79495609                0.30703147               -0.18159800                0.82984325                8.18308789               -0.11125050
               6.48711226                5.96434412               11.98694008                0.00010000               -0.88484005                0.28692328               -0.14449472                0.76689347                8.35156792                0.26029935
               7.47789768                5.94153259               12.00169064                0.00010000               -0.93465152                0.20103095               -0.10370680                0.77769612                8.50974363                0.73769943
               8.46841923                5.92129002               12.01951521                0.28311254               -0.44602991                0.03812389               -0.05233617                0.37620559                4.30024390                1.28912348
               9.46897708                5.89440597               11.95244192                0.90224636                0.12653902                0.14482415               -0.45873025                0.00928532                0.04420966                0.43890666
              10.47095001                5.86780170               11.88514895                1.00000000                0.19729277                0.26894535               -0.87687668               -0.02225542                0.03640030               -0.39564300
               0.55009533                7.13586595               12.09844591                1.00000000               -0.10762653               -0.19947191                0.59172531               -0.03413349                0.03561669                0.79867984
               1.54901906                7.10262893               12.01789876                0.63312589               -0.04794961               -0.04354412                0.15451874               -0.02123226                0.13717968               -0.36314471
               2.54913633                7.06876115               11.93932916                0.02686966               -0.25462881                0.11291900               -0.27709615                0.36683778                4.53489287               -1.55542582
               3.54392648                7.04217437               11.94681897                0.00010000               -0.62064119                0.28754913               -0.27220715                0.78228172                8.92713028               -0.96202421
               4.53672351                7.01682723               11.95902775                0.00010000               -0.80545594                0.37250917               -0.22309781                0.79018852                9.21491491               -0.47424311
               5.52781736                6.99203030               11.97534972                0.00010000               -0.95744469                0.39396825               -0.15256441                0.68587361                9.44228629               -0.10744379
               6.51757462                6.96744703               11.99532206                0.00010000               -1.06692918                0.34793729               -0.06806886                0.55192130                9.63961459                0.25968814
               7.50647878                6.94349518               12.01884236                0.00010000               -1.12334875                0.20501022                0.02903473                0.48194753                9.84773288                0.69809038
               8.49510764                6.92130049               12.04604051                0.30403704               -0.56493290               -0.03147948                0.14157577                0.20602549                4.97565326                1.23236922
               9.49518012                6.89559549               11.97473770                0.86605001                0.08031499                0.09356002               -0.29797921                0.00269728                0.03573222                0.38685146
              10.49671394                6.87027804               11.90309420                1.00000000                0.15338169                0.22679511               -0.73980767               -0.02171318                0.02248351               -0.46346625
               0.58221826                8.13413970               12.08259809                1.00000000               -0.06271073               -0.14685429                0.44724506               -0.03178881                0.01907542                0.76474209
               1.58159115                8.10244142               11.99614689                0.61340886                0.00275773                0.00622892               -0.01415690               -0.01586118                0.08089905               -0.40168557
               2.58227341                8.07016444               11.91089638                0.03606100               -0.23042046                0.16547431               -0.48057547                0.37400311                5.30060689               -1.57733026
               3.57698274                8.04516460               11.92897110                0.00010000               -0.66570945                0.33529191               -0.36392431                0.74640427               10.47308313               -0.93708647
               4.56895923                8.02088086               11.95070093                0.00010000               -0.91452939                0.45033743               -0.24196927                0.67056583               10.60529351               -0.45353153
               5.55869216                7.99643976               11.97515123                0.00010000               -1.11367104                0.47860364               -0.12431974                0.52215392               10.72031519               -0.10130948
               6.54668581                7.97130286               12.00305363                0.00010000               -1.25044947                0.44375873                0.00490602                0.32375118               10.91469086                0.21553022
               7.53368317                7.94563279               12.03517286                0.00535297               -1.31231885                0.25591643                0.15405184                0.11837875               11.19014302                0.59261591
               8.52043943                7.92066043               12.07204690                0.32958754               -0.68148450               -0.09344193                0.32714068               -0.00843245                5.65756514                1.14145271
               9.52005348                7.89627717               11.99639986                0.87437353                0.03555998                0.04208353               -0.13853632               -0.00055755                0.02203278                0.35615192
              10.52115063                7.87233760               11.92047929                1.00000000                0.10971511                0.18511469               -0.60111014               -0.02121427                0.01374178               -0.49952517
               0.61285609                9.13292886               12.06650775                1.00000000               -0.01789993               -0.09847705                0.30337065               -0.02889477                0.00880759                0.63548169
               1.61267709                9.10275351               11.97413979                0.63551864                0.05185646                0.05671299               -0.18246305               -0.00806629                0.09515219               -0.36446273
               2.61389322                9.07207064               11.88348422                0.03298701               -0.22694724                0.21199071               -0.67377568                0.39313569                6.16631951               -1.12896732
               3.60813815                9.04888021               11.91271585                0.00010000               -0.75167786                0.47317316               -0.43719149                0.56497317               11.99158770               -0.59608571
               4.59885967                9.02583398               11.94287316                0.00010000               -1.01498560                0.51745947               -0.26673467                0.43823900               11.87958531               -0.27087393
               5.58783844                9.00160237               11.97457254                0.00010000               -1.20015298                0.52971156               -0.10662552                0.31058055               11.90330210               -0.05637898
               6.57485661                8.97632221               12.00954456                0.00010000               -1.41748241                0.51463041                0.06478329                0.12462748               12.11363239                0.13230092
               7.55948879                8.94861350               12.04955302                0.01683348               -1.52809986                0.43707471                0.26238131               -0.16532138               12.52504416                0.35384199
               8.54429461                8.91943166               12.09669472                0.35833729               -0.79984951               -0.14226382                0.49770493               -0.29000354                6.43069219                0.78195744
               9.54349180                8.89643716               12.01799142                0.93057184               -0.00629080               -0.00811750                0.01604608               -0.00512542                0.05724415                0.31227674
              10.54416879                8.87398034               11.93754918                0.96779602                0.06769937                0.14493878               -0.46688220               -0.02161417               -0.02369351               -0.42291212
               0.64199107               10.13217016               12.04795599                1.00000000                0.02969749               -0.07587041                0.15700630                0.05405065                0.35777475                0.51763581
               1.64228805               10.10357568               11.95318202                0.84793043                0.10091771                0.08221779               -0.34176378                0.07280006                0.64984077               -0.31670522
               2.64400943               10.07440425               11.86426180                0.52245280               -0.38845909                0.23336123               -0.82568066                0.56423907                7.20603864               -0.73428925
               3.63451886               10.05462806               11.90082659                0.35883916               -0.95037896                0.57478506               -0.50575706                0.47936123               13.09678915               -0.26730512
               4.62500185               10.03123005               11.93670397                0.35378845               -1.00516601                0.53960645               -0.30405848                0.23451450               12.87413628               -0.09626902
               5.61441554               10.00703399               11.97376128                0.37568034               -1.14173135                0.54316194               -0.10650988                0.17598189               12.88856832                0.01872432
               6.60216722                9.98159547               12.01416591                0.42179188               -1.35741278                0.52732664                0.10431712                0.09807613               13.13723211                0.11942190
               7.58726729                9.95437428               12.06010999                0.51312357               -1.76757572                0.57607800                0.34426922               -0.41116597               13.69383198                0.24687646
               8.56681571                9.91781515               12.11541832                0.69234599               -1.09325017               -0.16165016                0.63153827               -0.66086347                7.35157106                0.49466199
               9.56540229                9.89611482               12.03867947                1.00000000               -0.05918624               -0.03223337                0.15928186                0.06210986                0.46800405                0.27282680
              10.56563198                9.87523638               11.95628181                1.00000000                0.02296949                0.12560408               -0.32833496                0.05847437                0.19155921               -0.33204048
               0.32971484                0.18288320               13.21139222                1.00000000               -0.37834048               -0.41705337                1.44682240               -0.07385533               -0.57563227                0.61788732
               1.32593144                0.13558893               13.16022549                1.00000000               -0.31224347               -0.32934335                1.15397425               -0.05708025               -0.71250618                0.02613789
               2.32346997                0.08807495               13.10622747                1.00000000               -0.16795123               -0.24401864                0.83812984               -0.04191201               -0.64643686               -0.18612665
               3.32257241                0.04160131               13.05632564                0.61676612                0.31248803               -0.18622899                0.54493143                0.44335946                0.33281476               -0.43914319
               4.32971973                0.00637794               13.02186880                0.67997621                0.48336696               -0.10250716                0.23953515               -0.02422078                0.95454448                0.05646367
               5.33223975               -0.02093670               12.98432989                0.75121947                0.16763788                0.01036980               -0.07980570                0.00656914                0.60157299                0.03514255
               6.33307249               -0.04708892               12.94304516                0.73870594                0.04345381                0.10754839               -0.40919935                0.00868678                0.44012457               -0.02335965
               7.33310883               -0.07509097               12.90237535                0.84181059                0.04360534                0.21095025               -0.74851497                0.05788423                0.20713218                0.03325564
               8.33394460               -0.10755730               12.85644479                1.00000000                0.19399743                0.32768418               -1.07230298                0.04378153               -0.22273205                0.35395618
               9.33698877               -0.14279279               12.80726881                1.00000000                0.37454015                0.39941310               -1.38437928               -0.05089072               -0.39410847                0.01935071
              10.34143540               -0.17821378               12.75806085                1.00000000                0.44466240                0.48451557               -1.68386487               -0.07859118               -0.40286028               -0.42560760
               0.37627055                1.17871266               13.19300154                1.00000000               -0.35057959               -0.39802298                1.31429510               -0.03160624               -0.06768589                0.84306033
               1.37276476                1.13229550               13.14141373                1.00000000               -0.31129461               -0.30705326                1.02261750               -0.01243633               -0.01654102                0.04157744
               2.37004466                1.08563476               13.09078142                0.77110570               -0.24551230               -0.22054614                0.72313850                0.02241174                0.21375269               -0.52427111
               3.36785451                1.03973902               13.04378561                0.09752518               -0.46490642               -0.17838947                0.42502809                0.61785486                1.51664454               -0.80321324
               4.36074653                1.00535287               13.01930961                0.23088078               -0.44078205                0.08857440                0.19914869                0.15758198                2.15196564                0.69521383
               5.35903887                0.97916699               12.98621128                0.30675843               -0.02550197                0.08966793               -0.08826562                0.33260219                1.48872925                0.28280292
               6.36023649                0.95398657               12.94894285                0.21707467                0.24414954               -0.00432890               -0.38975836                0.31666991                1.34696691               -0.36471571
               7.36392186                0.92701853               12.91330656                0.38229046                0.39984138                0.22457211               -0.68246013                0.42320388                1.27677427                0.55920911
               8.36823332                0.89571954               12.87495094                1.00000000                0.39431233                0.30316458               -0.96207206                0.16723067                0.64318324                0.47810867
               9.37180811                0.86120134               12.82680264                1.00000000                0.39185773                0.38284234               -1.25734334               -0.00151534                0.09395368                0.07552518
              10.37607047                0.82663138               12.77754691                1.00000000                0.42623677                0.45736399               -1.55622160               -0.03084898                0.03361089               -0.50482153
               0.42191705                2.17492274               13.17898642                1.00000000               -0.31564373               -0.36562294                1.20316225               -0.02820320                0.02960201                1.08670310
               1.41876061                2.12944787               13.12283413                1.00000000               -0.27211826               -0.26837394                0.89489909               -0.00537424                0.12500486                0.02163229
               2.41647468                2.08366403               13.06854118                0.38282571               -0.17746026               -0.18087630                0.60200239                0.03434047                0.70516119               -1.08990605
               3.41521140                2.03803352               13.02397454                0.00010000               -1.15156408               -0.16232826                0.29801042                0.92036092                3.68264905               -1.50495649
               4.39344340                2.00814943               13.02929196                0.00010000               -1.24766545                0.25031555                0.28003897                1.78247207                3.82859603               -1.03727377
               5.39025809                1.98085665               12.99297574                0.00010000               -0.09445227                0.04275872               -0.07652871                1.54177510                1.34984135               -0.47182647
               6.39155435                1.95282450               12.94802767                0.00010000                0.47909175               -0.11388347               -0.36817325                1.47412617                2.50181057                0.07856307
               7.39983993                1.92940047               12.93481836                0.00010000                0.57760221               -0.05521977               -0.61045801                1.04905672                2.79195242                0.44485116
               8.40310640                1.89850599               12.89602884                0.43153872                0.31033516                0.28942364               -0.83191381                0.26296854                1.04456417                0.89826199
               9.40604663                1.86486405               12.84756811                1.00000000                0.34259735                0.36537172               -1.12482425                0.04433420                0.38297742                0.38927737
              10.40995835                1.83093350               12.79558334                1.00000000                0.39117124                0.40703281               -1.44047363               -0.01618447                0.20374941               -0.51869611
               0.46665623                3.17140021               13.16530387                1.00000000               -0.27402482               -0.34097109                1.09159764               -0.02582282                0.02921606                1.09650609
               1.46391598                3.12692802               13.10354028                1.00000000               -0.22552088               -0.23360869                0.76250733               -0.00631748                0.03149757               -0.03021588
               2.46214581                3.08201724               13.04176246                0.18678320               -0.10698269               -0.13166287                0.43559001               -0.01275952                0.90271363               -1.25541954
               3.46177633                3.03649246               12.99737782                0.00010000               -0.42864858               -0.03083516                0.13645167                0.94500986                3.74374496               -1.69452668
               4.45357284                3.01035918               12.99257156                0.00010000               -0.82885173                0.17494534                0.01651008                2.39129823                5.24603189               -2.25658910
               5.44519929                2.98002217               12.97989014                0.00010000               -0.61988191                0.05545799               -0.12539733                2.09256840                4.50557493               -1.12725762
               6.44117520                2.95170890               12.96238581                0.00010000               -0.29888924                0.01497761               -0.31174314                1.91385377                4.14938905                0.38187064
               7.43922151                2.92591413               12.94376721                0.00010000               -0.15730497               -0.12807898               -0.49131448                1.40382524                3.93857205                0.28283229
               8.43802910                2.90150801               12.92299845                0.25484090                0.05228861                0.29068126               -0.67726541                0.59980501                2.33661149                1.64374039
               9.44026728                2.86850877               12.87345759                1.00000000                0.27893951                0.33267377               -0.96169341                0.06060430                0.44648410                0.59555108
              10.44360789                2.83477203               12.81491789                1.00000000                0.33406126                0.37318257               -1.31401590               -0.02608202               -0.00535143               -0.39956948
               0.51034496                4.16810332               13.15130353                1.00000000               -0.23277338               -0.31663584                0.97446337               -0.02690621                0.02777957                1.05423829
               1.50801723                4.12477569               13.08385174                1.00000000               -0.18449540               -0.19275331                0.62383277               -0.00631076                0.02530117               -0.05570151
               2.50665505                4.08103077               13.01628367                0.09343183               -0.11237833               -0.07092848                0.27212105                0.02110035                1.27490793               -1.11149044
               3.50576966                4.03741682               12.97379870                0.00010000               -0.44576998                0.32505959               -0.17621610                0.70265761                4.86792553               -0.54335538
               4.49773965                4.01164833               12.97782312                0.00010000               -0.75049579                0.16105075               -0.12878050                1.47081222                6.69175920               -0.83074693
               5.49075974                3.98196581               12.97408838                0.00010000               -0.69000934                0.21084383               -0.17696383                1.36397197                6.10174268               -0.53369844
               6.48393947                3.95312406               12.96837493                0.00010000               -0.63212130                0.19112956               -0.26485241                1.32763349                5.88535217                0.05687470
               7.47811732                3.92683889               12.96234503                0.00010000               -0.57158040                0.15222352               -0.36674126                1.31563166                5.91199234                0.80513773
               8.47250786                3.90431962               12.95899155                0.25094775               -0.20613087                0.22468628               -0.46557544                0.62617590                3.10147958                1.83320593
               9.47399470                3.87151753               12.89840278                1.00000000                0.22011647                0.26714065               -0.79835546                0.03630895                0.11933552                0.54443077
              10.47691019                3.83839715               12.83544237                1.00000000                0.29154868                0.34730288               -1.17635017               -0.02312419                0.00063159               -0.34011482
               0.55277335                5.16506749               13.13660279                1.00000000               -0.19110391               -0.28496470                0.84791223               -0.03046865                0.08624186                0.97950033
               1.55086231                5.12307295               13.06400289                0.82735725               -0.14233300               -0.14514278                0.48093189               -0.01236039                0.14241215               -0.15156634
               2.54992669                5.08059867               12.99246328                0.04739321               -0.28251986               -0.01262913                0.12585648                0.25303735                2.70650606               -1.17500516
               3.54521192                5.04299365               12.97113722                0.00010000               -0.57433008                0.48213841               -0.34450913                0.64219841                6.18913566                0.12045747
               4.53844009                5.01358019               12.96980344                0.00010000               -0.71044528                0.24243790               -0.20969928                1.07716266                7.28463492               -0.36972877
               5.53100301                4.98423905               12.97267210                0.00010000               -0.77926457                0.25733912               -0.19311428                1.02398652                7.41475402               -0.20719080
               6.52285480                4.95553149               12.97641471                0.00010000               -0.83322135                0.26344429               -0.20869860                1.00887112                7.41566542                0.22605656
               7.51433858                4.92895860               12.98173683                0.00010000               -0.84904097                0.21740164               -0.23511694                1.05890957                7.51415536                0.83192458
               8.50587398                4.90600174               12.98978099                0.26227517               -0.37113295                0.12246526               -0.25777370                0.52656645                3.82119337                1.49124915
               9.50691593                4.87385159               12.92332002                0.96370698                0.17560934                0.20358091               -0.63804487                0.02134530                0.05335776                0.52041792
              10.50938617                4.84171809               12.85601924                1.00000000                0.24702424                0.31353204               -1.03188288               -0.02302107                0.01362589               -0.35087032
               0.59372466                6.16240402               13.12093904                1.00000000               -0.14858178               -0.24220393                0.71315679               -0.03323711                0.06845868                0.88886856
               1.59223884                6.12187284               13.04235971                0.69693125               -0.09647769               -0.09403183                0.31903927               -0.01845979                0.17185141               -0.30327367
               2.59179510                6.08077819               12.96579210                0.03076541               -0.33033684                0.04852137               -0.06277014                0.37314047                3.86006905               -1.44417018
               3.58563210                6.04705959               12.96099515                0.00010000               -0.68787966                0.35297877               -0.23387653                0.80399118                7.74735556               -0.54921341
               4.57803751                6.01649709               12.96415865                0.00010000               -0.81719613                0.32946930               -0.22954015                0.92307332                8.32052776               -0.32067589
               5.56928818                5.98711260               12.97317755                0.00010000               -0.93200894                0.33395023               -0.17917794                0.86146741                8.64666993               -0.08144399
               6.55939733                5.95839294               12.98552452                0.00010000               -1.02314604                0.31526467               -0.13973959                0.78407945                8.81209447                0.30341929
               7.54882526                5.93118692               13.00066021                0.00010000               -1.06255637                0.22107829               -0.10287596                0.79305949                8.97414797                0.80170702
               8.53814620                5.90676892               13.01894471                0.27898624               -0.50600014                0.03992400               -0.06201249                0.38274693                4.54106825                1.37463957
               9.53870526                5.87558915               12.94779963                0.88778447                0.12852777                0.14823740               -0.47008892                0.01017853                0.05249708                0.47179629
              10.54071676                5.84466779               12.87630505                1.00000000                0.20115028                0.27438307               -0.89115393               -0.02172967                0.03855879               -0.40895286
               0.63317098                7.16022341               13.10425388                1.00000000               -0.10520271               -0.19189424                0.57177763               -0.03184886                0.03427972                0.81581529
               1.63211895                7.12119232               13.01945123                0.62583917               -0.04841143               -0.04380044                0.15541042               -0.01772225                0.13810003               -0.39143177
               2.63220275                7.08156910               12.93667987                0.03090686               -0.32730588                0.10548142               -0.25571789                0.41152406                4.74693397               -1.63765550
               3.62557284                7.05005323               12.94410691                0.00010000               -0.76771014                0.31099876               -0.27615443                0.85577216                9.38505762               -0.95287074
               4.61684855                7.02016958               12.95680167                0.00010000               -0.96181633                0.40930399               -0.22540177                0.85462830                9.71701523               -0.43485749
               5.60633651                6.99091805               12.97384461                0.00010000               -1.11932416                0.43825096               -0.15024778                0.72222436                9.96423466               -0.06812750
               6.59446207                6.96183678               12.99466212                0.00010000               -1.22563565                0.39038174               -0.06499858                0.56154842               10.17309619                0.30462851
               7.58182380                6.93338017               13.01912415                0.00010000               -1.26676867                0.23294870                0.02685223                0.47797965               10.39188744                0.75631555
               8.56912669                6.90680022               13.04738265                0.30020944               -0.63015857               -0.02916996                0.12734879                0.20015621                5.25210568                1.31032892
               9.56922062                6.87681633               12.97168984                0.85161546                0.08337969                0.09761748               -0.31205016                0.00344557                0.03830116                0.41316211
              10.57079429                6.84720575               12.89562783                1.00000000                0.15736615                0.23366359               -0.75502245               -0.02081571                0.02404059               -0.48004723
               0.67114987                8.15856614               13.08696906                1.00000000               -0.06111570               -0.14068293                0.42893883               -0.02976203                0.01737476                0.78067430
               1.67053871                8.12099683               12.99604046                0.60689424                0.00074054                0.00469911               -0.00811076               -0.01278725                0.07654071               -0.42973512
               2.67116468                8.08288782               12.90626545                0.03707526               -0.31958235                0.15565461               -0.44949848                0.43803148                5.57322047               -1.65466893
               3.66414706                8.05327956               12.92536612                0.00010000               -0.84497127                0.36885671               -0.35959195                0.85119326               11.04178955               -0.93386792
               4.65426525                8.02468317               12.94829254                0.00010000               -1.10407983                0.51066727               -0.24077757                0.74653652               11.18573935               -0.42459202
               5.64206547                7.99587762               12.97392379                0.00010000               -1.30495348                0.54398755               -0.12214355                0.55911362               11.30788156               -0.06674424
               6.62816618                7.96620058               13.00311212                0.00010000               -1.43220249                0.50549571                0.00600357                0.32378080               11.51738966                0.25233101
               7.61342142                7.93584589               13.03668822                0.00515906               -1.47265091                0.29714961                0.14885212                0.08847484               11.81169422                0.63776201
               8.59871316                7.90618552               13.07522622                0.32650046               -0.75263895               -0.09019734                0.30938312               -0.03226212                5.97144455                1.20736376
               9.59836864                7.87754150               12.99492068                0.85952032                0.04042243                0.04673421               -0.15711902               -0.00132298                0.02079603                0.37966413
              10.59952161                7.84934106               12.91436261                1.00000000                0.11529755                0.19392439               -0.62234169               -0.02063972                0.01381133               -0.51798031
               0.70771436                9.15740975               13.06945036                1.00000000               -0.01728273               -0.09345452                0.28714297               -0.02738648                0.00568528                0.64995536
               1.70754153                9.12128630               12.97238197                0.62887976                0.04831445                0.05349270               -0.17065695               -0.00632053                0.08949286               -0.38746610
               2.70868065                9.08468219               12.87697813                0.03029814               -0.33700928                0.19982799               -0.63257717                0.48725629                6.50462233               -1.18017141
               3.70080134                9.05743036               12.90834724                0.00010000               -0.97497099                0.54838632               -0.43386536                0.66987154               12.66120993               -0.58291606
               4.68918123                9.03038293               12.94019919                0.00010000               -1.23999843                0.59955086               -0.26640907                0.49896130               12.52880506               -0.25249934
               5.67600138                9.00179780               12.97351089                0.00010000               -1.41059116                0.61056503               -0.10559406                0.33469339               12.55751718               -0.03591843
               6.66096940                8.97194670               13.01019108                0.00010000               -1.61965136                0.59146884                0.06407180                0.11792202               12.78591059                0.15296624
               7.64360835                8.93932316               13.05213630                0.01744200               -1.70917780                0.50491148                0.25435929               -0.20950345               13.22376614                0.37695955
               8.62678585                8.90499627               13.10155948                0.35641492               -0.87848629               -0.13600781                0.47662578               -0.33700994                6.78763560                0.82119721
               9.62603862                8.87775102               13.01805304                0.91567212               -0.00017440               -0.00280934               -0.00461973               -0.00736347                0.05777603                0.32905604
              10.62678236                8.85108424               12.93276768                0.96979229                0.07437365                0.15479593               -0.49192870               -0.02098899               -0.02414144               -0.43915180
               0.74284904               10.15669705               13.04945078                1.00000000                0.02908212               -0.07127042                0.14376856                0.05043188                0.36203771                0.53002645
               1.74313986               10.12206668               12.94985745                0.84512699                0.09583508                0.07803836               -0.32515549                0.06919959                0.66127650               -0.33447412
               2.74476574               10.08688438               12.85626018                0.52043244               -0.56480533                0.22021876               -0.78016956                0.71753994                7.60688698               -0.76343789
               3.73184376               10.06424729               12.89574943                0.35965255               -1.24443534                0.68169306               -0.50391342                0.59373175               13.84956472               -0.25823034
               4.71987704               10.03667419               12.93365003                0.35406947               -1.23240965                0.62912640               -0.30380131                0.26166223               13.58853084               -0.08785522
               5.70719556               10.00808892               12.97269990                0.37560406               -1.34388865                0.62911158               -0.10526060                0.18720688               13.61332291                0.02897917
               6.69299926                9.97802995               13.01520566                0.42157627               -1.55068960                0.60832582                0.10313384                0.09574627               13.88306806                0.13053753
               7.67618177                9.94594412               13.06350418                0.51377563               -1.97270775                0.66209636                0.33448305               -0.47088730               14.46995656                0.25995179
               8.65354511                9.90346536               13.12160365                0.69200332               -1.20241847               -0.15309070                0.60626555               -0.74701469                7.75862703                0.51511312
               9.65213340                9.87748531               13.04016621                0.99380055               -0.05548580               -0.02657075                0.13737893                0.05805863                0.49083275                0.28444871
              10.65243539                9.85243698               12.95288606                1.00000000                0.03019906                0.13527437               -0.35646969                0.06047035                0.20675609               -0.34363069
               0.37643086                0.20826013               14.22576831                1.00000000               -0.37405498               -0.41106565                1.42947082               -0.07350342               -0.60544929                0.64584885
               1.37269031                0.15534932               14.17170457                1.00000000               -0.30877018               -0.32565246                1.14214777               -0.05752124               -0.75372033                0.03188321
               2.37025546                0.10222523               14.11459294                1.00000000               -0.16552617               -0.24218587                0.83422084               -0.04162439               -0.68836028               -0.18847902
               3.36937979                0.05018556               14.06178504                0.61927522                0.31555351               -0.18610619                0.54556990                0.45856909                0.29377761               -0.47072193
               4.37656653                0.00977410               14.02427778                0.68628967                0.48009176               -0.09205665                0.24219480               -0.03155269                0.90212430                0.07055443
               5.37898162               -0.02238966               13.98356289                0.76046249                0.16023388                0.01350810               -0.07387601                0.00774453                0.54047640                0.04230671
               6.37977121               -0.05334217               13.93901534                0.74629820                0.04137007                0.10687794               -0.39745971                0.00947817                0.37073790               -0.02813598
               7.37980903               -0.08600922               13.89497748                0.84693862                0.04210033                0.20807057               -0.73165376                0.05520660                0.14139588                0.03573120
               8.38061321               -0.12301675               13.84581915                1.00000000                0.18891777                0.32310580               -1.05307526                0.04190784               -0.27289220                0.36569265
               9.38358738               -0.16277551               13.79353140                1.00000000                0.36749196                0.39399928               -1.36317619               -0.05048212               -0.43090801                0.01814947
              10.38796305               -0.20274391               13.74134133                1.00000000                0.43756710                0.47788093               -1.65995541               -0.07733675               -0.43298646               -0.45540572
               0.42860665                1.20414948               14.20605983                1.00000000               -0.34740937               -0.39115425                1.29837834               -0.03190513               -0.07353750                0.88060827
               1.42513255                1.15209279               14.15158417                1.00000000               -0.30927773               -0.30322470                1.01179582               -0.01318616               -0.02637124                0.04889631
               2.42242109                1.09980337               14.09799040                0.78261800               -0.24707533               -0.21909668                0.71823702                0.02364619                0.20117615               -0.52926759
               3.42019105                1.04832450               14.04804466                0.10769173               -0.49412394               -0.17769484                0.42587613                0.64401677                1.54011091               -0.83791338
               4.41253861                1.00885353               14.02129452                0.24620875               -0.47869212                0.08248858                0.19788898                0.09619671                2.19021228                0.75652968
               5.41061720                0.97774542               13.98533975                0.32529127               -0.04314228                0.08863370               -0.08627195                0.30235741                1.49589108                0.29837522
               6.41167577                0.94772661               13.94508482                0.23183483                0.22905885                0.00485427               -0.38249745                0.29803964                1.35359692               -0.36816099
               7.41519838                0.91607148               13.90654383                0.39379235                0.38698333                0.21601529               -0.67065139                0.40517064                1.29257018                0.56442732
               8.41941543                0.88021431               13.86539776                1.00000000                0.38738796                0.29936039               -0.94888170                0.16484757                0.65471029                0.49959330
               9.42294614                0.84116449               13.81430880                1.00000000                0.38713277                0.37811292               -1.24163389               -0.00134173                0.09592853                0.07725283
              10.42715809                0.80203490               13.76207759                1.00000000                0.42119495                0.45118487               -1.53770995               -0.03008149                0.03374108               -0.54018133
               0.47990613                2.20043705               14.19093299                1.00000000               -0.31334358               -0.35743923                1.18716530               -0.02739738                0.03006793                1.13332933
               1.47677270                2.14928482               14.13173214                1.00000000               -0.27047295               -0.26465878                0.88501809               -0.00376804                0.13243333                0.02817276
               2.47449667                2.09784329               14.07453409                0.39701260               -0.17813662               -0.18203441                0.59620163                0.04149271                0.71450218               -1.11871946
               3.47320997                2.04663166               14.02695315                0.00010000               -1.27135656               -0.16214909                0.29693961                0.94291303                3.81710168               -1.55964872
               4.44906954                2.01142387               14.03184327                0.00010000               -1.35271348                0.24422027                0.24015306                1.83455277                4.00084336               -1.07211807
               5.44615570                1.97938301               13.99218118                0.00010000               -0.08318045                0.02556023               -0.08113929                1.59170289                1.38785371               -0.47381786
               6.44740593                1.94675491               13.94436604                0.00010000                0.46345215               -0.12444755               -0.36493323                1.48798724                2.58421834                0.09268167
               7.45542474                1.91831108               13.92873783                0.00010000                0.57056144               -0.06967066               -0.60566053                1.05467402                2.89292119                0.48064084
               8.45881716                1.88297046               13.88774698                0.43825406                0.31576085                0.28744809               -0.82491190                0.26890681                1.11560661                0.94293872
               9.46173996                1.84478675               13.83637482                1.00000000                0.34017181                0.36179483               -1.11422938                0.04525776                0.40711059                0.40947865
              10.46562060                1.80627978               13.78124733                1.00000000                0.38806438                0.40200498               -1.42703896               -0.01536155                0.21615241               -0.55339940
               0.53036315                3.19700069               14.17613276                1.00000000               -0.27122075               -0.33249403                1.07529548               -0.02380965                0.03108218                1.13897128
               1.52765095                3.14679962               14.11112064                1.00000000               -0.22295253               -0.23076039                0.75384942               -0.00374957                0.03423850               -0.02930731
               2.52590410                3.09616268               14.04611843                0.19933910               -0.10911061               -0.13524983                0.43517346               -0.00130967                0.91871369               -1.30369913
               3.52546874                3.04508152               13.99875015                0.00010000               -0.47128914               -0.05252983                0.13724596                0.99058601                3.86082878               -1.83513885
               4.51647832                3.01373793               13.99270257                0.00010000               -0.91742589                0.17468952                0.01151544                2.52229282                5.44997834               -2.40435709
               5.50712022                2.97825662               13.97860680                0.00010000               -0.69854403                0.04446419               -0.12980818                2.18456444                4.69486291               -1.16046870
               6.50250744                2.94523765               13.95928820                0.00010000               -0.35219498               -0.01019718               -0.30799909                1.97734372                4.32212230                0.41307055
               7.50007632                2.91467807               13.93888805                0.00010000               -0.20947684               -0.13580200               -0.48528917                1.45530526                4.10924035                0.34769579
               8.49831790                2.88596327               13.91625276                0.25404482                0.02328244                0.28860982               -0.67298674                0.61412453                2.45426875                1.72838072
               9.50054197                2.84840038               13.86387511                1.00000000                0.27734437                0.32987911               -0.95539736                0.06112154                0.48203789                0.63048883
              10.50386479                2.81007500               13.80182086                1.00000000                0.33228248                0.37012122               -1.30585357               -0.02524448               -0.00353762               -0.42192537
               0.57983210                4.19378717               14.16095716                1.00000000               -0.22963780               -0.30832033                0.95745730               -0.02503670                0.02953620                1.08828958
               1.57753572                4.14466961               14.09005306                1.00000000               -0.18217584               -0.19069189                0.61636921               -0.00417561                0.02624260               -0.06017227
               2.57618858                4.09513830               14.01902174                0.10399901               -0.10446428               -0.07461200                0.27453060                0.01480407                1.23029062               -1.15002045
               3.57544643                4.04558107               13.97216436                0.00010000               -0.49241430                0.29485909               -0.15089262                0.73733452                5.01316659               -0.70534043
               4.56634029                4.01491766               13.97650637                0.00010000               -0.85495845                0.15937063               -0.13388021                1.53557888                7.04584195               -0.90254280
               5.55834726                3.98027230               13.97232219                0.00010000               -0.79044660                0.22000309               -0.17629775                1.41654211                6.40178235               -0.55600311
               6.55053136                3.94655097               13.96575073                0.00010000               -0.72710163                0.19212215               -0.26049163                1.36364123                6.16215557                0.08588554
               7.54380523                3.91559504               13.95870497                0.00010000               -0.65770095                0.15598959               -0.36207169                1.34514796                6.18424362                0.87320531
               8.53737734                3.88874265               13.95433808                0.24810068               -0.24772867                0.22232862               -0.46576141                0.63844873                3.26125891                1.94027953
               9.53885066                3.85138433               13.89042626                1.00000000                0.21945693                0.26550661               -0.79732329                0.03662950                0.14178221                0.57664124
              10.54176648                3.81368221               13.82368776                1.00000000                0.29158233                0.34720299               -1.17478958               -0.02222255                0.00041465               -0.35292802
               0.62809753                5.19083429               14.14498692                1.00000000               -0.18812247               -0.27658743                0.83018147               -0.02871862                0.09234411                1.00445913
               1.62621631                5.14298578               14.06878213                0.81756659               -0.14043994               -0.14355586                0.47439661               -0.01022931                0.15418145               -0.16736504
               2.62528873                5.09467044               13.99375570                0.05623808               -0.28901199               -0.01661201                0.13052444                0.24261890                2.64501253               -1.22508259
               3.62043607                5.05097870               13.96733837                0.00010000               -0.63950305                0.49392959               -0.40949220                0.63961119                6.41135081                0.15393922
               4.61249867                5.01692535               13.96766496                0.00010000               -0.83091587                0.25506338               -0.21867345                1.12886173                7.76817675               -0.37850261
               5.60381775                4.98265669               13.97074674                0.00010000               -0.90205769                0.27433512               -0.19270921                1.04847466                7.80877984               -0.19930361
               6.59445752                4.94908010               13.97435244                0.00010000               -0.95150777                0.28070647               -0.20462734                1.02406499                7.78798389                0.26335467
               7.58478759                4.91779786               13.97940140                0.00010000               -0.95799637                0.22921800               -0.23281521                1.07424797                7.88388613                0.90092573
               8.57529759                4.89040984               13.98717702                0.25873819               -0.42262967                0.12192467               -0.26322612                0.53182435                4.01783785                1.58811780
               9.57633500                4.85371051               13.91690226                0.94762054                0.17634995                0.20438707               -0.64517151                0.02126232                0.06689713                0.55490248
              10.57882459                4.81701906               13.84566433                1.00000000                0.24895888                0.31659234               -1.03844660               -0.02195270                0.02056448               -0.36149868
               0.67495474                6.18825542               14.12797574                1.00000000               -0.14597651               -0.23410266                0.69565315               -0.03125768                0.06845039                0.90647038
               1.67349498                6.14179850               14.04553166                0.68897956               -0.09533532               -0.09331171                0.31496980               -0.01553019                0.17759358               -0.32882332
               2.67304804                6.09480606               13.96522100                0.03755718               -0.37556130                0.04321283               -0.05375975                0.38958801                3.96235526               -1.51580685
               3.66598375                6.05545966               13.95847010                0.00010000               -0.79042471                0.38836477               -0.27936240                0.81413217                8.06536541               -0.42435482
               4.65723954                6.02001892               13.96179488                0.00010000               -0.94108727                0.35354236               -0.24509032                0.95633895                8.76993960               -0.28167236
               5.64716201                5.98575900               13.97138848                0.00010000               -1.06840289                0.36324075               -0.18000856                0.87850165                9.10965227               -0.04940981
               6.63587148                5.95216510               13.98414528                0.00010000               -1.16007786                0.34359523               -0.13720805                0.78599450                9.26633297                0.34888841
               7.62396045                5.92017940               13.99963312                0.00010000               -1.18851530                0.23978057               -0.10340760                0.79122250                9.42933532                0.86766774
               8.61210118                5.89118115               14.01827497                0.27535143               -0.56468802                0.04078631               -0.07217502                0.37895705                4.77776747                1.46137775
               9.61266669                5.85547207               13.94304014                0.87297269                0.13045825                0.15135826               -0.48160837                0.00994409                0.06077502                0.50592667
              10.61471034                5.82001406               13.86732587                1.00000000                0.20436550                0.28002414               -0.90411021               -0.02109193                0.03998325               -0.42241012
               0.72038622                7.18615223               14.10988146                1.00000000               -0.10311596               -0.18493591                0.55530790               -0.02985781                0.03311022                0.82921530
               1.71935506                7.14111954               14.02100697                0.61918205               -0.04834473               -0.04412570                0.15520946               -0.01434657                0.13921895               -0.41746027
               2.71941933                7.09553470               13.93421481                0.03527422               -0.39246110                0.09833709               -0.23972857                0.44952895                4.93566017               -1.71096815
               3.71150584                7.05874599               13.94129588                0.00010000               -0.90466092                0.33936248               -0.29252336                0.91345930                9.81676227               -0.92492180
               4.70132611                7.02399619               13.95451971                0.00010000               -1.11321166                0.44862848               -0.23410065                0.90261500               10.21268549               -0.38848698
               5.68924161                6.98992150               13.97234477                0.00010000               -1.27845550                0.48397958               -0.15129548                0.74120045               10.48092483               -0.02713273
               6.67575700                6.95595200               13.99402209                0.00010000               -1.38228069                0.43277131               -0.06415476                0.55348287               10.69909967                0.35076991
               7.66159600                6.92259347               14.01937940                0.00010000               -1.40864704                0.25982360                0.02339820                0.45580340               10.92607749                0.81595881
               8.64758406                6.89122557               14.04858749                0.29682505               -0.69475121               -0.02751355                0.11345514                0.18394477                5.52456835                1.38985299
               9.64770097                6.85673768               13.96849669                0.83719576                0.08673635                0.10175901               -0.32705926                0.00301467                0.04154344                0.44077332
              10.64931879                6.82261954               13.88799375                1.00000000                0.16178159                0.24120427               -0.77214339               -0.02018177                0.02540827               -0.49670590
               0.76442297                8.18455670               14.09117687                1.00000000               -0.05973854               -0.13529928                0.41416379               -0.02805380                0.01598986                0.79341774
               1.76382558                8.14091598               13.99598468                0.60105861               -0.00054014                0.00338232               -0.00395976               -0.00998952                0.07301999               -0.45493903
               2.76441216                8.09677280               13.90190641                0.03870050               -0.40170699                0.14688890               -0.42561517                0.49659965                5.82302655               -1.72225275
               3.75579144                8.06224691               13.92177926                0.00010000               -1.01479141                0.40462907               -0.36155657                0.94270724               11.57987945               -0.92411137
               4.74411634                8.02899149               13.94588538                0.00010000               -1.28806176                0.57151569               -0.24256279                0.80688404               11.75309158               -0.39302280
               5.73003021                7.99543859               13.97270836                0.00010000               -1.49235840                0.60931952               -0.12215697                0.57921578               11.88649441               -0.03178531
               6.71426917                7.96082052               14.00317370                0.00010000               -1.61136267                0.56679972                0.00534478                0.30648469               12.11130324                0.28939546
               7.69780295                7.92537588               14.03814990                0.00508724               -1.63166499                0.33716346                0.14275740                0.04050310               12.42303552                0.68410154
               8.68163587                7.89063087               14.07823456                0.32369601               -0.82349722               -0.08736999                0.29203581               -0.06610503                6.28171867                1.27588976
               9.68133301                7.85750725               13.99325748                0.84470919                0.04535602                0.05175336               -0.17596440               -0.00272920                0.02057730                0.40472778
              10.68254299                7.82483814               13.90803245                1.00000000                0.12099798                0.20271568               -0.64429144               -0.02001623                0.01406299               -0.53768982
               0.80710659                9.18344625               14.07225061                1.00000000               -0.01674106               -0.08934314                0.27436914               -0.02612987                0.00313094                0.66193139
               1.80693918                9.14118719               13.97072665                0.62296289                0.04569048                0.05096234               -0.16178226               -0.00475900                0.08518744               -0.40783375
               2.80802040                9.09847248               13.87083268                0.02849038               -0.43989419                0.18992975               -0.60076280                0.57472045                6.81667543               -1.22428746
               3.79814129                9.06683858               13.90403854                0.00010000               -1.18741426                0.62060808               -0.42852071                0.76414520               13.29490941               -0.56858206
               4.78427211                9.03542651               13.93754498                0.00010000               -1.45721984                0.67898849               -0.26472834                0.54874844               13.16259747               -0.23463967
               5.76899690                9.00210789               13.97246066                0.00010000               -1.61613513                0.68984817               -0.10500098                0.34788298               13.20119625               -0.01625293
               6.75194941                8.96728800               14.01082600                0.00010000               -1.82005944                0.66782702                0.06215921                0.09919965               13.44820538                0.17322247
               7.73259571                8.92933674               14.05464021                0.01804493               -1.89094138                0.57308496                0.24576304               -0.26721806               13.91237929                0.40105749
               8.71413058                8.88947817               14.10622723                0.35445560               -0.95782933               -0.13009002                0.45624862               -0.39368241                7.14276098                0.86328133
               9.71343912                8.85777275               14.01789903                0.89994148                0.00630540                0.00351098               -0.02709731               -0.01003931                0.05999226                0.34895904
              10.71425669                8.82667385               13.92771061                0.97172149                0.08175688                0.16444361               -0.51972889               -0.02066893               -0.02545319               -0.45811169
               0.84841849               10.18276984               14.05083137                1.00000000                0.02856875               -0.06764087                0.13364569                0.04772894                0.36579522                0.54056678
               1.84870417               10.14193523               13.94667891                0.84267785                0.09183506                0.07480397               -0.31227888                0.06657751                0.67196961               -0.35014551
               2.85025519               10.10057139               13.84865841                0.51888375               -0.72919298                0.20989187               -0.74475591                0.85967114                7.97746999               -0.78851014
               3.83412031               10.07465907               13.89074832                0.36041521               -1.52165987                0.78204948               -0.49522978                0.69789564               14.56495267               -0.24910721
               4.81982199               10.04257126               13.93062794                0.35433384               -1.44969683                0.71447566               -0.30021723                0.28381199               14.28720281               -0.08039210
               5.80512638               10.00923555               13.97165607                0.37549631               -1.53988406                0.71276624               -0.10389240                0.19323815               14.32632017                0.03800091
               6.78902431                9.97417706               14.01622858                0.42127830               -1.74289773                0.68890674                0.10055584                0.08759112               14.61665262                0.14053260
               7.77026842                9.93683758               14.06679966                0.51439310               -2.18490459                0.75008323                0.32362394               -0.54012792               15.23267198                0.27258874
               8.74532622                9.88802907               14.12754363                0.69157758               -1.31659432               -0.14490921                0.58079766               -0.84344148                8.16594003                0.53792162
               9.74393654                9.85757747               14.04142705                0.98583898               -0.04994093               -0.01952723                0.11192547                0.05463860                0.51828631                0.30080486
              10.74432740                9.82812701               13.94915242                1.00000000                0.03908618                0.14531612               -0.39042847                0.06202486                0.21964588               -0.35987516
               0.42573333                0.23521713               15.23998163                1.00000000               -0.37009238               -0.40569799                1.41378607               -0.07319330               -0.63251429                0.67173878
               1.42203240                0.17646740               15.18306844                1.00000000               -0.30555147               -0.32215340                1.13082041               -0.05789787               -0.79076915                0.03695956
               2.41962230                0.11751044               15.12291188                1.00000000               -0.16346407               -0.24021792                0.82938057               -0.04144683               -0.72642531               -0.19124084
               3.41876312                0.05966765               15.06723704                0.62051845                0.31810377               -0.18550026                0.54452247                0.47120461                0.25643157               -0.49916287
               4.42598437                0.01375555               15.02671270                0.69103508                0.47742986               -0.08375800                0.24470334               -0.03846481                0.84969864                0.08473294
               5.42831172               -0.02364428               14.98285237                0.76792519                0.15441433                0.01604902               -0.06885458                0.00815880                0.47987179                0.04976412
               6.42907266               -0.05979061               14.93509596                0.75258205                0.04106068                0.10632488               -0.38733520                0.00993069                0.30313635               -0.03271596
               7.42913293               -0.09750905               14.88774227                0.85147444                0.04300875                0.20557707               -0.71618849                0.05223663                0.07632320                0.03878837
               8.42993283               -0.13940067               14.83538328                1.00000000                0.18577546                0.31842409               -1.03457267                0.03919356               -0.32413191                0.37738056
               9.43284844               -0.18398461               14.78000528                1.00000000                0.36114889                0.38875857               -1.34232994               -0.04984665               -0.46866429                0.01710935
              10.43715581               -0.22879442               14.72486174                1.00000000                0.43073703                0.47161597               -1.63609076               -0.07578942               -0.46361332               -0.48527558
               0.48375112                1.23116015               15.21896911                1.00000000               -0.34443570               -0.38503631                1.28411727               -0.03208877               -0.07867940                0.91556970
               1.48030677                1.17324586               15.16164964                1.00000000               -0.30717104               -0.29962674                1.00152016               -0.01380515               -0.03494695                0.05555040
               2.47760770                1.11510826               15.10514617                0.79175162               -0.24770768               -0.21744139                0.71274359                0.02440984                0.19027447               -0.53508997
               3.47535261                1.05781265               15.05230313                0.11635468               -0.51760066               -0.17662981                0.42551549                0.66454209                1.56176303               -0.87136302
               4.46725569                1.01291797               15.02326739                0.25962802               -0.50931137                0.07717299                0.19695358                0.04757157                2.22520388                0.80570511
               5.46516638                0.97651621               14.98448585                0.34186181               -0.05756698                0.08787642               -0.08475153                0.27676740                1.50283326                0.31378292
               6.46610435                0.94127264               14.94129290                0.24533804                0.21469715                0.01326876               -0.37652742                0.28199622                1.36066408               -0.37123586
               7.46946033                0.90454672               14.89989353                0.40480638                0.37291010                0.20890543               -0.66003932                0.38477074                1.30745026                0.56948298
               8.47356255                0.86378357               14.85597331                1.00000000                0.37932615                0.29552151               -0.93645663                0.16024795                0.66505271                0.52106715
               9.47704685                0.81990297               14.80196996                1.00000000                0.38225860                0.37359675               -1.22649114               -0.00108900                0.09750528                0.07944327
              10.48120772                0.77592174               14.74679271                1.00000000                0.41608725                0.44583318               -1.51950361               -0.02909562                0.03370295               -0.57537887
               0.54092012                2.22751640               15.20272973                1.00000000               -0.31119352               -0.35023384                1.17295400               -0.02660378                0.03083194                1.17674221
               1.53780818                2.17047486               15.14053449                1.00000000               -0.26882044               -0.26124529                0.87567142               -0.00232322                0.13921348                0.03424088
               2.53554371                2.11316161               15.08046522                0.41046286               -0.17819645               -0.18263322                0.58968418                0.04715297                0.72258447               -1.14533538
               3.53424425                2.05613505               15.02991333                0.00010000               -1.36557344               -0.16170865                0.29425666                0.95967706                3.93433988               -1.61276695
               4.50823224                2.01529901               15.03409502                0.00010000               -1.43759296                0.23454848                0.21626958                1.87191356                4.15943667               -1.10441602
               5.50549239                1.97811325               14.99135296                0.00010000               -0.07750853                0.00777877               -0.08391263                1.62601524                1.43382561               -0.47461125
               6.50668207                1.94047477               14.94072900                0.00010000                0.44125097               -0.13435085               -0.36311656                1.48939286                2.66337096                0.11053927
               7.51431741                1.90666906               14.92270514                0.00010000                0.55497359               -0.08229042               -0.60128777                1.05082082                2.99315379                0.51934922
               8.51778154                1.86650976               14.87953060                0.44508934                0.31855404                0.28504780               -0.81884206                0.26915673                1.18653811                0.98902851
               9.52068849                1.82348732               14.82528352                1.00000000                0.33774107                0.35820696               -1.10454770                0.04527879                0.43174689                0.43097129
              10.52453636                1.78012224               14.76704256                1.00000000                0.38478683                0.39856777               -1.41437103               -0.01461172                0.22873571               -0.58772382
               0.59730212                3.22415547               15.18680978                1.00000000               -0.26870363               -0.32507237                1.06098147               -0.02226287                0.03347581                1.17787188
               1.59461509                3.16802096               15.11861727                1.00000000               -0.22057767               -0.22820513                0.74593519               -0.00152820                0.03797289               -0.02877104
               2.59289057                3.11145560               15.05046593                0.21174323               -0.11031653               -0.13842628                0.43396521                0.00816833                0.93242056               -1.34757528
               3.59240876                3.05457847               15.00012274                0.00010000               -0.50874023               -0.07066270                0.13670031                1.02287286                3.97034930               -1.96120824
               4.58271577                3.01760894               14.99280187                0.00010000               -0.99489124                0.16680391                0.00959263                2.61798668                5.64610235               -2.53327769
               5.57251093                2.97667178               14.97729397                0.00010000               -0.76896859                0.02962802               -0.13169101                2.25176604                4.88055302               -1.18653455
               6.56733639                2.93858562               14.95622583                0.00010000               -0.40345914               -0.03486239               -0.30471949                2.01734307                4.49334464                0.45016847
               7.56444175                2.90290091               14.93406142                0.00010000               -0.26044850               -0.14397071               -0.48087640                1.48981641                4.27568815                0.41815350
               8.56212742                2.86948453               14.90953871                0.25351039               -0.00509014                0.28455950               -0.67088183                0.61982005                2.57033399                1.81594689
               9.56433995                2.82706711               14.85434965                1.00000000                0.27591104                0.32679381               -0.95019143                0.06003672                0.51811155                0.66736137
              10.56764564                2.78389309               14.78880082                1.00000000                0.33056985                0.36864382               -1.29839071               -0.02444635               -0.00161039               -0.44436412
               0.65274389                4.22101495               15.17045268                1.00000000               -0.22663962               -0.30086908                0.94288790               -0.02403461                0.03195239                1.11808792
               1.65047749                4.16591076               15.09617912                1.00000000               -0.17971637               -0.18869540                0.60873071               -0.00298954                0.02827577               -0.06533225
               2.64914956                4.11039309               15.02177428                0.11428303               -0.09645607               -0.07789182                0.27635040                0.00955862                1.19362181               -1.18503132
               3.64854837                4.05472180               14.97078085                0.00010000               -0.53254481                0.25941114               -0.12655509                0.76814563                5.14582537               -0.89637529
               4.63849866                4.01863509               14.97514552                0.00010000               -0.94986691                0.15563452               -0.13689429                1.58317475                7.37875561               -0.97167539
               5.62955103                3.97870581               14.97056243                0.00010000               -0.88494302                0.22574480               -0.17527562                1.45613150                6.69850502               -0.57122627
               6.62079980                3.93977752               14.96316509                0.00010000               -0.81680969                0.19092009               -0.25712203                1.38536314                6.43481533                0.12026970
               7.61321484                3.90378964               14.95510359                0.00010000               -0.73940290                0.15740250               -0.35917805                1.35867089                6.45090184                0.94538129
               8.60601174                3.87220095               14.94967633                0.24557813               -0.28670865                0.21713415               -0.46727277                0.64180018                3.41892921                2.04996351
               9.60748066                3.83002320               14.88245631                1.00000000                0.21918620                0.26343219               -0.79655414                0.03603886                0.16473258                0.60904818
              10.61039547                3.78749512               14.81194658                1.00000000                0.29148046                0.34784568               -1.17298845               -0.02142340               -0.00000400               -0.36702647
               0.70702982                5.21813809               15.15320642                1.00000000               -0.18526575               -0.26880316                0.81530361               -0.02720703                0.09813842                1.02525946
               1.70517716                5.16424705               15.07349082                0.80826786               -0.13795576               -0.14196137                0.46639924               -0.00861826                0.16548780               -0.18318497
               2.70427070                5.10989776               14.99507377                0.06492176               -0.28237460               -0.01950720                0.13010313                0.22369290                2.54693207               -1.27041192
               3.69952967                5.05976670               14.96294738                0.00010000               -0.69377256                0.49465885               -0.45745510                0.63205162                6.61385998                0.15160716
               4.69039525                5.02072163               14.96542997                0.00010000               -0.95192694                0.26869049               -0.22770466                1.17196199                8.26927635               -0.39048567
               5.68049113                4.98118668               14.96881791                0.00010000               -1.02177164                0.29102847               -0.19318647                1.06310931                8.20051621               -0.18820821
               6.66995982                4.94240403               14.97232216                0.00010000               -1.06496980                0.29617716               -0.20227722                1.02709175                8.15543855                0.30459345
               7.65919173                4.90604896               14.97708052                0.00010000               -1.06149719                0.23863140               -0.23234780                1.07453173                8.24638377                0.97316470
               8.64872987                4.87382721               14.98451646                0.25558897               -0.47125887                0.11925253               -0.26903801                0.52847918                4.21034660                1.68688770
               9.64976656                4.83233575               14.91041659                0.93097515                0.17717285                0.20450271               -0.65151420                0.02059916                0.08036378                0.58939278
              10.65227333                4.79085001               14.83525031                1.00000000                0.25067754                0.31975237               -1.04339647               -0.02110009                0.02856388               -0.37395180
               0.75998182                6.21563889               15.13485211                1.00000000               -0.14363734               -0.22657488                0.68080837               -0.02911819                0.06824545                0.92063768
               1.75854545                6.16307153               15.04865910                0.68154144               -0.09390275               -0.09284767                0.31048607               -0.01215606                0.18304046               -0.35314870
               2.75810377                6.11000294               14.96471691                0.04437146               -0.40899596                0.03832804               -0.04799309                0.39498894                4.02820783               -1.58138261
               3.75036553                6.06461497               14.95540791                0.00010000               -0.87929256                0.42394657               -0.33909013                0.80397311                8.36269912               -0.28069384
               4.74051792                6.02400890               14.95925684                0.00010000               -1.06173557                0.37938546               -0.26286038                0.97847630                9.23515111               -0.24222572
               5.72913082                5.98452638               14.96957738                0.00010000               -1.20192818                0.39344204               -0.18307636                0.88268311                9.57370578               -0.01554965
               6.71647935                5.94570106               14.98278036                0.00010000               -1.29242677                0.37098700               -0.13683633                0.77427499                9.71555592                0.39693389
               7.70328229                5.90856227               14.99859206                0.00010000               -1.30924093                0.25667995               -0.10582545                0.77365774                9.87633540                0.93635215
               8.69029454                5.87458600               15.01750121                0.27213430               -0.62062171                0.04052337               -0.08295409                0.36609367                5.01013692                1.55042491
               9.69086985                5.83411325               14.93816746                0.85789290                0.13252116                0.15393541               -0.49288548                0.00914195                0.06870002                0.54160413
              10.69294496                5.79389017               14.85822284                1.00000000                0.20751081                0.28575210               -0.91593482               -0.02055798                0.04120884               -0.43666594
               0.81158217                7.21360659               15.11536004                1.00000000               -0.10121851               -0.17867720                0.54162899               -0.02803870                0.03219832                0.83968845
               1.81056998                7.16239009               15.02255541                0.61306643               -0.04775659               -0.04465822                0.15400719               -0.01090771                0.14078336               -0.44170562
               2.81062704                7.11066432               14.93188530                0.03986738               -0.44834040                0.09109735               -0.22810988                0.47911933                5.09925220               -1.77718123
               3.80160318                7.06824563               14.93825644                0.00010000               -1.02868307                0.37198520               -0.32153101                0.95225835               10.22486849               -0.87357657
               4.79005338                7.02830934               14.95211965                0.00010000               -1.25752747                0.48942743               -0.24846510                0.93449808               10.70889729               -0.33472410
               5.77645263                6.98905552               14.97081870                0.00010000               -1.43219771                0.52998202               -0.15522961                0.74453212               10.99578561                0.01612814
               6.76140942                6.94982377               14.99337902                0.00010000               -1.53363393                0.47417565               -0.06563901                0.52991941               11.21954787                0.39884337
               7.74577995                6.91118256               15.01959211                0.00010000               -1.54543262                0.28524258                0.01809085                0.41764443               11.45186717                0.87813351
               8.73050077                6.87463768               15.04965175                0.29381342               -0.75673582               -0.02612166                0.09866115                0.15886653                5.79316375                1.47263309
               9.73064523                6.83541446               14.96514866                0.82276495                0.09037858                0.10602350               -0.34314008                0.00199061                0.04501524                0.47038540
              10.73230834                6.79656505               14.88018496                1.00000000                0.16631094                0.24901201               -0.78978282               -0.01954340                0.02661444               -0.51358441
               0.86185404                8.21206534               15.09525234                1.00000000               -0.05844762               -0.13063544                0.40201472               -0.02656161                0.01490112                0.80367468
               1.86126956                8.16217837               14.99596126                0.59580061               -0.00117087                0.00226484               -0.00151684               -0.00736148                0.07034252               -0.47803387
               2.86183062                8.11182489               14.89775314                0.04077627               -0.47519415                0.13900604               -0.40767879                0.54757686                6.05195405               -1.78260293
               3.85176568                8.07205468               14.91813499                0.00010000               -1.17163187                0.44220167               -0.37154831                1.01783044               12.09242663               -0.90165752
               4.83839799                8.03379745               14.94344129                0.00010000               -1.46293228                0.63191169               -0.24850747                0.85145092               12.31219997               -0.35537638
               5.82250704                7.99512602               14.97148065                0.00010000               -1.67236420                0.67347559               -0.12477823                0.58393922               12.45877648                0.00520243
               6.80495070                7.95518458               15.00321902                0.00010000               -1.78428878                0.62662471                0.00254381                0.27428262               12.69837451                0.32788690
               7.78682126                7.91426712               15.03954337                0.00512021               -1.78553683                0.37559989                0.13481826               -0.02231267               13.02584282                0.73292787
               8.76923997                7.87406357               15.08106694                0.32108114               -0.89194837               -0.08424226                0.27344454               -0.10759631                6.58878954                1.34836904
               9.76898229                7.83623372               14.99140139                0.82982458                0.05064756                0.05730830               -0.19614794               -0.00416508                0.02120882                0.43222845
              10.77025292                7.79887041               14.90147678                1.00000000                0.12706236                0.21184938               -0.66732775               -0.01924203                0.01448548               -0.55789450
               0.91082489                9.21099388               15.07493774                1.00000000               -0.01616846               -0.08592398                0.26402091               -0.02505832                0.00103697                0.67202307
               1.91066321                9.16243539               14.96914632                0.61765904                0.04386844                0.04904399               -0.15546314               -0.00333950                0.08206657               -0.42626342
               2.91170226                9.11344444               14.86496288                0.02733945               -0.53379898                0.18189110               -0.57657053                0.65346895                7.10873001               -1.26325567
               3.89998723                9.07708966               14.89977682                0.00010000               -1.38456026                0.68954544               -0.42588120                0.84553627               13.90010417               -0.54792033
               4.88401106                9.04094757               14.93490462                0.00010000               -1.66214738                0.75514920               -0.26473613                0.58753642               13.78279946               -0.21436392
               5.86674428                9.00252503               14.97141087                0.00010000               -1.81285451                0.76660501               -0.10609851                0.35114868               13.83528568                0.00413622
               6.84775397                8.96235626               15.01143426                0.00010000               -2.01447903                0.74254325                0.05834360                0.07037773               14.10196460                0.19404501
               7.82645470                8.91869456               15.05705157                0.01867775               -2.06858601                0.64049373                0.23530142               -0.33522604               14.59231056                0.42724016
               8.80638225                8.87295283               15.11068446                0.35230637               -1.03498039               -0.12362798                0.43377470               -0.45686890                7.49565555                0.90905396
               9.80575509                8.83656063               15.01751110                0.88319819                0.01339412                0.01058235               -0.05167967               -0.01213775                0.06391135                0.37087132
              10.80665013                8.80080204               14.92237310                0.97344559                0.08950356                0.17427252               -0.54832947               -0.01962691               -0.02629793               -0.47749668
               0.95846985               10.21034686               15.05212370                1.00000000                0.02823588               -0.06470159                0.12561666                0.04573421                0.36930180                0.54978963
               1.95875221               10.16315925               14.94361187                0.84050972                0.08879397                0.07238553               -0.30259686                0.06469279                0.68234681               -0.36430493
               2.96024573               10.11546271               14.84136507                0.51768553               -0.87894679                0.20182699               -0.71753242                0.98866420                8.32687629               -0.81078888
               3.94117328               10.08584559               14.88584483                0.36112359               -1.77661955                0.87559276               -0.48643961                0.79049067               15.25094462               -0.23678204
               4.92471334               10.04890043               14.92764569                0.35458366               -1.65259773                0.79528576               -0.29728892                0.30085499               14.96981822               -0.07227548
               5.90812132               10.01045812               14.97062206                0.37536665               -1.72623064                0.79330845               -0.10406286                0.19445460               15.02728525                0.04670132
               6.89018873                9.97003544               15.01721677                0.42091313               -1.93005784                0.76791808                0.09574181                0.07442040               15.33876435                0.15004724
               7.86952017                9.92707700               15.06997666                0.51501695               -2.39761058                0.83824397                0.31029777               -0.61567510               15.98332230                0.28547183
               8.84223652                9.87159101               15.13321961                0.69095347               -1.43149152               -0.13618241                0.55265735               -0.94615440                8.57208946                0.56417672
               9.84089033                9.83644537               15.04240472                0.97676541               -0.04294788               -0.01152606                0.08196403                0.05176652                0.54846925                0.31850382
              10.84137756                9.80235586               14.94507749                0.98754627                0.04872255                0.15538198               -0.42543819                0.06379210                0.23285923               -0.37678790
               0.47760695                0.26371996               16.25404403                1.00000000               -0.36622754               -0.40071857                1.39896316               -0.07288203               -0.65717619                0.69577376
               1.47394468                0.19892611               16.19432098                1.00000000               -0.30242999               -0.31883584                1.11981227               -0.05821779               -0.82413946                0.04135983
               2.47155835                0.13393185               16.13118055                1.00000000               -0.16185372               -0.23836106                0.82439033               -0.04132475               -0.76072578               -0.19450458
               3.47070760                0.07007013               16.07267549                0.62066356                0.31934113               -0.18491812                0.54349888                0.48112444                0.22159566               -0.52430722
               4.47794518                0.01835938               16.02917185                0.69467819                0.47440979               -0.07740655                0.24675193               -0.04509341                0.79749922                0.09909656
               5.48019580               -0.02466134               15.98218580                0.77407121                0.14994266                0.01818240               -0.06539701                0.00776803                0.41949992                0.05730729
               6.48094403               -0.06639037               15.93126864                0.75778669                0.04261841                0.10592217               -0.37899800                0.01000127                0.23757064               -0.03724352
               7.48104817               -0.10953598               15.88065371                0.85544654                0.04617674                0.20342460               -0.70222897                0.04894042                0.01245452                0.04241214
               8.48186757               -0.15664919               15.82512770                1.00000000                0.18437348                0.31375205               -1.01700583                0.03591384               -0.37607332                0.38891012
               9.48473564               -0.20636268               15.76668480                1.00000000                0.35551519                0.38377960               -1.32205579               -0.04898874               -0.50732630                0.01597723
              10.48897787               -0.25631137               15.70861951                1.00000000                0.42422309                0.46578681               -1.61251404               -0.07399053               -0.49482858               -0.51559620
               0.54167199                1.25971277               16.23174218                1.00000000               -0.34154300               -0.37943716                1.27091252               -0.03218804               -0.08330309                0.94819925
               1.53825656                1.19573775               16.17161458                1.00000000               -0.30494453               -0.29620490                0.99167428               -0.01438670               -0.04252858                0.06140308
               2.53557310                1.13154824               16.11224527                0.79868604               -0.24757363               -0.21575114                0.70713811                0.02471849                0.18103057               -0.54195722
               3.53330508                1.06822095               16.05655497                0.12359328               -0.53565604               -0.17567061                0.42545474                0.67982148                1.58246369               -0.90380139
               4.52485998                1.01758531               16.02523359                0.27149451               -0.53283638                0.07208436                0.19681549                0.00865082                2.25775148                0.84835945
               5.52264836                0.97552049               15.98364471                0.35691145               -0.06893061                0.08719970               -0.08373919                0.25429800                1.50917563                0.32933177
               6.52348136                0.93466885               15.93755428                0.25786848                0.20093121                0.02115719               -0.37172927                0.26774582                1.36795070               -0.37438649
               7.52666698                0.89249827               15.89334304                0.41539078                0.35793472                0.20330761               -0.65067269                0.36287645                1.32146620                0.57437609
               8.53064006                0.84648833               15.84666863                1.00000000                0.37049297                0.29174058               -0.92499330                0.15394134                0.67417941                0.54228547
               9.53407684                0.79747511               15.78977898                1.00000000                0.37732959                0.36945884               -1.21213658               -0.00072680                0.09858024                0.08162447
              10.53818665                0.74834650               15.73168752                1.00000000                0.41098092                0.44142872               -1.50185610               -0.02789325                0.03344281               -0.61104322
               0.60491324                2.25613122               16.21439207                1.00000000               -0.30917631               -0.34387947                1.16014229               -0.02563549                0.03155838                1.21718956
               1.60182148                2.19300201               16.14924557                1.00000000               -0.26718596               -0.25790924                0.86681321               -0.00083429                0.14493135                0.03977545
               2.59956953                2.12961683               16.08632777                0.42350577               -0.17772608               -0.18230638                0.58250650                0.05143313                0.72905365               -1.17036138
               3.59826696                2.06655672               16.03283829                0.00010000               -1.43754361               -0.16155560                0.28983882                0.97094661                4.04116673               -1.66451239
               4.57081865                2.01980106               16.03616866                0.00010000               -1.50343673                0.22182835                0.20218010                1.89475489                4.30862078               -1.13432122
               5.56819823                1.97708266               15.99050293                0.00010000               -0.07487440               -0.01020139               -0.08634723                1.64453331                1.48306365               -0.47325928
               6.56932117                1.93403277               15.93710371                0.00010000                0.41439950               -0.14319568               -0.36242435                1.47865189                2.73989599                0.13155244
               7.57648622                1.89453018               15.91671208                0.00010000                0.53241923               -0.09277888               -0.59803965                1.03815342                3.09201398                0.56009394
               8.57996955                1.84918562               15.87137014                0.45199665                0.31883592                0.28240755               -0.81384274                0.26463095                1.25691511                1.03571145
               9.58286293                1.80102649               15.81428387                1.00000000                0.33538407                0.35498515               -1.09610811                0.04484182                0.45662983                0.45319358
              10.58667723                1.75251720               15.75295991                1.00000000                0.38142978                0.39685977               -1.40288084               -0.01374906                0.24140825               -0.62215949
               0.66741769                3.25283519               16.19735239                1.00000000               -0.26634296               -0.31894639                1.04838939               -0.02031197                0.03648471                1.21378970
               1.66475426                3.19057956               16.12603934                1.00000000               -0.21853204               -0.22562946                0.73870733                0.00125358                0.04234108               -0.02935744
               2.66304705                3.12790211               16.05479773                0.22417632               -0.11072425               -0.13934968                0.43219133                0.01500185                0.94398051               -1.38760950
               3.66253978                3.06498984               16.00148416                0.00010000               -0.54089597               -0.08638983                0.13597978                1.04222549                4.07571873               -2.07423371
               4.65222913                3.02202188               15.99289443                0.00010000               -1.06162294                0.15274937                0.01000515                2.68208990                5.83789359               -2.64976752
               5.64130732                2.97531646               15.97597298                0.00010000               -0.83111243                0.01205859               -0.13139780                2.29413104                5.06111471               -1.20584301
               6.63560688                2.93180493               15.95319381                0.00010000               -0.45150604               -0.05863709               -0.30224739                2.03457846                4.66100172                0.49305511
               7.63227720                2.89064269               15.92927052                0.00010000               -0.30852614               -0.15233035               -0.47826044                1.50786831                4.43682782                0.49339398
               8.62943636                2.85213648               15.90283513                0.25314522               -0.03175524                0.27892752               -0.67100619                0.61828887                2.68433456                1.90580308
               9.63164209                2.80457481               15.84487128                1.00000000                0.27469420                0.32359302               -0.94641375                0.05796664                0.55496976                0.70632244
              10.63493024                2.75628369               15.77585304                1.00000000                0.32881515                0.36874925               -1.29162358               -0.02368037                0.00066565               -0.46611418
               0.72901825                4.24975229               16.17981491                1.00000000               -0.22386192               -0.29475709                0.93008936               -0.02259657                0.03407906                1.14481589
               1.72677963                4.18848942               16.10222767                0.99234386               -0.17794782               -0.18687332                0.60277003               -0.00090012                0.03205098               -0.07326391
               2.72545929                4.12682983               16.02454875                0.12433726               -0.08939635               -0.07912670                0.28084996                0.00316326                1.16604524               -1.22219066
               3.72499170                4.06482892               15.96963326                0.00010000               -0.56627321                0.21969737               -0.10423974                0.79217533                5.27275738               -1.10998606
               4.71413383                4.02285605               15.97376848                0.00010000               -1.03469546                0.14912145               -0.13578703                1.61397198                7.69213965               -1.03800558
               5.70429779                3.97732383               15.96881668                0.00010000               -0.97236617                0.22805552               -0.17328686                1.48162661                6.98943707               -0.58056132
               6.69468650                3.93286003               15.96060829                0.00010000               -0.89928787                0.18758814               -0.25496507                1.39282665                6.70169059                0.15939929
               7.68631203                3.89148357               15.95152141                0.00010000               -0.81416491                0.15649983               -0.35857925                1.35739575                6.71108361                1.02159743
               8.67840321                3.85476417               15.94499263                0.24328502               -0.32184904                0.20931129               -0.47081721                0.63734390                3.57475068                2.16281147
               9.67987505                3.80749835               15.87449518                1.00000000                0.21913309                0.26062047               -0.79512560                0.03471782                0.18883724                0.64268552
              10.68278587                3.75989219               15.80022800                1.00000000                0.29108131                0.34900323               -1.16943096               -0.02070691               -0.00079898               -0.38091963
               0.78949150                5.24694004               16.16129299                1.00000000               -0.18327812               -0.26188656                0.80270419               -0.02542398                0.10163472                1.04238493
               1.78765872                5.18684210               16.07811011                0.79923951               -0.13603411               -0.14092461                0.45872373               -0.00545542                0.17510332               -0.19989630
               2.78677082                5.12631958               15.99635776                0.07337275               -0.26508268               -0.02314821                0.12716005                0.19728920                2.42731095               -1.31645731
               3.78235706                5.06938378               15.95818927                0.00010000               -0.73785771                0.48538989               -0.48151381                0.61954133                6.79783718                0.10942366
               4.77201366                5.02500431               15.96311087                0.00010000               -1.07105940                0.28143351               -0.23390429                1.20665272                8.77552098               -0.40619072
               5.76093588                4.97987757               15.96688301                0.00010000               -1.13549925                0.30616930               -0.19378250                1.06835997                8.58824121               -0.17472231
               6.74930368                4.93555670               15.97030690                0.00010000               -1.17074534                0.30934450               -0.20170687                1.01882670                8.51701008                0.34945527
               7.73752097                4.89377269               15.97475445                0.00010000               -1.15676112                0.24556438               -0.23423134                1.06101408                8.60166439                1.04899962
               8.72616845                4.85632271               15.98179626                0.25273872               -0.51562688                0.11450907               -0.27579793                0.51699234                4.39957157                1.78821742
               9.72720843                4.80978722               15.90387198                0.91398238                0.17799893                0.20368680               -0.65619173                0.01925280                0.09427690                0.62394045
              10.72972843                4.76326376               15.82479640                1.00000000                0.25200022                0.32269480               -1.04540088               -0.02045233                0.03702093               -0.38803891
               0.84870566                6.24451456               16.14159191                1.00000000               -0.14146723               -0.21971363                0.66805723               -0.02696632                0.06862277                0.93134777
               1.84729099                6.18567093               16.05174138                0.67448992               -0.09211350               -0.09294129                0.30580404               -0.00804716                0.18924531               -0.37627914
               2.84686339                6.12636687               15.96426114                0.05110830               -0.42965954                0.03176292               -0.04402351                0.38991601                4.05446159               -1.64208801
               3.83869780                6.07453672               15.95168830                0.00010000               -0.95451478                0.45817999               -0.40582970                0.77648253                8.63949185               -0.13387891
               4.82777309                6.02848472               15.95653767                0.00010000               -1.17925964                0.40564811               -0.28000197                0.99193158                9.72080971               -0.20459221
               5.81511260                5.98344722               15.96772696                0.00010000               -1.33025871                0.42316069               -0.18751253                0.87621368               10.03826820                0.01951885
               6.80116792                5.93904692               15.98140856                0.00010000               -1.41731486                0.39667590               -0.13858311                0.75092549               10.15966347                0.44775265
               7.78676631                5.89639486               15.99751661                0.00010000               -1.42197013                0.27160711               -0.11046218                0.74235359               10.31537473                1.00838422
               8.77272852                5.85705435               16.01661588                0.26925397               -0.67236239                0.03948992               -0.09493638                0.34497838                5.23818459                1.64239009
               9.77331906                5.81157209               15.93318243                0.84262872                0.13476179                0.15621177               -0.50439825                0.00756862                0.07615047                0.57807994
              10.77542375                5.76634609               15.84900717                1.00000000                0.21046944                0.29150784               -0.92702499               -0.02009827                0.04216088               -0.45264145
               0.90663943                7.24254577               16.12071404                1.00000000               -0.09939674               -0.17310346                0.52988109               -0.02637572                0.03156660                0.84758545
               1.90564546                7.18498327               16.02408711                0.60740596               -0.04680428               -0.04532644                0.15200576               -0.00751489                0.14299104               -0.46490057
               2.90570335                7.12695484               15.92965261                0.04459110               -0.49383023                0.08381484               -0.21980950                0.49891215                5.23522517               -1.83884353
               3.89576886                7.07854738               15.93486526                0.00010000               -1.13807752                0.40783285               -0.36161210                0.97082363               10.61074985               -0.79655398
               4.88294180                7.03311727               15.94955041                0.00010000               -1.39354528                0.53071374               -0.26689366                0.95174868               11.21148617               -0.27476245
               5.86789795                6.98834078               15.96924017                0.00010000               -1.57836249                0.57516246               -0.16145188                0.73441722               11.51074333                0.06174400
               6.85137455                6.94349021               15.99270931                0.00010000               -1.67686743                0.51380525               -0.06946624                0.49350334               11.73494683                0.44941124
               7.83436061                6.89920483               16.01974122                0.00010000               -1.67418780                0.30900627                0.01050020                0.36639378               11.96948131                0.94364646
               8.81789079                6.85711250               16.05056071                0.29110230               -0.81462674               -0.02443989                0.08206016                0.12658779                6.05752479                1.55939103
               9.81806807                6.81291146               15.96163389                0.80829321                0.09438427                0.11086477               -0.36079504                0.00048467                0.04834043                0.50221380
              10.81977848                6.76909391               15.87219809                1.00000000                0.17104047                0.25730103               -0.80816789               -0.01884642                0.02771020               -0.53079031
               0.96330314                8.24105249               16.09921716                1.00000000               -0.05715174               -0.12652097                0.39156388               -0.02527210                0.01409755                0.81180009
               1.96273162                8.18476440               15.99595434                0.59105903               -0.00128108                0.00140181               -0.00053446               -0.00497093                0.06849461               -0.49959332
               2.96327752                8.12804316               15.89375284                0.04317887               -0.53898958                0.13203029               -0.39437406                0.58950607                6.26021822               -1.83767281
               3.95195183                8.08269338               15.91434830                0.00010000               -1.31314274                0.48114682               -0.38971904                1.07443013               12.58250355               -0.86209947
               4.93701467                8.03909900               15.94091523                0.00010000               -1.62619148                0.69087795               -0.25873074                0.88046717               12.86742771               -0.30987145
               5.91942800                7.99495047               15.97021279                0.00010000               -1.84203630                0.73542145               -0.13012662                0.57495213               13.02659548                0.04508927
               6.90017394                7.94932302               16.00322457                0.00010000               -1.94780563                0.68404639               -0.00269787                0.22989902               13.27922646                0.36860323
               7.88047189                7.90257498               16.04084627                0.00525804               -1.93101480                0.41217162                0.12442648               -0.09631750               13.62017741                0.78500678
               8.86155364                7.85656555               16.08370345                0.31860178               -0.95622748               -0.08029650                0.25250242               -0.15461149                6.89217867                1.42524794
               9.86134734                7.81378938               15.98933452                0.81481737                0.05641349                0.06376928               -0.21825861               -0.00564113                0.02238361                0.46253391
              10.86268191                7.77149211               15.89468590                1.00000000                0.13345723                0.22146475               -0.69139583               -0.01831575                0.01500931               -0.57777285
               1.01871017                9.24001535               16.07753102                1.00000000               -0.01547987               -0.08293827                0.25512916               -0.02415321               -0.00068408                0.68061301
               2.01855537                9.18501131               15.96761739                0.61288686                0.04271614                0.04768114               -0.15131293               -0.00208988                0.07997139               -0.44327211
               3.01956449                9.12959544               15.85930127                0.02668688               -0.61768703                0.17540379               -0.55831967                0.72206214                7.38409337               -1.29846144
               4.00620163                9.08817032               15.89552092                0.00010000               -1.56352212                0.75470167               -0.42767304                0.91230711               14.48169482               -0.51749219
               4.98829405                9.04693483               15.93225026                0.00010000               -1.85143289                0.82723170               -0.26786387                0.61526802               14.39182801               -0.18994436
               5.96917297                9.00304921               15.97033869                0.00010000               -1.99730199                0.83983758               -0.10973255                0.34546519               14.46076993                0.02619095
               6.94834801                8.95717114               16.01199287                0.00010000               -2.19906243                0.81449815                0.05201274                0.03350528               14.74746483                0.21610102
               7.92519172                8.90744826               16.05934623                0.01938388               -2.23819256                0.70609246                0.22218968               -0.41022122               15.26307564                0.45601375
               8.90358416                8.85550657               16.11490273                0.34995357               -1.10815132               -0.11616250                0.40831087               -0.52375583                7.84520902                0.95851626
               9.90302870                8.81418685               16.01686543                0.86570405                0.02112796                0.01854663               -0.07865065               -0.01413338                0.06887381                0.39495658
              10.90400672                8.77352321               15.91674402                0.97498901                0.09780206                0.18451909               -0.57812017               -0.01850744               -0.02678311               -0.49701448
               1.07282816               10.23939372               16.05334370                1.00000000                0.02815736               -0.06216278                0.11870817                0.04422941                0.37271798                0.55803206
               2.07310974               10.18571802               15.94062697                0.83860180                0.08657937                0.07067140               -0.29563751                0.06331262                0.69268023               -0.37735505
               3.07455975               10.13155124               15.83430776                0.51675557               -1.01255756                0.19557998               -0.69673834                1.10299533                8.66032641               -0.83111537
               4.05285859               10.09778741               15.88101953                0.36178023               -2.00593098                0.96170890               -0.48025719                0.87031524               15.91293879               -0.21914098
               5.03444113               10.05564363               15.92468216                0.35482199               -1.83787961                0.87088020               -0.29702945                0.31269870               15.63745065               -0.06253947
               6.01610099               10.01174722               15.96957481                0.37522098               -1.89980683                0.86980032               -0.10688542                0.19126997               15.71647160                0.05565761
               6.99644500                9.96561299               16.01814342                0.42049232               -2.10844804                0.84418432                0.08805463                0.05717933               16.04931483                0.15950744
               7.97393203                9.91669683               16.07300561                0.51568376               -2.60525249                0.92485680                0.29389125               -0.69450297               16.72124590                0.29899603
               8.94433995                9.85424230               16.13859677                0.69013369               -1.54419975               -0.12642700                0.52111567               -1.05124700                8.97525543                0.59354133
               9.94304804                9.81416032               16.04306633                0.96697929               -0.03504551               -0.00265282                0.04894592                0.04894333                0.58042302                0.33772061
              10.94363904                9.77518249               15.94064366                0.98739533                0.05909966                0.16592779               -0.46212665                0.06544886                0.24647932               -0.39421167
               0.53203590                0.29373630               17.26796090                1.00000000               -0.36228041               -0.39602153                1.38452359               -0.07245367               -0.68015717                0.71853805
               1.52841310                0.22270740               17.20546469                1.00000000               -0.29913148               -0.31580614                1.10903702               -0.05826966               -0.85460846                0.04499931
               2.52605327                0.15149090               17.13939969                1.00000000               -0.16046801               -0.23690045                0.81914536               -0.04077672               -0.79169562               -0.19853246
               3.52520374                0.08142256               17.07810702                0.62009081                0.31853904               -0.18487331                0.54252778                0.48713802                0.18881451               -0.54533528
               4.53242405                0.02361399               17.03164774                0.69787519                0.47005954               -0.07256507                0.24696151               -0.05223455                0.74404264                0.11323953
               5.53460493               -0.02541597               16.98154443                0.77933453                0.14660546                0.02016849               -0.06384280                0.00639071                0.35924277                0.06441629
               6.53535616               -0.07310676               16.92751600                0.76210418                0.04590160                0.10565929               -0.37206498                0.00971254                0.17456123               -0.04178134
               7.53552296               -0.12203947               16.87369769                0.85887904                0.05120583                0.20153478               -0.68942817                0.04535578               -0.04978205                0.04660549
               8.53638028               -0.17470433               16.81504317                1.00000000                0.18435720                0.30911633               -1.00020507                0.03229436               -0.42839105                0.40017479
               9.53921010               -0.22985343               16.75356417                1.00000000                0.35047682                0.37898254               -1.30220752               -0.04795498               -0.54677845                0.01456302
              10.54338981               -0.28524236               16.69261146                1.00000000                0.41797108                0.46028268               -1.58913840               -0.07192317               -0.52662631               -0.54657118
               0.60234027                1.28977609               17.24438736                1.00000000               -0.33871642               -0.37431612                1.25847140               -0.03225471               -0.08754425                0.97895763
               1.59895310                1.21954934               17.18148313                1.00000000               -0.30261701               -0.29308967                0.98241512               -0.01480876               -0.04935405                0.06634687
               2.59628793                1.14912189               17.11928893                0.80264390               -0.24697661               -0.21444858                0.70215749                0.02516379                0.17366563               -0.55060129
               3.59401357                1.07957382               17.06081222                0.12946080               -0.54834777               -0.17534734                0.42872674                0.68947044                1.60220683               -0.93608812
               4.58532097                1.02288834               17.02720370                0.28241989               -0.54921792                0.06688773                0.19752068               -0.02360728                2.28743846                0.88677391
               5.58302921                0.97478571               16.98281106                0.37101137               -0.07779664                0.08678847               -0.08325089                0.23375896                1.51346868                0.34380869
               6.58376504                0.92794983               16.93385832                0.26972938                0.18730443                0.02865237               -0.36793613                0.25524208                1.37464998               -0.37803760
               7.58677530                0.87997588               16.88688008                0.42560538                0.34225819                0.19914632               -0.64254246                0.34026551                1.33437974                0.57889487
               8.59061020                0.82838684               16.83747344                1.00000000                0.36121344                0.28809098               -0.91455959                0.14641468                0.68198012                0.56303519
               9.59399957                0.77393639               16.77772723                1.00000000                0.37246522                0.36561625               -1.19863434               -0.00025745                0.09906188                0.08331781
              10.59805951                0.71936047               16.71675559                1.00000000                0.40599371                0.43779415               -1.48486631               -0.02646132                0.03292932               -0.64776125
               0.67184430                2.28624998               17.22593258                1.00000000               -0.30731884               -0.33838326                1.14871329               -0.02455470                0.03233304                1.25492986
               1.66877111                2.21684561               17.15787076                1.00000000               -0.26561200               -0.25488182                0.85877134                0.00077072                0.14909546                0.04437152
               2.66653206                2.14720193               17.09211535                0.43699231               -0.17722084               -0.18197351                0.57458840                0.05537192                0.73304429               -1.19476157
               3.66522670                2.07791561               17.03571011                0.00010000               -1.48960232               -0.16374996                0.28481151                0.97813430                4.14254598               -1.71649546
               4.63674002                2.02495175               17.03813862                0.00010000               -1.55040405                0.20627131                0.19291211                1.90340195                4.45129644               -1.16209422
               5.63421862                1.97631980               16.98962601                0.00010000               -0.07345872               -0.02722711               -0.09036416                1.64595879                1.53148229               -0.46966927
               6.63527084                1.92746629               16.93348051                0.00010000                0.38363241               -0.15038405               -0.36248405                1.45587490                2.81280415                0.15479061
               7.64189126                1.88194345               16.91074435                0.00010000                0.50386061               -0.10082066               -0.59636413                1.01764459                3.18849577                0.60205030
               8.64534805                1.83105749               16.86325375                0.45891920                0.31700283                0.27956345               -0.81020796                0.25592988                1.32637345                1.08228752
               9.64823132                1.77745889               16.80336136                1.00000000                0.33321887                0.35229286               -1.08916807                0.04389450                0.48125082                0.47522693
              10.65201243                1.72351353               16.73898494                1.00000000                0.37811104                0.39711296               -1.39271036               -0.01274024                0.25393401               -0.65736163
               0.74065792                3.28300842               17.20777757                1.00000000               -0.26413491               -0.31396553                1.03737248               -0.01788917                0.03947000                1.24636883
               1.73801657                3.21445170               17.13339142                1.00000000               -0.21662784               -0.22354490                0.73213489                0.00437801                0.04678438               -0.03038124
               2.73632536                3.14548242               17.05910975                0.23743205               -0.10950668               -0.14063428                0.43079401                0.01899670                0.95432717               -1.42267108
               3.73582643                3.07629882               17.00284233                0.00010000               -0.56702702               -0.10493197                0.13634854                1.05442171                4.18455263               -2.18006634
               4.72498482                3.02701377               16.99300197                0.00010000               -1.11962937                0.13533919                0.01491371                2.71801844                6.02118827               -2.75128493
               5.71343385                2.97424117               16.97466602                0.00010000               -0.88629702               -0.00676276               -0.13049977                2.31048666                5.23321774               -1.21877682
               6.70725888                2.92494215               16.95018088                0.00010000               -0.49484315               -0.08069373               -0.30145238                2.02881681                4.82279565                0.54096248
               7.70353698                2.87795946               16.92449622                0.00010000               -0.35227600               -0.16028910               -0.47769703                1.50984304                4.59151720                0.57229395
               8.70021336                2.83397811               16.89611859                0.25287629               -0.05577797                0.27192793               -0.67344246                0.61038612                2.79546990                1.99706629
               9.70242143                2.78098225               16.83542137                1.00000000                0.27410356                0.32086568               -0.94526009                0.05576720                0.59242346                0.74709134
              10.70569543                2.72730273               16.76296835                1.00000000                0.32740061                0.37099220               -1.28707535               -0.02288108                0.00379322               -0.48639224
               0.80859996                4.27997067               17.18905446                1.00000000               -0.22152857               -0.28998152                0.91854694               -0.02107843                0.03862161                1.16843401
               1.80638467                4.21237471               17.10823452                0.98089749               -0.17675416               -0.18581469                0.59908614                0.00082288                0.03970003               -0.08377854
               2.80506487                4.14438924               17.02739128                0.13406936               -0.08004423               -0.08130979                0.28720800               -0.00726659                1.14609849               -1.26330328
               3.80478379                4.07581697               16.96869605                0.00010000               -0.59534183                0.18006528               -0.08808334                0.80880791                5.38555887               -1.32218641
               4.79315804                4.02765853               16.97242978                0.00010000               -1.11419104                0.14074285               -0.12850772                1.62973376                7.98271632               -1.09827571
               5.78249997                3.97618454               16.96709669                0.00010000               -1.05145750                0.22703913               -0.17144762                1.49099802                7.27050362               -0.58600119
               6.77212889                3.92585241               16.95806579                0.00010000               -0.97238981                0.18253550               -0.25464007                1.38614179                6.96085372                0.20254754
               7.76305217                3.87873767               16.94793201                0.00010000               -0.87979496                0.15371430               -0.36061330                1.34211598                6.96330486                1.10138572
               8.75453299                3.83649605               16.94025998                0.24114192               -0.35150644                0.19950990               -0.47816636                0.62644724                3.72762858                2.27904518
               9.75602204                3.78387621               16.86655380                1.00000000                0.21904305                0.25725300               -0.79349701                0.03339228                0.21461964                0.67778065
              10.75891385                3.73093337               16.78855796                1.00000000                0.28918079                0.35036601               -1.16218267               -0.02080926               -0.00083931               -0.39263086
               0.87542827                5.27720879               17.16926050                1.00000000               -0.18138162               -0.25629377                0.79122284               -0.02456955                0.10487106                1.05670057
               1.87361445                5.21073541               17.08266530                0.79026400               -0.13452513               -0.14028807                0.45303165               -0.00380539                0.18419620               -0.21970381
               2.87273777                5.14385623               16.99761697                0.08137143               -0.24405752               -0.02614530                0.12614074                0.16729665                2.29990042               -1.36859313
               3.86873330                5.07990013               16.95331710                0.00010000               -0.77629221                0.47222132               -0.47465779                0.60337228                6.95840932                0.03786776
               4.85721192                5.02982863               16.96075188                0.00010000               -1.18366882                0.29094917               -0.23632365                1.23096198                9.27299727               -0.42614886
               5.84505993                4.97878195               16.96494226                0.00010000               -1.23916678                0.31875239               -0.19487931                1.06447843                8.96937356               -0.16015555
               6.83242859                4.92859286               16.96828803                0.00010000               -1.26621313                0.32006457               -0.20313349                1.00029380                8.87142123                0.39766463
               7.81973566                4.88103375               16.97239590                0.00010000               -1.24124083                0.25027547               -0.23881446                1.03528638                8.94899391                1.12891229
               8.80760377                4.83796830               16.97900050                0.25010285               -0.55418561                0.10866487               -0.28589314                0.49764922                4.58566384                1.89358010
               9.80865195                4.78612731               16.89729276                0.89679448                0.17805724                0.20183660               -0.65721200                0.01606367                0.10881251                0.65775257
              10.81116492                4.73431005               16.81434229                1.00000000                0.25129635                0.32511359               -1.04267872               -0.02048417                0.04633004               -0.40335549
               0.94105533                6.27484479               17.14821325                1.00000000               -0.13942049               -0.21378737                0.65655615               -0.02563024                0.06922823                0.93919800
               1.93966113                6.20956895               17.05477518                0.66773806               -0.09046229               -0.09281430                0.30104827               -0.00508388                0.19623895               -0.39964963
               2.93924609                6.14386634               16.96383644                0.05764852               -0.43911456                0.02697627               -0.04160089                0.37540346                4.04195324               -1.70039800
               3.93087884                6.08526140               16.94729131                0.00010000               -1.01753165                0.48772089               -0.46797097                0.73991243                8.89612388                0.00227538
               4.91889545                6.03347752               16.95365681                0.00010000               -1.29267685                0.43039526               -0.29427204                0.99972297               10.22766621               -0.17118341
               5.90502530                5.98255959               16.96582713                0.00010000               -1.45062417                0.45113041               -0.19278938                0.86124273               10.50179282                0.05522911
               6.88988297                5.93225370               16.98000870                0.00010000               -1.53214222                0.42015563               -0.14240840                0.71811572               10.59800754                0.50153194
               7.87438245                5.88374318               16.99638282                0.00010000               -1.52452794                0.28460426               -0.11764338                0.69990778               10.74610652                1.08451991
               8.85939241                5.83866935               17.01560249                0.26663001               -0.71904427                0.03848121               -0.10865336                0.31622898                5.46168328                1.73819959
               9.86000157                5.78791294               16.92807950                0.82724525                0.13731371                0.15896705               -0.51773918                0.00444994                0.08287043                0.61518843
              10.86213868                5.73743564               16.83968234                1.00000000                0.21371159                0.29802351               -0.93962430               -0.01926808                0.04276994               -0.47095268
               1.00546736                7.27293304               17.12595766                1.00000000               -0.09761234               -0.16802173                0.51908544               -0.02507713                0.03127286                0.85325241
               2.00449123                7.20887912               17.02559553                0.60213558               -0.04569853               -0.04563616                0.14941828               -0.00473170                0.14586360               -0.48733999
               3.00455339                7.14439575               16.92748911                0.04934625               -0.52854307                0.07782203               -0.21381403                0.50851864                5.34113259               -1.89746853
               3.99392037                7.08965455               16.93102420                0.00010000               -1.23225991                0.44478193               -0.40903496                0.97076491               10.97519926               -0.69550914
               4.97990819                7.03843653               16.94678178                0.00010000               -1.52058900                0.57113268               -0.28694668                0.95683015               11.72480586               -0.21070218
               5.96350859                6.98780456               16.96758966                0.00010000               -1.71504385                0.61848475               -0.16921741                0.71318735               12.02639129                0.10953616
               6.94560731                6.93699597               16.99198970                0.00010000               -1.80952095                0.55096872               -0.07552296                0.44700291               12.24496538                0.50282223
               7.92731817                6.88672583               17.01980212                0.00010000               -1.79243590                0.33095333                0.00040549                0.30527143               12.47853527                1.01297367
               8.90975859                6.83873793               17.05129296                0.28862810               -0.86717578               -0.02214193                0.06314751                0.08918489                6.31700945                1.65052759
               9.90997466                6.78930665               16.95793276                0.79377803                0.09877753                0.11699609               -0.38035407               -0.00107280                0.05119142                0.53694219
              10.91173414                6.74027052               16.86402160                1.00000000                0.17594864                0.26666902               -0.82786278               -0.01803029                0.02884155               -0.54761268
               1.06866163                8.27148436               17.10308362                1.00000000               -0.05578488               -0.12267206                0.38190546               -0.02425686                0.01352140                0.81822867
               2.06810378                8.20865622               16.99595057                0.58675414               -0.00102993                0.00090964               -0.00075297               -0.00302114                0.06735634               -0.52003628
               3.06864103                8.14542278               16.88986566                0.04579885               -0.59252130                0.12622680               -0.38449573                0.62140107                6.44705758               -1.88890439
               4.05625336                8.09415704               16.91034060                0.00010000               -1.43794959                0.52070180               -0.41462151                1.11145763               13.05158859               -0.80244724
               5.03988204                8.04490017               16.93826667                0.00010000               -1.77618774                0.74726123               -0.27230282                0.89469527               13.42211561               -0.25612447
               6.02072960                7.99492929               16.96887812                0.00010000               -1.99901423                0.79411355               -0.13782794                0.55406913               13.59091955                0.08805423
               6.99990176                7.94327308               17.00316506                0.00010000               -2.09918370                0.73817306               -0.01041304                0.17606848               13.85366657                0.41188821
               7.97874593                7.89036225               17.04203190                0.00551202               -2.06532329                0.44648297                0.11130860               -0.17791913               14.20538555                0.84062146
               8.95859529                7.83822651               17.08611698                0.31622855               -1.01492034               -0.07540447                0.22881786               -0.20503771                7.19122357                1.50645927
               9.95844752                7.79025286               16.98703622                0.79969291                0.06275242                0.07106501               -0.24236315               -0.00704344                0.02391272                0.49617593
              10.95985034                7.74276902               16.88764886                1.00000000                0.14028181                0.23167349               -0.71656890               -0.01722630                0.01567949               -0.59636149
               1.13063849                9.27047960               17.08004032                1.00000000               -0.01460959               -0.08011011                0.24682229               -0.02342719               -0.00210728                0.68805335
               2.13049239                9.20889732               16.96612006                0.60860428                0.04210535                0.04683713               -0.14897402               -0.00106696                0.07871379               -0.45919801
               3.13148060                9.14692029               16.85379649                0.02641345               -0.69101305                0.17023218               -0.54452559                0.77949714                7.64429365               -1.33089506
               4.11667213                9.10006858               16.89122336                0.00010000               -1.72253766                0.81542554               -0.43381476                0.96328795               15.04254603               -0.47481692
               5.09702984                9.05338176               16.92954735                0.00010000               -2.02275339                0.89428336               -0.27420447                0.63216392               14.99163045               -0.16055617
               6.07621707                9.00368683               16.96921622                0.00010000               -2.16670620                0.90848693               -0.11606599                0.33187868               15.07825111                0.05027678
               7.05369572                8.95175944               17.01247452                0.00010000               -2.37053539                0.88257091                0.04294657               -0.00944349               15.38437917                0.23965811
               8.02880636                8.89565549               17.06149536                0.02021314               -2.39642461                0.76879588                0.20617047               -0.48918982               15.92366038                0.48746169
               9.00576723                8.83722984               17.11885067                0.34746388               -1.17575403               -0.10763837                0.37968191               -0.59209610                8.19046140                1.01143904
              10.00529128                8.79072795               17.01593809                0.84768433                0.02950319                0.02725666               -0.10792277               -0.01607285                0.07469632                0.42119466
              11.00635729                8.74490399               16.91081070                0.97639314                0.10660139                0.19516644               -0.60904100               -0.01728869               -0.02700505               -0.51605414
               1.19135766               10.26988216               17.05449786                1.00000000                0.02840943               -0.05974457                0.11204273                0.04299823                0.37614121                0.56556231
               2.19164176               10.20959297               16.93769912                0.83692091                0.08510224                0.06956515               -0.29100791                0.06219939                0.70307935               -0.38956092
               3.19305971               10.14882742               16.82743030                0.51603660               -1.12920533                0.19071301               -0.68083606                1.20154000                8.98072056               -0.85005326
               4.16905765               10.11046555               16.87623969                0.36238988               -2.20763184                1.03969625               -0.47729121                0.93647247               16.55426224               -0.19460550
               5.14890707               10.06278584               16.92170510                0.35504933               -2.00340774                0.94040802               -0.29993976                0.31939658               16.29118817               -0.05066563
               6.12898950               10.01309903               16.96848435                0.37506482               -2.05814214                0.94121914               -0.11266986                0.18417603               16.39414909                0.06512891
               7.10774423                9.96092450               17.01897787                0.42002507               -2.27488840                0.91650609                0.07734550                0.03680781               16.74790571                0.16911061
               8.08349173                9.90573817               17.07585448                0.51643147               -2.80316586                1.00826727                0.27441107               -0.77400066               17.44546437                0.31325562
               9.05168091                9.83607374               17.14364192                0.68918142               -1.65199070               -0.11560956                0.48628459               -1.15564033                9.37387363                0.62562346
              10.05045191                9.79079799               17.04338363                0.95676128               -0.02642119                0.00700419                0.01329079                0.04599401                0.61375480                0.35834586
              11.05115249                9.74667235               16.93583496                0.98725333                0.07005732                0.17683615               -0.50010071                0.06695544                0.26040508               -0.41193827
               0.58899622                0.32523780               18.28173450                1.00000000               -0.35825084               -0.39175498                1.37040045               -0.07152472               -0.70264940                0.74115284
               1.58541372                0.24778922               18.21650172                1.00000000               -0.29570560               -0.31305964                1.09863139               -0.05733450               -0.88410586                0.04794579
               2.58308211                0.17018273               18.14756346                1.00000000               -0.15889346               -0.23621687                0.81274102               -0.03828976               -0.82168513               -0.20406578
               3.58223585                0.09375302               18.08352605                0.61980972                0.31532554               -0.18569185                0.53762655                0.48633660                0.15458450               -0.56226064
               4.58938862                0.02951225               18.03411108                0.70111565                0.46382739               -0.06823417                0.24374964               -0.06083625                0.68793384                0.12587693
               5.59151239               -0.02590628               17.98090894                0.78391309                0.14466838                0.02213563               -0.06371018                0.00392772                0.30057514                0.07083406
               6.59228199               -0.07991063               17.92382734                0.76564271                0.05064841                0.10542130               -0.36580186                0.00921756                0.11486933               -0.04619764
               7.59252536               -0.13496864               17.86686514                0.86179974                0.05756398                0.19981466               -0.67729689                0.04162814               -0.11014819                0.05138125
               8.59343327               -0.19350625               17.80512360                1.00000000                0.18532066                0.30446985               -0.98384184                0.02847783               -0.48077174                0.41119975
               9.59623178               -0.25439756               17.74064065                1.00000000                0.34587427                0.37418311               -1.28250109               -0.04682530               -0.58678212                0.01288994
              10.60035076               -0.31553106               17.67683674                1.00000000                0.41189801                0.45488445               -1.56578004               -0.06957401               -0.55882593               -0.57803410
               0.66572956                1.32132025               18.25691161                1.00000000               -0.33616530               -0.36990983                1.24645151               -0.03179710               -0.09139504                1.00901081
               1.66236791                1.24465862               18.19126288                1.00000000               -0.30061227               -0.29040326                0.97419576               -0.01463930               -0.05487863                0.07022261
               2.65971731                1.16782056               18.12628842                0.80269930               -0.24667282               -0.21409782                0.69917329                0.02732134                0.17037603               -0.56243933
               3.65743445                1.09189610               18.06512950                0.13495075               -0.55537034               -0.17781580                0.43762125                0.69340546                1.61872277               -0.96844012
               4.64860991                1.02882991               18.02918400                0.29328582               -0.55856689                0.06243280                0.19780732               -0.05204811                2.30912240                0.91762846
               5.64626311                0.97431508               17.98197970                0.38465058               -0.08522803                0.08702976               -0.08367531                0.21436281                1.51343223                0.35501415
               6.64690535                0.92114358               17.93019555                0.28113535                0.17381691                0.03583241               -0.36522581                0.24456738                1.37976980               -0.38198122
               7.64973945                0.86702951               17.88049219                0.43546475                0.32635801                0.19618422               -0.63570301                0.31762040                1.34600449                0.58299179
               8.65343251                0.80953845               17.82837744                1.00000000                0.35182387                0.28462348               -0.90511263                0.13807552                0.68847649                0.58326977
               9.65677593                0.74934428               17.76580629                1.00000000                0.36780052                0.36172228               -1.18593228                0.00021556                0.09894235                0.08447768
              10.66078852                0.68901779               17.70199019                1.00000000                0.40125888                0.43441371               -1.46853938               -0.02474968                0.03212407               -0.68531803
               0.74168354                2.31783960               18.23736634                1.00000000               -0.30629202               -0.33397863                1.13803421               -0.02335334                0.03361620                1.29054502
               1.73862062                2.24198115               18.16642099                1.00000000               -0.26462402               -0.25252226                0.85272127                0.00255151                0.15233591                0.04740957
               2.73639106                2.16590077               18.09781954                0.45424301               -0.17630082               -0.18239011                0.56656901                0.05904587                0.73470317               -1.21906512
               3.73509460                2.09019670               18.03853452                0.00010000               -1.52311905               -0.17467662                0.28394346                0.98821482                4.22835727               -1.75768196
               4.70592868                2.03076091               18.04002690                0.00010000               -1.58043134                0.19375571                0.18182924                1.89284614                4.58408194               -1.18872947
               5.70348598                1.97583432               17.98869564                0.00010000               -0.07348855               -0.04224163               -0.09756628                1.62873814                1.57534182               -0.46602007
               6.70445891                1.92080602               17.92985403                0.00010000                0.34984606               -0.15523370               -0.36325413                1.42239904                2.88004092                0.17963870
               7.71048290                1.86895505               17.90478479                0.00010000                0.47105520               -0.10642964               -0.59642963                0.99052956                3.28134853                0.64485113
               8.71388001                1.81218622               17.85516598                0.46578314                0.31369266                0.27665592               -0.80819022                0.24349696                1.39461070                1.12852021
               9.71675675                1.75283689               17.79250050                1.00000000                0.33143629                0.34899606               -1.08372234                0.04179355                0.50529872                0.49627286
              10.72050874                1.69315722               17.72510571                1.00000000                0.37519864                0.39825215               -1.38366291               -0.01178498                0.26627651               -0.69405632
               0.81697940                3.31464068               18.21809984                1.00000000               -0.26216268               -0.31007824                1.02732778               -0.01589947                0.04285518                1.27551190
               1.81435777                3.23960817               18.14068204                1.00000000               -0.21483570               -0.22205880                0.72655878                0.00741349                0.05213580               -0.03212445
               2.81268268                3.16417275               18.06341361                0.25093229               -0.10095795               -0.14221082                0.42980154                0.01615308                0.96360216               -1.45275046
               3.81233861                3.08840256               18.00421113                0.00010000               -0.59267346               -0.11431380                0.13663304                1.05510214                4.25345779               -2.23176125
               4.80082921                3.03270502               17.99319270                0.00010000               -1.17729224                0.11898619                0.01820117                2.72632591                6.18552130               -2.84427010
               5.78879276                2.97347025               17.97336298                0.00010000               -0.92983068               -0.02533783               -0.13283129                2.29598798                5.39388970               -1.22590094
               6.78223260                2.91803891               17.94716476                0.00010000               -0.53114652               -0.10010917               -0.30310904                2.00200106                4.97882854                0.59261610
               7.77816983                2.86490092               17.91971658                0.00010000               -0.39059989               -0.16717221               -0.47933786                1.49668530                4.73958742                0.65418285
               8.77442060                2.81507157               17.88936628                0.25263766               -0.07645145                0.26384674               -0.67827977                0.59386256                2.90271531                2.08862130
               9.77664081                2.75632420               17.82596608                1.00000000                0.27457809                0.31728458               -0.94695720                0.05119866                0.62898360                0.78977186
              10.77991216                2.69698283               17.75011154                1.00000000                0.32713574                0.37542051               -1.28548993               -0.02153550                0.00669611               -0.50279862
               0.89143056                4.31163804               18.19818585                1.00000000               -0.21937444               -0.28627050                0.90802237               -0.01980916                0.04541045                1.18857244
               1.88923681                4.23753997               18.11420939                0.96845825               -0.17554122               -0.18504057                0.59563493                0.00234637                0.05055574               -0.09600106
               2.88791973                4.16305655               18.03029291                0.14232403               -0.07862159               -0.08350988                0.29212084               -0.00976066                1.12858934               -1.30474402
               3.88766438                4.08791042               17.96787159                0.00010000               -0.62661072                0.15716577               -0.06527027                0.80679013                5.47562603               -1.48247256
               4.87538752                4.03314063               17.97119833                0.00010000               -1.17962633                0.12746413               -0.12072927                1.62181851                8.25584324               -1.16213293
               5.86407185                3.97532756               17.96538773                0.00010000               -1.11596282                0.22368892               -0.17216826                1.48288199                7.53962596               -0.58918461
               6.85306826                3.91880383               17.95551549                0.00010000               -1.03439559                0.17640860               -0.25664934                1.36649548                7.21296190                0.24963116
               7.84338394                3.86561160               17.94430914                0.00010000               -0.93671392                0.14996055               -0.36518357                1.31389298                7.20642154                1.18451696
               8.83433398                3.81746316               17.93542930                0.23907694               -0.37572376                0.18901165               -0.48890073                0.60676259                3.87664950                2.39767287
               9.83586947                3.75918258               17.85862523                0.99006147                0.22133895                0.25461932               -0.79974610                0.03022802                0.24447762                0.71869957
              10.83876076                3.70066563               17.77698434                1.00000000                0.28912952                0.35447181               -1.16037635               -0.01950516                0.00533692               -0.39887385
               0.96477934                5.30891527               18.17711745                1.00000000               -0.17931580               -0.25183355                0.78028179               -0.02400018                0.10810773                1.06821843
               1.96298618                5.23590736               18.08717074                0.78138082               -0.13311596               -0.13961362                0.44824001               -0.00284693                0.19306684               -0.24192866
               2.96211702                5.16250256               17.99888058                0.08862522               -0.22979222               -0.02848957                0.12725663                0.14525562                2.18172581               -1.42301514
               3.95839034                5.09154588               17.94869611                0.00010000               -0.81342865                0.44823523               -0.43108664                0.59436368                7.10032793               -0.04843018
               4.94584845                5.03525431               17.95838440                0.00010000               -1.28015670                0.29452620               -0.23779595                1.24006157                9.75082280               -0.45385238
               5.93278720                4.97794402               17.96298543                0.00010000               -1.32849889                0.32884183               -0.19695966                1.05187428                9.34385309               -0.14484042
               6.91927847                4.92156708               17.96624423                0.00010000               -1.34994164                0.32860265               -0.20664831                0.97301110                9.21876447                0.44940720
               7.90578837                4.86790013               17.96997816                0.00010000               -1.31467977                0.25337164               -0.24597417                0.99977177                9.28699777                1.21308196
               8.89298487                4.81885180               17.97607839                0.24760496               -0.58727361                0.10313666               -0.29990777                0.47239896                4.77004277                2.00517353
               9.89404290                4.76141658               17.89072774                0.87950869                0.17855477                0.20266369               -0.66123482                0.01238029                0.12762952                0.69199853
              10.89655597                4.70407227               17.80394282                1.00000000                0.25130713                0.32910461               -1.04630914               -0.01879700                0.05874594               -0.42260207
               1.03696636                6.30660137               18.15472303                1.00000000               -0.13737781               -0.20874053                0.64538992               -0.02487608                0.06972691                0.94491612
               2.03559258                6.23474770               18.05776235                0.66127304               -0.08900168               -0.09231389                0.29652942               -0.00347511                0.20319362               -0.42344013
               3.03518633                6.16248676               17.96342912                0.06388845               -0.43963378                0.02368400               -0.03964482                0.35538683                3.99693033               -1.75729116
               4.02679991                6.09687513               17.94232888                0.00010000               -1.06978607                0.50210143               -0.51466821                0.70671165                9.13702221                0.10867457
               5.01379060                6.03903115               17.95065223                0.00010000               -1.40016704                0.45195279               -0.30406817                1.00266357               10.75205535               -0.14330150
               5.99879656                5.98190440               17.96387117                0.00010000               -1.56091118                0.47682440               -0.19849065                0.83876977               10.96272097                0.09196844
               6.98257238                5.92537589               17.97856039                0.00010000               -1.63509566                0.44116099               -0.14810146                0.67787847               11.02998640                0.55852308
               7.96609465                5.87067903               17.99516374                0.00010000               -1.61534382                0.29575462               -0.12740774                0.64948434               11.16845258                1.16507589
               8.95026550                5.81952589               18.01444282                0.26418580               -0.75990212                0.03783767               -0.12481657                0.28361441                5.68015214                1.83951739
               9.95089661                5.76323586               17.92282765                0.81179094                0.14039748                0.16384999               -0.53403091                0.00210936                0.08851523                0.65177815
              10.95307345                5.70724772               17.83021469                1.00000000                0.21768448                0.30514376               -0.95505672               -0.01773094                0.04310645               -0.49273002
               1.10798914                7.30474046               18.13109575                1.00000000               -0.09578628               -0.16334851                0.50846979               -0.02427217                0.03115349                0.85742045
               2.10703128                7.23406108               18.02707548                0.59719759               -0.04459079               -0.04542794                0.14638194               -0.00300474                0.14908655               -0.50919426
               3.10709733                7.16297624               17.92537633                0.05402515               -0.55255527                0.07354714               -0.20931306                0.50845694                5.41579012               -1.95346298
               4.09598018                7.10158791               17.92668456                0.00010000               -1.31124402                0.47850693               -0.45808014                0.95499082               11.31853506               -0.57767712
               5.08087245                7.04429336               17.94381148                0.00010000               -1.63811556                0.60898945               -0.30598407                0.95107299               12.25066815               -0.14504935
               6.06321786                6.98748051               17.96585583                0.00010000               -1.84055239                0.65902968               -0.17764233                0.68241893               12.54184570                0.15931337
               7.04406140                6.93039030               17.99119885                0.00010000               -1.92949074                0.58500408               -0.08354129                0.39279088               12.74878451                0.55920330
               8.02462805                6.87381522               18.01974933                0.00010000               -1.89805305                0.35075685               -0.01223333                0.23756428               12.97850231                1.08614599
               9.00610034                6.81960856               18.05182366                0.28632844               -0.91323973               -0.01944331                0.04177750                0.04933315                6.57147805                1.74548886
              10.00636326                6.76469358               17.95402681                0.77922271                0.10386407                0.12358601               -0.40152905               -0.00181533                0.05372706                0.57555297
              11.00817762                6.71017514               17.85564084                1.00000000                0.18143652                0.27640282               -0.84897904               -0.01700634                0.03030447               -0.56204353
               1.17783966                8.30333440               18.10685527                1.00000000               -0.05429535               -0.11891397                0.37230495               -0.02355495                0.01310337                0.82357595
               2.17729670                8.23383914               17.99593928                0.58284891               -0.00055088                0.00088563               -0.00194068               -0.00172432                0.06665835               -0.53956152
               3.17782864                8.16395770               17.88606292                0.04852302               -0.63570529                0.12183332               -0.37703228                0.64279292                6.61164256               -1.93714182
               4.16458260                8.10644527               17.90605587                0.00010000               -1.54545897                0.55934935               -0.44336223                1.12873756               13.50033796               -0.72167803
               5.14691946                8.05121094               17.93546917                0.00010000               -1.91172964                0.79959597               -0.28745528                0.89505370               13.97805097               -0.19509227
               6.12634800                7.99508499               17.96745624                0.00010000               -2.14129844                0.84840062               -0.14712826                0.52289924               14.15162377                0.13372231
               7.10409349                7.93707597               18.00301631                0.00010000               -2.23601635                0.78806003               -0.02039432                0.11521191               14.42086478                0.45765007
               8.08162768                7.87769417               18.04307244                0.00589861               -2.18598445                0.47798503                0.09542748               -0.26391090               14.78060710                0.89952319
               9.06037380                7.81913703               18.08827981                0.31394998               -1.06669802               -0.06990688                0.20237165               -0.25681374                7.48549042                1.59123203
              10.06029372                7.76570758               17.98448725                0.78444870                0.06982030                0.07848685               -0.26826302               -0.00809550                0.02582164                0.53295155
              11.06177021                7.71277578               17.88035452                1.00000000                0.14764907                0.24204460               -0.74265871               -0.01599173                0.01646971               -0.61295687
               1.24650855                9.30236218               18.08246747                1.00000000               -0.01350646               -0.07722466                0.23840731               -0.02289776               -0.00330875                0.69475748
               2.24637349                9.23407880               17.96463791                0.60475825                0.04192561                0.04647684               -0.14814082               -0.00035455                0.07804794               -0.47424060
               3.24734706                9.16541290               17.84841075                0.02641182               -0.75358985                0.16624210               -0.53395821                0.82505277                7.88997847               -1.36113810
               4.23130169                9.11277490               17.88684462                0.00010000               -1.86066323                0.87086888               -0.44302111                0.99794068               15.58415389               -0.41840823
               5.21013380                9.06028528               17.92676617                0.00010000               -2.17454320                0.95519380               -0.28292278                0.63872037               15.58325603               -0.12613898
               6.18781082                9.00444852               17.96801737                0.00010000               -2.31886700                0.97142787               -0.12469857                0.31147110               15.68767598                0.07624780
               7.16375646                8.94615150               18.01285180                0.00010000               -2.52610252                0.94562654                0.03126581               -0.05670599               16.01195156                0.26461546
               8.13728877                8.88337492               18.06346964                0.02121768               -2.54028991                0.82747647                0.18727525               -0.56957455               16.57283414                0.52134924
               9.11295066                8.81821042               18.12249637                0.34492113               -1.23630901               -0.09823735                0.34782395               -0.65985683                8.53052982                1.06702221
              10.11256259                8.76626332               18.01470698                0.82932085                0.03853627                0.03642810               -0.13931891               -0.01790022                0.08124838                0.44926773
              11.11372139                8.71501603               17.90456320                0.97768183                0.11587909                0.20597184               -0.64075931               -0.01601435               -0.02697112               -0.53427648
               1.31394846               10.30178990               18.05558455                1.00000000                0.02904252               -0.05722734                0.10492795                0.04186860                0.37963201                0.57263190
               2.31423888               10.23476868               17.93480682                0.83545638                0.08425685                0.06898826               -0.28837625                0.06117206                0.71356654               -0.40107673
               3.31563360               10.16728255               17.82069104                0.51547712               -1.22849248                0.18696427               -0.66858227                1.28335159                9.28962971               -0.86786491
               4.28966903               10.12386264               17.87147370                0.36295725               -2.38066786                1.10877487               -0.47704048                0.98834821               17.17678584               -0.16213822
               5.26802024               10.07031482               17.91868337                0.35527025               -2.14789135                1.00295385               -0.30554741                0.32118928               16.93166273               -0.03653160
               6.24671121               10.01451355               17.96732142                0.37490046               -2.19936310                1.00650236               -0.12111852                0.17372226               17.06028497                0.07510627
               7.22403298                9.95598850               18.01969033                0.41951898               -2.42669706                0.98369988                0.06382273                0.01415951               17.43398879                0.17884351
               8.19817727                9.89424370               18.07849383                0.51729550               -2.98723559                1.08687814                0.25214581               -0.85196181               18.15482873                0.32819923
               9.16428827                9.81717228               18.14832247                0.68817266               -1.75235836               -0.10381418                0.44822734               -1.25661760                9.76650895                0.65975316
              10.16313010                9.76643614               18.04333214                0.94627109               -0.01718861                0.01728180               -0.02460826                0.04289723                0.64804616                0.38006899
              11.16394449                9.71689521               17.93064164                0.98713900                0.08143936                0.18791790               -0.53870556                0.06821829                0.27455928               -0.42971628
               0.64844847                0.35820515               19.29536891                1.00000000               -0.35464463               -0.38806824                1.35707887               -0.06998005               -0.72570557                0.76399536
               1.64490203                0.27414400               19.22743732                1.00000000               -0.29266153               -0.31094800                1.08938394               -0.05460631               -0.91562987                0.05085141
               2.64259524                0.18995965               19.15565451                1.00000000               -0.15771109               -0.23426237                0.80535823               -0.03531981               -0.85818766               -0.21125650
               3.64174780                0.10697044               19.08885955                0.61959810                0.31022964               -0.17738860                0.52994263                0.47576538                0.11377128               -0.57588112
               4.64879984                0.03598568               19.03652273                0.70414785                0.45761825               -0.06605942                0.23914201               -0.07022333                0.63575763                0.13542817
               5.65090017               -0.02614080               18.98027022                0.78776615                0.14487545                0.02400956               -0.06354263                0.00097213                0.24630204                0.07695478
               6.65169734               -0.08676715               18.92019996                0.76849466                0.05617818                0.10506603               -0.35945467                0.00880234                0.05890519               -0.05038442
               7.65202373               -0.14826594               18.86015175                0.86423781                0.06459977                0.19820045               -0.66543984                0.03793416               -0.16861992                0.05670509
               8.65298934               -0.21298801               18.79536633                1.00000000                0.18687908                0.29978563               -0.96770386                0.02457988               -0.53291600                0.42215939
               9.65576132               -0.27992692               18.72791414                1.00000000                0.34158824                0.36930134               -1.26284686               -0.04566143               -0.62701993                0.01121853
              10.65982110               -0.34710993               18.66129586                1.00000000                0.40597893                0.44950789               -1.54250443               -0.06699222               -0.59113601               -0.60942245
               0.73180982                1.35432447               19.26931639                1.00000000               -0.33311063               -0.36662499                1.23464961               -0.03105220               -0.09452367                1.03873203
               1.72847871                1.27103452               19.20096704                1.00000000               -0.29904975               -0.28846801                0.96667747               -0.01224180               -0.05856873                0.07470719
               2.72582883                1.18761702               19.13327239                0.78779224               -0.24931351               -0.21321056                0.69969922                0.03396954                0.17443296               -0.58174864
               3.72349244                1.10519655               19.06956465                0.14098878               -0.55878018               -0.16450489                0.44535555                0.67733651                1.63668697               -1.01589211
               4.71465322                1.03532508               19.03115984                0.30437283               -0.56030696                0.05913914                0.19422360               -0.08182829                2.31900658                0.93724509
               5.71228630                0.97409930               18.98113756                0.39790133               -0.09026417                0.08784569               -0.08586869                0.19782906                1.50899577                0.36220315
               6.71284794                0.91428351               18.92655380                0.29212568                0.16136005                0.04285032               -0.36385338                0.23509669                1.38349840               -0.38536425
               7.71551351                0.85371606               18.87416602                0.44492775                0.31088457                0.19410129               -0.63016585                0.29544423                1.35659080                0.58687904
               8.71906563                0.79000985               18.81937119                1.00000000                0.34260782                0.28135343               -0.89656025                0.12926211                0.69398839                0.60318706
               9.72236566                0.72376609               18.75400859                1.00000000                0.36342808                0.35757444               -1.17401547                0.00057782                0.09833652                0.08555679
              10.72633419                0.65738515               18.68738480                1.00000000                0.39685291                0.43104942               -1.45298218               -0.02277181                0.03105460               -0.72279429
               0.81440732                2.35087265               19.24869326                1.00000000               -0.30426871               -0.33126601                1.12693882               -0.02276062                0.03748933                1.32491686
               1.81136463                2.26837464               19.17492518                1.00000000               -0.26473593               -0.25068536                0.84718002                0.00447933                0.15592897                0.04944428
               2.80911260                2.18569544               19.10344673                0.45519566               -0.18890783               -0.18314918                0.56715002                0.07725930                0.74264897               -1.24972587
               3.80758648                2.10368034               19.04138898                0.00010000               -1.54260370               -0.14350149                0.30831846                0.95485396                4.32916795               -1.83973973
               4.77826053                2.03716846               19.04177521                0.00010000               -1.58440763                0.18159298                0.16084395                1.84129728                4.70579123               -1.21900809
               5.77589832                1.97561611               18.98767469                0.00010000               -0.07390085               -0.05341122               -0.10688533                1.59873382                1.61622494               -0.46420968
               6.77678251                1.91408986               18.92621543                0.00010000                0.31539798               -0.15752456               -0.36556388                1.38169402                2.94179575                0.20634017
               7.78220628                1.85561608               18.89881576                0.00010000                0.43710226               -0.10986451               -0.59825475                0.95814544                3.36989987                0.68892040
               8.78552456                1.79263906               18.84708994                0.47249139                0.30956443                0.27386854               -0.80778338                0.22805116                1.46155311                1.17440315
               9.78839757                1.72722456               18.78168691                1.00000000                0.33014999                0.34434336               -1.07966352                0.03810867                0.52883384                0.51716611
              10.79212756                1.66151106               18.71131169                1.00000000                0.37299835                0.39914887               -1.37580472               -0.01113862                0.27825133               -0.73105787
               0.89635062                3.34769915               19.22832413                1.00000000               -0.26051114               -0.30740688                1.01686094               -0.01514490                0.04722733                1.30234923
               1.89374551                3.26602081               19.14792260                1.00000000               -0.21411565               -0.22043295                0.72185619                0.00894939                0.05887621               -0.03594159
               2.89206831                3.18395404               19.06770578                0.25872102               -0.13145065               -0.14340211                0.42810278                0.05837842                0.97179438               -1.48044789
               3.89111650                3.10232652               19.00557499                0.00010000               -0.62624578               -0.09989004                0.14158101                1.04036591                4.32579676               -2.29693540
               4.87954340                3.03895694               18.99336600                0.00010000               -1.18884576                0.10278578                0.00948394                2.66013943                6.35222532               -2.93211276
               5.86733958                2.97303107               18.97200939                0.00010000               -0.95307738               -0.04188538               -0.13923282                2.26265395                5.55344714               -1.22738783
               6.86048185                2.91113302               18.94411870                0.00010000               -0.56061855               -0.11621460               -0.30683868                1.95859516                5.13225259                0.64746208
               7.85612721                2.85151877               18.91490946                0.00010000               -0.42318377               -0.17248228               -0.48313172                1.47073502                4.88184098                0.73951732
               8.85201817                2.79548722               18.88255299                0.25236292               -0.09356875                0.25491679               -0.68529853                0.56797552                3.00596120                2.18103111
               9.85425584                2.73065296               18.81648223                1.00000000                0.27601324                0.31319847               -0.95118561                0.04199432                0.66463454                0.83124272
              10.85753844                2.66536812               18.73725855                1.00000000                0.32825987                0.38067752               -1.28632457               -0.01974243                0.00859800               -0.51931652
               0.97746109                4.34472451               19.20721491                1.00000000               -0.21723608               -0.28315820                0.89741869               -0.01919269                0.05367708                1.20578042
               1.97528873                4.26396598               19.12014722                0.95572543               -0.17433134               -0.18384666                0.59152952                0.00350147                0.06362695               -0.10981986
               2.97397446                4.18282740               19.03323370                0.14817936               -0.09489171               -0.08471615                0.29526889                0.02475824                1.12509279               -1.34607230
               3.97339089                4.10168254               18.96739065                0.00010000               -0.66078458                0.10738589               -0.02789356                0.82581609                5.57159524               -1.63935682
               4.96075877                4.03922418               18.97001519                0.00010000               -1.22077831                0.11703657               -0.11952067                1.57457655                8.51610083               -1.23164246
               5.94897533                3.97477841               18.96365333                0.00010000               -1.16460285                0.21853159               -0.17492881                1.46394814                7.80424758               -0.58692001
               6.93746671                3.91176557               18.95293280                0.00010000               -1.08542696                0.17015415               -0.26076910                1.33586658                7.46056506                0.30125680
               7.92726679                3.85216644               18.94062834                0.00010000               -0.98584149                0.14610049               -0.37199335                1.27430352                7.44212544                1.27120901
               8.91774988                3.79773739               18.93048197                0.23702197               -0.39551176                0.17855215               -0.50207374                0.57794824                4.01965624                2.51940910
               9.91935655                3.73348853               18.85055888                0.97073551                0.22762457                0.25559569               -0.81909628                0.02357423                0.27427227                0.76584985
              10.92230237                3.66912461               18.76535044                1.00000000                0.29458216                0.36297693               -1.17417884               -0.01783125                0.01600069               -0.40575768
               1.05748383                5.34203598               19.18486614                1.00000000               -0.17711703               -0.24798481                0.76912228               -0.02370272                0.11128451                1.07732089
               2.05571266                5.26234388               19.09163010                0.77287746               -0.13184559               -0.13852845                0.44367887               -0.00230412                0.20204718               -0.26570587
               3.05484692                5.18225972               19.00016210                0.09524083               -0.22383092               -0.03013167                0.12944888                0.13870306                2.09082211               -1.47896607
               4.05123604                5.10447424               18.94469537                0.00010000               -0.84539279                0.38819464               -0.37560827                0.60216168                7.25655855               -0.18917643
               5.03793906                5.04129767               18.95599596                0.00010000               -1.35794412                0.29801157               -0.23710972                1.22814802               10.19875494               -0.48664294
               6.02407716                4.97740170               18.96100307                0.00010000               -1.40639574                0.33750773               -0.19947095                1.03173306                9.71380411               -0.12646740
               7.00981115                4.91453610               18.96415506                0.00010000               -1.42178516                0.33519890               -0.21186182                0.93812454                9.55965066                0.50539680
               7.99564146                4.85444078               18.96747641                0.00010000               -1.37780526                0.25535430               -0.25557932                0.95622247                9.61659371                1.30138974
               8.98225504                4.79905826               18.97300235                0.24516866               -0.61506718                0.09885178               -0.31668651                0.44528789                4.95181026                2.12157448
               9.98334011                4.73576487               18.88406806                0.86218097                0.18273134                0.20804483               -0.67849087                0.01064254                0.14733654                0.73397628
              10.98590967                4.67262766               18.79341611                1.00000000                0.25695570                0.33792114               -1.06747873               -0.01750320                0.06809053               -0.44117889
               1.13637124                6.33976482               19.16112105                1.00000000               -0.13523275               -0.20433847                0.63404977               -0.02458319                0.07008253                0.94909945
               2.13501891                6.26119541               19.06070577                0.65508904               -0.08765375               -0.09127890                0.29208549               -0.00301646                0.20993392               -0.44743189
               3.13461816                6.18222476               18.96304354                0.06974781               -0.43113698                0.02164883               -0.03748957                0.33321015                3.92875015               -1.81307716
               4.12639617                6.10944643               18.93699795                0.00010000               -1.11119466                0.49498884               -0.54334678                0.67897658                9.36167241                0.16113107
               5.11239427                6.04518441               18.94757544                0.00010000               -1.50123050                0.47104629               -0.30972533                0.99466775               11.28465783               -0.12003585
               6.09637156                5.98152856               18.96185731                0.00010000               -1.66020728                0.50020304               -0.20381146                0.80830545               11.41831181                0.13041619
               7.07919012                5.91846954               18.97704667                0.00010000               -1.72512399                0.45940070               -0.15530761                0.63116573               11.45487231                0.61898863
               8.06186908                5.85727352               18.99383466                0.00010000               -1.69292853                0.30496369               -0.13963121                0.59334205               11.58226475                1.24959362
               9.04533155                5.79971443               19.01310615                0.26184825               -0.79345394                0.03762256               -0.14462390                0.25157693                5.89433214                1.94511651
              10.04600000                5.73764943               18.91739888                0.79627759                0.14475872                0.16966159               -0.55313860                0.00302549                0.09479792                0.69009864
              11.04822673                5.67588303               18.82058121                1.00000000                0.22267259                0.31310784               -0.97286023               -0.01651454                0.04485923               -0.51181341
               1.21413097                7.33794921               19.13612705                1.00000000               -0.09385866               -0.15903300                0.49759376               -0.02386903                0.03102002                0.86081124
               2.21319238                7.26051830               19.02852317                0.59251667               -0.04354351               -0.04464240                0.14297785               -0.00230638                0.15219371               -0.53051765
               3.21326010                7.18269269               18.92330285                0.05853283               -0.56682287                0.07103763               -0.20569129                0.49974270                5.46045455               -2.00731607
               4.20185593                7.11437402               18.92186260                0.00010000               -1.37549052                0.50584922               -0.50284694                0.92417993               11.64191615               -0.45387944
               5.18575029                7.05071860               18.94066210                0.00010000               -1.74488974                0.64296114               -0.32183349                0.93400837               12.78715760               -0.08104948
               6.16695813                6.98740576               18.96403682                0.00010000               -1.95303963                0.69568141               -0.18595894                0.64244477               13.05465113                0.21071748
               7.14668950                6.92372412               18.99031887                0.00010000               -2.03473610                0.61517918               -0.09319997                0.33235088               13.24496374                0.61830698
               8.12626341                6.86054006               19.01955745                0.00010000               -1.98894114                0.36794378               -0.02747325                0.16560432               13.46882858                1.16251536
               9.10691067                6.79981071               19.05212851                0.28415141               -0.95156935               -0.01679914                0.01777324                0.00883901                6.82146980                1.84289123
              10.10723202                6.73915810               18.94990218                0.76458718                0.11007535                0.12911473               -0.42428473               -0.00158236                0.05653958                0.61692795
              11.10911218                6.67888982               18.84704202                1.00000000                0.18801588                0.28522475               -0.87120513               -0.01590464                0.03177157               -0.57406914
               1.29075568                8.33658416               19.11052971                1.00000000               -0.05263762               -0.11518717                0.36232385               -0.02313524                0.01275029                0.82846218
               2.29022930                8.26030257               18.99591176                0.57927262                0.00008121                0.00133335               -0.00394328               -0.00104782                0.06606954               -0.55826162
               3.29075730                8.18364551               18.88232502                0.05123551               -0.66877189                0.11883582               -0.37124221                0.65371007                6.75403218               -1.98285956
               4.27685386                8.11956342               18.90147336                0.00010000               -1.63573050                0.59542818               -0.47186437                1.12709933               13.92897267               -0.62117187
               5.25804269                8.05804363               18.93251757                0.00010000               -2.03194619                0.84630922               -0.30210577                0.88253482               14.53515958               -0.12863892
               6.23621494                7.99544219               18.96593556                0.00010000               -2.26699215                0.89704236               -0.15715803                0.48281576               14.70728620                0.18123487
               7.21270285                7.93077313               19.00275717                0.00010000               -2.35601833                0.83268062               -0.03235913                0.04915965               14.97936358                0.50541896
               8.18909457                7.86463240               19.04394045                0.00643223               -2.29062804                0.50605152                0.07678312               -0.35198057               15.34477485                0.96100346
               9.16689029                7.79937845               19.09016442                0.31175884               -1.11026631               -0.06415409                0.17301203               -0.30854298                7.77467019                1.67787780
              10.16688925                7.74023173               18.98167095                0.76909162                0.07774569                0.08551577               -0.29586087               -0.00867673                0.02822816                0.57163203
              11.16844520                7.68158752               18.87279569                1.00000000                0.15559549                0.25207604               -0.76930646               -0.01475805                0.01735162               -0.62753118
               1.36623145                9.33564547               19.08480847                1.00000000               -0.01213774               -0.07417630                0.22943413               -0.02254490               -0.00435553                0.70112162
               2.36611007                9.26054497               18.96315724                0.60132645                0.04210014                0.04655228               -0.14857662                0.00006222                0.07771891               -0.48850697
               3.36707345                9.18506941               18.84311732                0.02656765               -0.80551360                0.16320211               -0.52569439                0.85828624                8.12170562               -1.38954391
               4.34999980                9.12628258               18.88236294                0.00010000               -1.97756165                0.92006007               -0.45321787                1.01612754               16.10732662               -0.34800750
               5.32752222                9.06764478               18.92388889                0.00010000               -2.30574234                1.00885902               -0.29265840                0.63569760               16.16667043               -0.08736489
               6.30388495                9.00534661               18.96672225                0.00010000               -2.45198686                1.02754364               -0.13494227                0.28531185               16.28822070                0.10359928
               7.27848248                8.94037773               19.01309983                0.00010000               -2.66332360                1.00255946                0.01724864               -0.10683924               16.62896775                0.29060872
               8.25061848                8.87066109               19.06524086                0.02244734               -2.66709945                0.88106859                0.16561266               -0.64942535               17.20905318                0.55717853
               9.22514049                8.79852763               19.12580715                0.34239974               -1.28845335               -0.08809200                0.31259766               -0.72550882                8.86436342                1.12399126
              10.22484941                8.74086842               19.01315171                0.81073143                0.04824668                0.04586590               -0.17272744               -0.01959369                0.08843254                0.47836921
              11.22610542                8.68393134               18.89799552                0.97885386                0.12560120                0.21668095               -0.67288261               -0.01473419               -0.02669424               -0.55166302
               1.44050578               10.33510063               19.05659642                1.00000000                0.03008255               -0.05448404                0.09692810                0.04073130                0.38321121                0.57945458
               2.44080660               10.26123361               18.93193160                0.83420196                0.08398178                0.06886408               -0.28745586                0.06009980                0.72403960               -0.41198742
               3.44218541               10.18690956               18.81405865                0.51503253               -1.31027822                0.18401453               -0.65900852                1.34774688                9.58796761               -0.88470599
               4.41460104               10.13796462               18.86669888                0.36348699               -2.52464000                1.16820376               -0.47848111                1.02568693               17.78163460               -0.12144423
               5.39169261               10.07822081               18.91559415                0.35548353               -2.27064040                1.05760258               -0.31286683                0.31846186               17.55893843               -0.02035616
               6.36918823               10.01599306               18.96606198                0.37473073               -2.32205135                1.06464506               -0.13164826                0.16050334               17.71437169                0.08537991
               7.34525159                9.95082432               19.02025432                0.41897980               -2.56160331                1.04465868                0.04780686               -0.01005366               18.10677825                0.18856950
               8.31795617                9.88225377               19.08089740                0.51831146               -3.15394036                1.15926853                0.22737783               -0.92661680               18.84793023                0.34368220
               9.28217278                9.79761661               19.15260647                0.68716990               -1.84312517               -0.09110222                0.40691878               -1.35200747               10.15152221                0.69501950
              10.28109366                9.74114904               19.04289147                0.93563106               -0.00740535                0.02806256               -0.06444437                0.03965179                0.68288507                0.40236479
              11.28202467                9.68592114               18.92506084                0.98704884                0.09310112                0.19898031               -0.57735898                0.06913488                0.28887657               -0.44737446
               0.71034529                0.39262274               20.30887608                1.00000000               -0.35297753               -0.38522046                1.34568336               -0.06834630               -0.74826416                0.78582322
               1.70681551                0.30174679               20.23828940                1.00000000               -0.29245811               -0.30818926                1.08172847               -0.05254390               -0.94871308                0.05296892
               2.70449613                0.21072183               20.16367062                1.00000000               -0.15862307               -0.23284620                0.80055257               -0.03485530               -0.89863839               -0.21204117
               3.70364305                0.12082520               20.09412490                0.62022301                0.30984887               -0.17763693                0.53059694                0.47500653                0.06973006               -0.58604059
               4.71069310                0.04294659               20.03889392                0.70695176                0.45590761               -0.06242515                0.23584295               -0.07394915                0.58673676                0.14210887
               5.71276120               -0.02610185               19.97963809                0.79103575                0.14427307                0.02565245               -0.06180231                0.00015794                0.19522336                0.08323643
               6.71357856               -0.09362599               19.91663824                0.77078498                0.06126977                0.10468202               -0.35255884                0.00876779                0.00565145               -0.05444072
               7.71398660               -0.16186307               19.85355635                0.86623728                0.07169979                0.19661488               -0.65366166                0.03438873               -0.22559236                0.06248915
               8.71501256               -0.23307278               19.78576952                1.00000000                0.18876244                0.29513575               -0.95187041                0.02076446               -0.58464711                0.43326575
               9.71776185               -0.30636207               19.71538371                1.00000000                0.33760230                0.36447130               -1.24352247               -0.04451132               -0.66720350                0.00980751
              10.72176461               -0.37989740               19.64598665                1.00000000                0.40027588                0.44434694               -1.51976780               -0.06427588               -0.62328037               -0.64020365
               0.80053777                1.38877053               20.28160460                1.00000000               -0.32972468               -0.36462695                1.22349061               -0.02935407               -0.09833278                1.06697580
               1.79724053                1.29866490               20.21059643                1.00000000               -0.29647027               -0.28661523                0.95971908               -0.01034716               -0.06075921                0.07888012
               2.79460837                1.20839337               20.14028241                0.79072543               -0.24798945               -0.21244849                0.69731538                0.03340253                0.17938366               -0.59625480
               3.79228074                1.11904883               20.07403661                0.15026658               -0.55956179               -0.17168182                0.43471197                0.68176997                1.65133580               -1.05043355
               4.78341713                1.04232234               20.03306848                0.31502421               -0.56158327                0.06140024                0.18502705               -0.09142280                2.32216327                0.94594983
               5.78104907                0.97415468               19.98026232                0.41061808               -0.09351404                0.08900664               -0.09029164                0.18537692                1.50395557                0.36830819
               6.78154685                0.90742083               19.92291849                0.30257640                0.15024026                0.04969557               -0.36359415                0.22617956                1.38699275               -0.38768542
               7.78405388                0.84010308               19.86788887                0.45390353                0.29614273                0.19265393               -0.62575141                0.27387703                1.36672889                0.59076779
               8.78746971                0.76987858               19.81044623                1.00000000                0.33375828                0.27826295               -0.88881732                0.12034615                0.69894938                0.62304683
               9.79072904                0.69728264               19.74232598                1.00000000                0.35937338                0.35343194               -1.16300246                0.00086651                0.09738297                0.08706023
              10.79465717                0.62454607               19.67293055                1.00000000                0.39281304                0.42798562               -1.43852298               -0.02067662                0.02976750               -0.75937638
               0.88996948                2.38533020               20.25990512                1.00000000               -0.29837467               -0.33022619                1.11537141               -0.02210990                0.04049684                1.35803635
               1.88698573                2.29601449               20.18336459                1.00000000               -0.25946178               -0.24987974                0.83968438                0.00278855                0.16295002                0.05249240
               2.88478024                2.20647286               20.10916254                0.44928228               -0.18181253               -0.18082715                0.57738913                0.06174392                0.77148289               -1.28388270
               3.88334948                2.11739156               20.04470089                0.00010000               -1.55107245               -0.12933208                0.33660899                0.93076627                4.42546107               -1.94319836
               4.85375880                2.04417459               20.04324378                0.00010000               -1.59896166                0.17502217                0.13288031                1.81544570                4.79725189               -1.25094034
               5.85137025                1.97567829               19.98655794                0.00010000               -0.08025226               -0.06054144               -0.11725606                1.56266285                1.66235378               -0.46094805
               6.85215375                1.90736792               19.92254276                0.00010000                0.28180680               -0.15750254               -0.36823325                1.33712296                3.00110240                0.23632412
               7.85700639                1.84199001               19.89281970                0.00010000                0.40430858               -0.11121999               -0.60250195                0.92215234                3.45578862                0.73506172
               8.86023992                1.77249248               19.83901032                0.47892510                0.30526491                0.27107938               -0.80865571                0.21069524                1.52746090                1.22026311
               9.86311168                1.70070657               19.77090723                1.00000000                0.32921460                0.33972189               -1.07697127                0.03343668                0.55203177                0.53849617
              10.86682421                1.62866232               19.69758961                1.00000000                0.37125300                0.40058387               -1.36945079               -0.01070972                0.28968879               -0.76739425
               0.97872701                3.38216601               20.23843706                1.00000000               -0.25733694               -0.30592842                1.00523581               -0.01637131                0.05227181                1.32842057
               1.97615364                3.29366730               20.15511916                1.00000000               -0.21304174               -0.21892045                0.71688061                0.00578225                0.06459514               -0.03900385
               2.97446617                3.20477683               20.07197567                0.26133452               -0.14796521               -0.13970349                0.42727704                0.05964001                0.98379804               -1.51175323
               3.97319433                3.11646219               20.00704275                0.00010000               -0.65134252               -0.06943246                0.15623167                1.00056284                4.47366676               -2.46703712
               4.96143932                3.04582278               19.99338238                0.00010000               -1.20426645                0.08516112                0.00451796                2.60848621                6.53578030               -3.00182425
               5.94910900                2.97294385               19.97057832                0.00010000               -0.97308679               -0.05414028               -0.14546295                2.21584705                5.71921032               -1.22231085
               6.94197758                2.90427078               19.94102798                0.00010000               -0.58683209               -0.12876549               -0.31162691                1.90428165                5.28363336                0.70672036
               7.93737236                2.83787868               19.91005395                0.00010000               -0.45052650               -0.17605941               -0.48854480                1.43501459                5.01866772                0.82919091
               8.93296705                2.77530017               19.87566031                0.25198073               -0.10722095                0.24547510               -0.69382018                0.53775191                3.10529022                2.27427688
               9.93522794                2.70407708               19.80694236                1.00000000                0.27822157                0.31035885               -0.95827022                0.03161705                0.69983090                0.86935601
              10.93853149                2.63255775               19.72438504                1.00000000                0.33035435                0.38652985               -1.28994677               -0.01826057                0.01013746               -0.54016324
               1.06663947                4.37921163               20.21613423                1.00000000               -0.21489078               -0.28052337                0.88609962               -0.02004996                0.06233363                1.22178795
               2.06449056                4.29163608               20.12603998                0.94464740               -0.17306549               -0.18163036                0.58638776                0.00223445                0.07753185               -0.12416109
               3.06317816                4.20367879               20.03619829                0.15459763               -0.10878881               -0.08317170                0.29650263                0.03844262                1.13813811               -1.38508605
               4.06231479                4.11600291               19.96731372                0.00010000               -0.68656523                0.08464325               -0.01484085                0.83461670                5.70621490               -1.87141540
               5.04944686                4.04587782               19.96880791                0.00010000               -1.25377966                0.10692094               -0.11586495                1.53345461                8.76467499               -1.28488610
               6.03723919                3.97459548               19.96188915                0.00010000               -1.20711532                0.21334187               -0.17699767                1.43549883                8.06814353               -0.57674440
               7.02530455                3.90479261               19.95030010                0.00010000               -1.12809537                0.16451855               -0.26595743                1.29469481                7.70319390                0.35795858
               8.01467729                3.83846883               19.93686927                0.00010000               -1.02539938                0.14214559               -0.38086350                1.22549836                7.67070811                1.36165746
               9.00479656                3.77740198               19.92538783                0.23490950               -0.40954220                0.16794691               -0.51946194                0.54536493                4.15492481                2.64457789
              10.00648644                3.70691375               19.84224331                0.95133939                0.23505511                0.25895153               -0.84244787                0.01694284                0.30057856                0.81340107
              11.00949766                3.63639291               19.75350076                1.00000000                0.30112221                0.37300819               -1.19391753               -0.01757338                0.02646641               -0.41746796
               1.15347712                5.37655554               20.19249989                1.00000000               -0.17459523               -0.24445949                0.75743789               -0.02413011                0.11461970                1.08509724
               2.15173117                5.29003470               20.09604432                0.76475504               -0.13044649               -0.13650427                0.43869077               -0.00319724                0.21122001               -0.28982715
               3.15086819                5.20311339               20.00146956                0.10139019               -0.20217610               -0.02971630                0.13154244                0.12056737                2.01993597               -1.53440305
               4.14768764                5.11815505               19.94118394                0.00010000               -0.86761724                0.34638048               -0.34558335                0.60172355                7.41015197               -0.39019544
               5.13351584                5.04796120               19.95364220                0.00010000               -1.43917287                0.30432420               -0.23184788                1.21165876               10.61511555               -0.51886835
               6.11890419                4.97721069               19.95899601                0.00010000               -1.47588528                0.34417458               -0.20138865                1.00261631               10.07556034               -0.10317276
               7.10399814                4.90756115               19.96200699                0.00010000               -1.48156159                0.33996193               -0.21821206                0.89494182                9.89299551                0.56592911
               8.08927295                4.84072160               19.96486657                0.00010000               -1.42843529                0.25605217               -0.26763265                0.90505677                9.93782678                1.39335715
               9.07542943                4.77865911               19.96974466                0.24272359               -0.63485420                0.09500397               -0.33785574                0.41629431                5.12792869                2.24131845
              10.07657587                4.70925611               19.87715792                0.84480997                0.18961267                0.21449821               -0.70406714                0.00949389                0.16294322                0.78431439
              11.07922168                4.64001792               19.78259325                1.00000000                0.26458151                0.34963121               -1.09416420               -0.01840438                0.07093138               -0.45338071
               1.23919856                6.37432244               20.16740403                1.00000000               -0.13297957               -0.20037640                0.62237263               -0.02463529                0.07010910                0.95257097
               2.23786877                6.28890599               20.06360406                0.64910580               -0.08647062               -0.08949750                0.28744198               -0.00348917                0.21619294               -0.47127765
               3.23746915                6.20308447               19.96267933                0.07520812               -0.41836585                0.02175228               -0.03551123                0.30616672                3.84536871               -1.86770956
               4.22950145                6.12293052               19.93146194                0.00010000               -1.14223784                0.49399283               -0.55992884                0.63257203                9.57269258                0.16611329
               5.21462440                6.05196430               19.94445772                0.00010000               -1.59049405                0.48845246               -0.31276927                0.97369938               11.81537954               -0.10382936
               6.19769157                5.98147897               19.95979494                0.00010000               -1.74659585                0.52029651               -0.20824817                0.76887399               11.86506121                0.17065905
               7.17969248                5.91159185               19.97545424                0.00010000               -1.80055539                0.47423940               -0.16380504                0.57763997               11.87075582                0.68277903
               8.16168046                5.84358987               19.99237112                0.00010000               -1.75522734                0.31190699               -0.15450563                0.53161234               11.98631344                1.33725516
               9.14458793                5.77930206               20.01155034                0.25954237               -0.81814755                0.03745063               -0.16853595                0.21847103                6.10447896                2.05299000
              10.14531751                5.71120371               19.91176487                0.78070448                0.15090204                0.17519755               -0.57579724                0.00440692                0.10228777                0.73348851
              11.14760597                5.64338554               19.81075748                1.00000000                0.22884604                0.32306825               -0.99357578               -0.01623329                0.04764719               -0.52337789
               1.32381731                7.37254802               20.14104762                1.00000000               -0.09179562               -0.15501101                0.48634264               -0.02372647                0.03078171                0.86396261
               2.32289936                7.28824475               20.02993503                0.58803381               -0.04251612               -0.04330783                0.13916244               -0.00227774                0.15493011               -0.55121317
               3.32296699                7.20354844               19.92126250                0.06275512               -0.57200536                0.07007890               -0.20267910                0.48343463                5.47875294               -2.05918810
               4.31145925                7.12803491               19.91662763                0.00010000               -1.42628063                0.52954819               -0.53809532                0.88249310               11.94592544               -0.33111689
               5.29444138                7.05773025               19.93737481                0.00010000               -1.84025669                0.67235373               -0.33327766                0.90588844               13.33004201               -0.01973464
               6.27465412                6.98761662               19.96213665                0.00010000               -2.05006687                0.72726404               -0.19374574                0.59391187               13.56117328                0.26293313
               7.25344004                6.91704594               19.98933485                0.00010000               -2.12295657                0.64057689               -0.10434620                0.26632537               13.73135374                0.67959550
               8.23219499                6.84695974               20.01919987                0.00010000               -2.06275158                0.38204799               -0.04547843                0.08988259               13.94831943                1.24115240
               9.21218501                6.77940812               20.05217913                0.28204300               -0.98072256               -0.01430630               -0.00951494               -0.03254500                7.06685156                1.94153946
              10.21258053                6.71276006               19.94554112                0.74986214                0.11741779                0.13434877               -0.44919796               -0.00096707                0.05996217                0.65971380
              11.21453337                6.64647928               19.83821673                1.00000000                0.19528315                0.29430600               -0.89412649               -0.01498835                0.03304866               -0.58420420
               1.40733058                8.37122222               20.11410175                1.00000000               -0.05077841               -0.11150552                0.35180095               -0.02290981                0.01238988                0.83330441
               2.40682279                8.28803983               19.99586042                0.57597029                0.00085533                0.00220362               -0.00668587               -0.00082604                0.06530656               -0.57618852
               3.40734768                8.20448604               19.87863808                0.05381130               -0.69266435                0.11699758               -0.36665371                0.65450693                6.87613213               -2.02637613
               4.39296950                8.13352149               19.89661858                0.00010000               -1.70936136                0.62771584               -0.49544310                1.10713654               14.33810069               -0.50378499
               5.37316045                8.06541137               19.92942706                0.00010000               -2.13576920                0.88655760               -0.31431249                0.85846428               15.09116670               -0.05882131
               6.35025412                7.99602425               19.96431308                0.00010000               -2.37422931                0.93887363               -0.16719843                0.43510969               15.25548243                0.22978036
               7.32567587                7.92440339               20.00236913                0.00010000               -2.45690944                0.87102963               -0.04609876               -0.02081325               15.52708862                0.55458398
               8.30111593                7.85123083               20.04460810                0.00712954               -2.37695825                0.53009048                0.05527867               -0.44099575               15.89628085                1.02431249
               9.27813670                7.77901594               20.09174005                0.30964621               -1.14444609               -0.05799616                0.14032329               -0.35990334                8.05806917                1.76469028
              10.27822701                7.71389069               19.97857004                0.75360647                0.08655348                0.09250634               -0.32537181               -0.00909660                0.03116930                0.61097987
              11.27986777                7.64927166               19.86496839                1.00000000                0.16407632                0.26191691               -0.79626676               -0.01357689                0.01825401               -0.64050133
               1.48972389                9.37031790               20.08705615                1.00000000               -0.01048777               -0.07095606                0.21969335               -0.02232138               -0.00530420                0.70739865
               2.48961901                9.28828882               19.96166637                0.59824867                0.04257934                0.04701949               -0.15012339                0.00025670                0.07749993               -0.50206085
               3.49057548                9.20588839               19.83789687                0.02677701               -0.84711814                0.16098582               -0.51914126                0.87891958                8.34061061               -1.41625799
               4.47267665                9.14058922               19.87778026                0.00010000               -2.07337917                0.96201975               -0.46188770                1.01848694               16.61280213               -0.26494301
               5.44910790                9.07546140               19.92091300                0.00010000               -2.41561767                1.05429036               -0.30187823                0.62401612               16.74076583               -0.04527425
               6.42436430                9.00639409               19.96531853                0.00010000               -2.56453469                1.07587214               -0.14607211                0.25447393               16.87828661                0.13172907
               7.39781720                8.93446653               20.01319678                0.00010000               -2.78008897                1.05237634                0.00118580               -0.15876456               17.23376214                0.31724979
               8.36876252                8.85756155               20.06678190                0.02394699               -2.77450584                0.92867252                0.14129905               -0.72752700               17.83031060                0.59450587
               9.34232708                8.77824820               20.12874832                0.33996615               -1.33098186               -0.07709503                0.27374993               -0.78817100                9.19058441                1.18103369
              10.34214288                8.71461019               20.01125243                0.79197658                0.05863999                0.05566124               -0.20817037               -0.02120822                0.09613345                0.50763292
              11.34349988                8.65171762               19.89110555                0.97990709                0.13570033                0.22727036               -0.70511507               -0.01348227               -0.02615530               -0.56837432
               1.57094232               10.36980310               20.05752312                1.00000000                0.03151181               -0.05148047                0.08786276                0.03955538                0.38686579                0.58615212
               2.57125744               10.28898022               19.92905770                0.83315376                0.08416719                0.06914064               -0.28800881                0.05897559                0.73440500               -0.42233678
               3.57262567               10.20770576               19.80751087                0.51465386               -1.37456037                0.18173706               -0.65142505                1.39410152                9.87650270               -0.90053312
               4.54376623               10.15276188               19.86190408                0.36398378               -2.63948772                1.21726554               -0.48041509                1.04852918               18.36957308               -0.07326790
               5.51983591               10.08649718               19.91242603                0.35569438               -2.37138814                1.10357812               -0.32075416                0.31179242               18.17256075               -0.00260623
               6.49633847               10.01754170               19.96468845                0.37455559               -2.42513945                1.11476064               -0.14365397                0.14510377               18.35537001                0.09569957
               7.47133312                9.94545091               20.02064647                0.41841269               -2.67773730                1.09843841                0.02956259               -0.03527883               18.76519645                0.19815934
               8.44278372                9.86980428               20.08304139                0.51950867               -3.30042423                1.22427338                0.20033985               -0.99672324               19.52297695                0.35965120
               9.40532464                9.77747404               20.15646084                0.68622494               -1.92251505               -0.07741591                0.36211093               -1.44026308               10.52697980                0.73047184
              10.40433342                9.71500391               20.04204325                0.92490045                0.00293172                0.03937208               -0.10617145                0.03620558                0.71788392                0.42469156
              11.40538327                9.65381707               19.91909446                0.98698901                0.10498492                0.20994471               -0.61574716                0.06965414                0.30332401               -0.46486257
               0.77465655                0.42846457               21.32228257                1.00000000               -0.35233221               -0.38296267                1.33680726               -0.06722926               -0.76891086                0.80454283
               1.77113323                0.33058932               21.24907189                1.00000000               -0.29347864               -0.30523912                1.07499741               -0.05321645               -0.97776322                0.05593254
               2.76878698                0.23249525               21.17166556                1.00000000               -0.16070582               -0.22952407                0.79822102               -0.03922175               -0.92857552               -0.21005216
               3.76791911                0.13542621               21.09947149                0.62178186                0.31172036               -0.18143083                0.53557786                0.48057259                0.02893906               -0.60708636
               4.77502138                0.05047874               21.04123959                0.70988587                0.45706009               -0.05845243                0.23314183               -0.07259794                0.52844287                0.15287741
               5.77706031               -0.02572454               20.97903418                0.79395816                0.14353660                0.02701511               -0.05881901                0.00074993                0.14429114                0.08911991
               6.77789211               -0.10041645               20.91314879                0.77263644                0.06601486                0.10417411               -0.34523406                0.00907909               -0.04685313               -0.05819559
               7.77838061               -0.17568121               20.84707852                0.86783186                0.07884604                0.19492811               -0.64211635                0.03098949               -0.28166308                0.06853386
               8.77946904               -0.25367612               20.77632892                1.00000000                0.19097514                0.29061056               -0.93669533                0.01714198               -0.63592035                0.44462661
               9.78220011               -0.33361532               20.70304369                1.00000000                0.33402870                0.35990901               -1.22506421               -0.04339401               -0.70711058                0.00873007
              10.78614961               -0.41380179               20.63090050                1.00000000                0.39494979                0.43964504               -1.49825373               -0.06156660               -0.65505431               -0.67017819
               0.87185951                1.42463495               21.29378620                1.00000000               -0.32737828               -0.36318277                1.21390470               -0.02771377               -0.10232733                1.09222023
               1.86858572                1.32753693               21.22016143                1.00000000               -0.29415947               -0.28437831                0.95343313               -0.01009764               -0.06613541                0.08197149
               2.86597632                1.23020001               21.14721870                0.81252584               -0.24263157               -0.20853632                0.68714595                0.02469783                0.16904694               -0.59497718
               3.86373309                1.13361190               21.07825889                0.16053234               -0.55527703               -0.18079851                0.41050904                0.68947735                1.65299753               -1.05311687
               4.85487078                1.04989421               21.03486039                0.32533505               -0.56088433                0.06785057                0.17295650               -0.08695775                2.33128536                0.95315978
               5.85251541                0.97454561               20.97933172                0.42234046               -0.09547672                0.09028454               -0.09587993                0.17585961                1.50087658                0.37518797
               6.85296124                0.90062529               20.91928192                0.31335309                0.14024662                0.05616464               -0.36369064                0.21865703                1.39103999               -0.38710602
               7.85532034                0.82626807               20.86165099                0.46229569                0.28231336                0.19167282               -0.62207245                0.25392911                1.37671385                0.59382662
               8.85860751                0.74922999               20.80159484                1.00000000                0.32543348                0.27531829               -0.88182682                0.11164517                0.70367028                0.64299371
               9.86182901                0.66998377               20.73074854                1.00000000                0.35564528                0.34967130               -1.15305752                0.00117361                0.09617116                0.08906883
              10.86572041                0.59059466               20.65861434                1.00000000                0.38914072                0.42552321               -1.42549696               -0.01856289                0.02830446               -0.79487704
               0.96829830                2.42120092               21.27100069                1.00000000               -0.29320922               -0.32982500                1.10448896               -0.02129875                0.03982873                1.38930817
               1.96536621                2.32490176               21.19171887                1.00000000               -0.25461680               -0.24857924                0.83251245                0.00183449                0.17120947                0.05650477
               2.96320597                2.22832452               21.11499451                0.45924581               -0.16758787               -0.17583925                0.58118221                0.03764223                0.79309106               -1.30431082
               3.96201445                2.13181024               21.04812116                0.00010000               -1.54287264               -0.16194761                0.32329678                0.94806273                4.45387999               -1.96031755
               4.93234851                2.05183575               21.04443281                0.00010000               -1.60840129                0.17310570                0.10903292                1.80617834                4.86375042               -1.27077871
               5.92984643                1.97608115               20.98532957                0.00010000               -0.09028582               -0.06459851               -0.12866382                1.52169368                1.71463689               -0.45069473
               6.93054280                1.90070684               20.91885077                0.00010000                0.25040336               -0.15576061               -0.36964396                1.28943707                3.05677003                0.27157833
               7.93485449                1.82815224               20.88676572                0.00010000                0.37217199               -0.11075261               -0.60824215                0.88356564                3.53692108                0.78325466
               8.93798624                1.75183025               20.83091683                0.48495373                0.30022081                0.26826297               -0.81033017                0.19269573                1.59347085                1.26636182
               9.94085891                1.67337811               20.76014749                1.00000000                0.32851679                0.33601157               -1.07558238                0.02885692                0.57486574                0.55958317
              10.94455657                1.59470867               20.68392267                1.00000000                0.36976624                0.40295236               -1.36474840               -0.01017259                0.30074866               -0.80367670
               1.06403185                3.41803845               21.24842884                1.00000000               -0.25330461               -0.30517407                0.99372631               -0.01741274                0.05630309                1.35429378
               2.06149881                3.32256535               21.16226021                1.00000000               -0.21055853               -0.21720780                0.71107708                0.00269333                0.06775843               -0.03891297
               3.05982068                3.22668322               21.07625132                0.26841475               -0.11578431               -0.13463693                0.42839965                0.00325576                0.99938919               -1.54321569
               4.05918312                3.13037295               21.00869963                0.00010000               -0.65486277               -0.08485980                0.16464949                0.97821078                4.56809080               -2.55675833
               5.04672343                3.05335633               20.99345636                0.00010000               -1.25524675                0.07154406                0.01139238                2.60045109                6.69247543               -3.05369509
               6.03407819                2.97325364               20.96910013                0.00010000               -1.00222688               -0.06276580               -0.14892251                2.15766645                5.87269289               -1.20691231
               7.02667889                2.89751008               20.93788616                0.00010000               -0.61049703               -0.13805563               -0.31698000                1.84035226                5.42966658                0.77075810
               8.02186825                2.82405302               20.90513856                0.00010000               -0.47216644               -0.17826383               -0.49517477                1.39119510                5.14981631                0.92367609
               9.01723556                2.75459525               20.86867659                0.25141900               -0.11702634                0.23571747               -0.70344507                0.50695443                3.20022428                2.36677568
              10.01952772                2.67670400               20.79731682                1.00000000                0.28101337                0.30814455               -0.96712950                0.02273668                0.73387514                0.90507560
              11.02285583                2.59865371               20.71145961                1.00000000                0.33281097                0.39291842               -1.29535235               -0.01701865                0.01143743               -0.56349918
               1.15889625                4.41509744               21.22493690                1.00000000               -0.21209480               -0.27851595                0.87455451               -0.02120804                0.06983677                1.23792813
               2.15677530                4.32055760               21.13187498                0.93413737               -0.17163819               -0.17910417                0.58063612                0.00014683                0.09018522               -0.13743092
               3.15546348                4.22563179               21.03916375                0.16135537               -0.09348668               -0.07963033                0.29655369               -0.00796155                1.13994909               -1.42123560
               4.15490557                4.13011304               20.96709383                0.00010000               -0.69933218                0.10745831               -0.02518173                0.78590772                5.82523892               -2.05193548
               5.14147684                4.05326663               20.96769789                0.00010000               -1.30297801                0.09570852               -0.10667411                1.52093382                9.01028224               -1.33291857
               6.12884601                3.97482583               20.96011337                0.00010000               -1.24631866                0.20894079               -0.17761763                1.39122443                8.31845243               -0.56011488
               7.11655047                3.89794573               20.94761366                0.00010000               -1.16263888                0.15952374               -0.27172922                1.24413684                7.93702768                0.41972795
               8.10559323                3.82458697               20.93301107                0.00010000               -1.05380631                0.13765307               -0.39185435                1.16954704                7.88888587                1.45524376
               9.09547434                3.75654460               20.92009273                0.23267627               -0.41690225                0.15634354               -0.54043886                0.51203652                4.28220747                2.77043048
              10.09725518                3.67954100               20.83370992                0.93186023                0.24212246                0.26127963               -0.86328982                0.01225582                0.32567657                0.86026735
              11.10031679                3.60256704               20.74147209                1.00000000                0.30616068                0.38248110               -1.21026741               -0.01730474                0.03786933               -0.42991839
               1.25268737                5.41246813               21.20001490                1.00000000               -0.17199689               -0.24144666                0.74566082               -0.02463102                0.11731331                1.09245977
               2.25096740                5.31898326               21.10040391                0.75686205               -0.12906756               -0.13392265                0.43305979               -0.00426729                0.21995335               -0.31311656
               3.25010601                5.22509062               21.00279295                0.10724193               -0.18504825               -0.02770814                0.13262067                0.08715068                1.95015263               -1.58730568
               4.24726643                5.13252211               20.93778370                0.00010000               -0.88383525                0.36059888               -0.33317131                0.56729695                7.53966780               -0.57118166
               5.23242931                5.05527050               20.95135900                0.00010000               -1.50214273                0.30542938               -0.22666235                1.19011828               11.01385636               -0.55159200
               6.21722358                4.97743246               20.95697530                0.00010000               -1.53144072                0.34876332               -0.20260380                0.96301592               10.42387017               -0.07621567
               7.20180049                4.90070055               20.95979082                0.00010000               -1.52816283                0.34257679               -0.22566667                0.84261066               10.21556267                0.63022588
               8.18666032                4.82680608               20.96212376                0.00010000               -1.46391163                0.25491822               -0.28228375                0.84637915               10.24724936                1.48837555
               9.17252226                4.75772212               20.96624523                0.24019622               -0.64549652                0.08975856               -0.36361789                0.38382764                5.29640342                2.36472371
              10.17375039                4.68192959               20.86998672                0.82738878                0.19676914                0.21975053               -0.72944541                0.00823191                0.17636353                0.83913227
              11.17645765                4.60630333               20.77153282                1.00000000                0.27072553                0.36124719               -1.11618645               -0.01874366                0.07264138               -0.46080502
               1.34537336                6.41026850               21.17356850                1.00000000               -0.13058920               -0.19686922                0.61052920               -0.02471463                0.06987468                0.95580221
               2.34406746                6.31787915               21.06645461                0.64318267               -0.08528531               -0.08727917                0.28246199               -0.00410859                0.22195715               -0.49444313
               3.34366765                6.22507762               20.96233332                0.08019630               -0.39979192                0.02297837               -0.03392956                0.27412104                3.75088574               -1.92084350
               4.33607163                6.13732502               20.92579937                0.00010000               -1.16493945                0.50364664               -0.56516635                0.58466479                9.77104492                0.15531877
               5.32036886                6.05937522               20.94132006                0.00010000               -1.66976778                0.50420376               -0.31313402                0.94444416               12.33987162               -0.09193721
               6.30267627                5.98180110               20.95769235                0.00010000               -1.81699008                0.53569171               -0.21217527                0.72100110               12.30036807                0.21250198
               7.28402906                5.90479726               20.97377057                0.00010000               -1.85885113                0.48502906               -0.17368886                0.51685448               12.27489636                0.74921546
               8.26549925                5.82968533               20.99074455                0.00010000               -1.80008408                0.31600216               -0.17223797                0.46338530               12.37822530                1.42744373
               9.24802738                5.75833977               21.00973544                0.25720940               -0.83303191                0.03648349               -0.19624683                0.18174344                6.30832747                2.16363683
              10.24883861                5.68393601               20.90588293                0.76504831                0.15835353                0.18088106               -0.60163175                0.00477427                0.10913887                0.78206496
              11.25119445                5.60979198               20.80070969                1.00000000                0.23558390                0.33457498               -1.01584824               -0.01618857                0.04988217               -0.52920677
               1.43697178                7.40853074               21.14585391                1.00000000               -0.08956785               -0.15133955                0.47480278               -0.02366735                0.03039813                0.86711424
               2.43607611                7.31723768               21.03130642                0.58362475               -0.04146093               -0.04158465                0.13485763               -0.00244602                0.15722823               -0.57126607
               3.43614257                7.22555019               20.91924927                0.06658163               -0.57069871                0.07030024               -0.20032513                0.46057474                5.47705603               -2.10939039
               4.42466213                7.14259504               20.91110069                0.00010000               -1.46502288                0.55050311               -0.55908415                0.82798273               12.23184795               -0.20870198
               5.40684211                7.06535457               20.93399655                0.00010000               -1.92202899                0.69768958               -0.33957067                0.86769563               13.87318854                0.04039847
               6.38622155                6.98814629               20.96016190                0.00010000               -2.12943773                0.75274086               -0.20077513                0.53764025               14.05782309                0.31587518
               7.36425335                6.91040113               20.98823195                0.00010000               -2.19180140                0.66028084               -0.11702343                0.19501812               14.20543314                0.74261157
               8.34238552                6.83312612               21.01864788                0.00010000               -2.11734494                0.39256442               -0.06640755                0.01003360               14.41476449                1.32148866
               9.32190646                6.75845179               21.05193821                0.27995691               -0.99959336               -0.01183539               -0.04055957               -0.07582733                7.30607654                2.04094373
              10.32239366                6.68554721               20.94091822                0.73500871                0.12577317                0.14020019               -0.47669338               -0.00056375                0.06359564                0.70480564
              11.32442192                6.61299483               20.82915949                1.00000000                0.20282616                0.30483498               -0.91759749               -0.01428261                0.03433101               -0.59116114
               1.52748614                8.40724171               21.11756573                1.00000000               -0.04870339               -0.10793344                0.34074451               -0.02276882                0.01199474                0.83820570
               2.52699910                8.31704746               20.99577804                0.57283696                0.00178224                0.00343952               -0.01015520               -0.00074190                0.06425958               -0.59338247
               3.52752178                8.22648363               20.87499194                0.05613014               -0.70861046                0.11606374               -0.36307230                0.64584135                6.98210937               -2.06801303
               4.51282689                8.14833508               20.89156450                0.00010000               -1.76751269                0.65515871               -0.50938900                1.07114778               14.72908776               -0.37336103
               5.49217153                8.07332901               20.92623132                0.00010000               -2.22221891                0.91928785               -0.32240232                0.82390013               15.64194165                0.01312239
               6.46838252                7.99685592               20.96259159                0.00010000               -2.46109677                0.97297633               -0.17674600                0.38096133               15.79309511                0.27900306
               7.44294959                7.91800288               21.00183520                0.00010000               -2.53666238                0.90221281               -0.06147254               -0.09391508               16.06155236                0.60481488
               8.41764927                7.83753662               21.04504603                0.00800503               -2.44299274                0.54958991                0.03081260               -0.53060995               16.43286957                1.08910934
               9.39408974                7.75810306               21.09297088                0.30759772               -1.16824874               -0.05121362                0.10393461               -0.41107089                8.33428226                1.85084969
              10.39428429                7.68674001               20.97516352                0.73796418                0.09619169                0.10003213               -0.35706827               -0.00965895                0.03446963                0.65070031
              11.39601357                7.61588868               20.85687035                1.00000000                0.17292782                0.27214772               -0.82339199               -0.01242467                0.01915505               -0.65195698
               1.61690492                9.40637208               21.08920234                1.00000000               -0.00855701               -0.06759829                0.20914238               -0.02217084               -0.00619582                0.71364186
               2.61681935                9.31730647               20.96015478                0.59547558                0.04334225                0.04783839               -0.15268740                0.00036173                0.07723529               -0.51495824
               3.61777177                9.22787146               20.83273450                0.02691801               -0.87898241                0.15936329               -0.51397364                0.88695255                8.54887164               -1.44145081
               4.59923971                9.15569822               20.87312519                0.00010000               -2.14862484                0.99582743               -0.46636597                1.00596577               17.10162682               -0.17209192
               5.57479927                9.08374033               20.91785133                0.00010000               -2.50363994                1.09068103               -0.30917409                0.60477659               17.30344031               -0.00099809
               6.54916691                9.00760582               20.96380081                0.00010000               -2.65524607                1.11556425               -0.15745617                0.21988691               17.45568380                0.16024090
               7.52169435                8.92844539               21.01312355                0.00010000               -2.87468797                1.09426209               -0.01665029               -0.21174567               17.82434117                0.34436641
               8.49167315                8.84411792               21.06806684                0.02575482               -2.86063524                0.96955956                0.11453629               -0.80329076               18.43411470                0.63329945
               9.46448165                8.75742751               21.13128215                0.33767080               -1.36291476               -0.06510299                0.23101621               -0.84746444                9.50736461                1.23722829
              10.46441485                8.68754786               21.00898830                0.77310867                0.06972163                0.06606052               -0.24576114               -0.02281521                0.10414392                0.53657380
              11.46587608                8.61843778               20.88389321                0.98083384                0.14612261                0.23786888               -0.73729599               -0.01224922               -0.02535099               -0.58444138
               1.70517393               10.40588975               21.05835367                1.00000000                0.03330239               -0.04823277                0.07772666                0.03834795                0.39054275                0.59273282
               2.70550695               10.31800422               20.92617142                0.83230102                0.08475785                0.06977521               -0.28985637                0.05781708                0.74454625               -0.43215733
               3.70686908               10.22967089               20.80103015                0.51428710               -1.42148064                0.17994329               -0.64541863                1.42210182               10.15624616               -0.91534121
               4.67707734               10.16825163               20.85709058                0.36445107               -2.72548122                1.25534095               -0.48169386                1.05735017               18.94145848               -0.01954730
               5.65235946               10.09514263               20.90917906                0.35590015               -2.45010726                1.14023001               -0.32813573                0.30179757               18.77165359                0.01612532
               6.62807519               10.01916720               20.96318890                0.37437874               -2.50784416                1.15613857               -0.15663814                0.12810333               18.98178478                0.10591800
               7.60220258                9.93988812               21.02084557                0.41781666               -2.77369327                1.14427336                0.00929708               -0.06114696               19.40796251                0.20763246
               8.57260133                9.85692781               21.08490419                0.52091264               -3.42460337                1.28098920                0.17133655               -1.06153811               20.17773074                0.37635469
               9.53371051                9.75680100               21.15984869                0.68538321               -1.98918044               -0.06265144                0.31339759               -1.52044309               10.89056030                0.76531147
              10.53281772                9.68806122               21.04076804                0.91414615                0.01391139                0.05133640               -0.14997933                0.03253989                0.75268146                0.44665017
              11.53398874                9.62064606               20.91274590                0.98692522                0.11710178                0.22082800               -0.65380201                0.06974996                0.31786498               -0.48208784
               0.84138844                0.46570634               22.33561223                1.00000000               -0.35111828               -0.38095159                1.32951119               -0.06676404               -0.78714030                0.82067835
               1.83787726                0.36068636               22.25978935                1.00000000               -0.29317143               -0.30290196                1.06848475               -0.05378533               -1.00228500                0.06074624
               2.83552501                0.25541451               22.17963504                1.00000000               -0.16147271               -0.22496314                0.79360206               -0.04220126               -0.95123237               -0.20993743
               3.83464780                0.15110867               22.10483646                0.62361842                0.30871303               -0.17718499                0.53169587                0.47252176               -0.00833304               -0.63499003
               4.84169927                0.05876255               22.04355675                0.71255643                0.45450130               -0.05702354                0.22977219               -0.07408716                0.46620653                0.16697898
               5.84373783               -0.02491454               21.97846171                0.79642199                0.14489430                0.02775885               -0.05621946               -0.00021117                0.09392280                0.09509018
               6.84459716               -0.10705616               21.90973356                0.77406457                0.07176865                0.10328910               -0.33823587                0.00898317               -0.09880240               -0.06151675
               7.84517320               -0.18963733               21.84071402                0.86901447                0.08659103                0.19297429               -0.63131023                0.02740651               -0.33697061                0.07468823
               8.84632898               -0.27471209               21.76703561                1.00000000                0.19374256                0.28626350               -0.92267210                0.01366727               -0.68653455                0.45621038
               9.84904805               -0.36159715               21.69088243                1.00000000                0.33104624                0.35573815               -1.20800960               -0.04233665               -0.74646687                0.00792075
              10.85294990               -0.44872864               21.61602158                1.00000000                0.39018498                0.43550069               -1.47856618               -0.05897447               -0.68627055               -0.69929545
               0.94574078                1.46189682               22.30588269                1.00000000               -0.32554579               -0.36163091                1.20618476               -0.02688554               -0.10573679                1.11472806
               1.94248532                1.35765734               22.22966509                1.00000000               -0.29244660               -0.28202819                0.94690406               -0.00965492               -0.07490148                0.08669304
               2.93989184                1.25316488               22.15402533                0.82708692               -0.23931574               -0.20302448                0.67711848                0.01971233                0.14886297               -0.58786632
               3.93769900                1.14933682               22.08224679                0.16992085               -0.54609193               -0.16821004                0.39684543                0.66842034                1.64884486               -1.05622439
               4.92897001                1.05819231               22.03652761                0.33475277               -0.55269653                0.07002512                0.16213657               -0.09238235                2.34569064                0.96432162
               5.92664507                0.97536305               21.97834472                0.43280222               -0.09608108                0.09052600               -0.10065089                0.16458096                1.50042033                0.38326414
               6.92704838                0.89397673               21.91564467                0.32363572                0.13150781                0.06257021               -0.36358596                0.20926018                1.39594700               -0.38285502
               7.92927523                0.81229242               21.85544743                0.47001231                0.26985901                0.19024303               -0.61877834                0.23396826                1.38673083                0.59631930
               8.93244556                0.72815055               21.79280970                1.00000000                0.31788678                0.27250292               -0.87556531                0.10332035                0.70831533                0.66296931
               9.93563296                0.64196023               21.71926483                1.00000000                0.35230422                0.34635491               -1.14427873                0.00154596                0.09479643                0.09137193
              10.93949165                0.55562637               21.64442061                1.00000000                0.38586841                0.42360787               -1.41405664               -0.01644076                0.02678164               -0.82941910
               1.04932969                2.45847372               22.28199490                1.00000000               -0.29135867               -0.32905755                1.09548538               -0.02031404                0.03906616                1.41829146
               2.04641610                2.35504580               22.20001484                1.00000000               -0.25449553               -0.24622037                0.82695836                0.00406531                0.17832247                0.06152283
               3.04423978                2.25135402               22.12078618                0.46874449               -0.17136617               -0.17108040                0.57463455                0.04106817                0.79570304               -1.31462726
               4.04298878                2.14774447               22.05116682                0.00010000               -1.52071908               -0.14912381                0.29606445                0.92305701                4.46627038               -1.95452176
               5.01382540                2.06016305               22.04542444                0.00010000               -1.58718734                0.16457422                0.09300452                1.75349139                4.93128523               -1.27563528
               6.01124503                1.97689598               21.98398466                0.00010000               -0.09862006               -0.06706269               -0.13856705                1.47600864                1.77064425               -0.43129115
               7.01185300                1.89419524               21.91514988                0.00010000                0.22168571               -0.15268382               -0.37196126                1.23778274                3.10954172                0.31189708
               8.01567875                1.81416753               21.88065485                0.00010000                0.34372886               -0.10927788               -0.61294486                0.84228813                3.61316382                0.83352120
               9.01872757                1.73073797               21.82280371                0.49044699                0.29622047                0.26546168               -0.81246193                0.17550624                1.65938075                1.31240200
              10.02160316                1.64532995               21.74939559                1.00000000                0.32806221                0.33279635               -1.07511033                0.02475012                0.59723184                0.58012624
              11.02528882                1.55974352               21.67029464                1.00000000                0.36856614                0.40559942               -1.36128212               -0.00949253                0.31150657               -0.83981073
               1.15219034                3.45531567               22.25831158                1.00000000               -0.25040152               -0.30447910                0.98374869               -0.01675540                0.05945573                1.37901414
               2.14968632                3.35273294               22.16934070                1.00000000               -0.20879019               -0.21510225                0.70521228                0.00394583                0.07083011               -0.03811917
               3.14801454                3.24974327               22.08054366                0.27572229               -0.11676034               -0.13207825                0.42886535                0.00699604                1.00979783               -1.57023689
               4.14735112                3.14635435               22.01033574                0.00010000               -0.65631061               -0.09321723                0.16345384                0.95185818                4.61540855               -2.57631125
               5.13488832                3.06148380               21.99361023                0.00010000               -1.26090313                0.05768731                0.01049937                2.52375071                6.82258267               -3.08415170
               6.12213305                2.97402180               21.96759987                0.00010000               -1.01779179               -0.06889816               -0.15207809                2.09433522                6.00910493               -1.18038590
               7.11453249                2.89092305               21.93468838                0.00010000               -0.62773969               -0.14563643               -0.32282986                1.76897374                5.56783441                0.83916823
               8.10957826                2.81010686               21.90015045                0.00010000               -0.48696046               -0.17895166               -0.50315680                1.34169575                5.27473279                1.02184632
               9.10479328                2.73345978               21.86159140                0.25059995               -0.12279187                0.22519886               -0.71371713                0.47617894                3.29092003                2.45765339
              10.10712242                2.64861616               21.78759978                1.00000000                0.28406911                0.30596273               -0.97610665                0.01480163                0.76664224                0.93848171
              11.11047466                2.56373835               21.69847800                1.00000000                0.33522368                0.39889095               -1.30069541               -0.01568482                0.01252462               -0.58788743
               1.25416005                4.45238414               22.23362532                1.00000000               -0.20926343               -0.27712671                0.86366955               -0.02128754                0.07678658                1.25341348
               2.25206742                4.35074375               22.13765271                0.92381803               -0.17008825               -0.17701030                0.57504573               -0.00029116                0.10201932               -0.15000204
               3.25075829                4.24871246               22.04212936                0.16737103               -0.08910001               -0.07727796                0.29641939               -0.01933564                1.13512040               -1.45643940
               4.25028542                4.14588013               21.96681009                0.00010000               -0.70626642                0.08357657               -0.01835729                0.75840816                5.91532622               -2.16447595
               5.23663296                4.06131679               21.96667443                0.00010000               -1.32964690                0.09117010               -0.10187643                1.46754717                9.24290545               -1.37784670
               6.22369248                3.97551802               21.95833680                0.00010000               -1.27427759                0.20427993               -0.17872264                1.33912184                8.55222758               -0.53812653
               7.21114741                3.89128251               21.94486552                0.00010000               -1.18582754                0.15428499               -0.27872426                1.18494609                8.15899005                0.48598281
               8.19997593                3.81058850               21.92903219                0.00010000               -1.07027771                0.13243823               -0.40471072                1.10723508                8.09483738                1.55107404
               9.18974185                3.73524195               21.91457905                0.23025691               -0.41776569                0.14255461               -0.56237260                0.47809825                4.40117232                2.89512472
              10.19162062                3.65144920               21.82497751                0.91229131                0.24944363                0.26247964               -0.88262363                0.00862572                0.34991718                0.90712677
              11.19473073                3.56772133               21.72929542                1.00000000                0.31101104                0.39129261               -1.22415783               -0.01740458                0.05067133               -0.44186055
               1.35504536                5.44977314               22.20741311                1.00000000               -0.16931751               -0.23923305                0.73423351               -0.02485156                0.11938546                1.09932743
               2.35335218                5.34919273               22.10470552                0.74890935               -0.12769543               -0.13145662                0.42730724               -0.00498735                0.22831822               -0.33597667
               3.35249145                5.24819771               22.00412197                0.11258312               -0.17186204               -0.02505913                0.13304763                0.06084829                1.88377031               -1.63916812
               4.34991494                5.14802588               21.93452052                0.00010000               -0.89450376                0.34198906               -0.31164534                0.53798372                7.66791625               -0.72742244
               5.33460137                5.06330720               21.94910896                0.00010000               -1.54825838                0.30856089               -0.22237285                1.14887030               11.39771562               -0.57967090
               6.31894977                4.97810740               21.95494393                0.00010000               -1.57202236                0.35121938               -0.20428122                0.91287445               10.75863024               -0.04652236
               7.30316093                4.89400875               21.95749366                0.00010000               -1.55931246                0.34262588               -0.23462922                0.78195129               10.52468157                0.69758520
               8.28776353                4.81275562               21.95922090                0.00010000               -1.48331918                0.25130599               -0.29935807                0.78031484               10.54230196                1.58582993
               9.27349454                4.73631087               21.96247230                0.23752252               -0.64739866                0.08199386               -0.39153080                0.34921842                5.45593469                2.49078139
              10.27481555                4.65386575               21.86256902                0.80990193                0.20438789                0.22321543               -0.75350496                0.00793726                0.18828904                0.89825827
              11.27758230                4.57156421               21.76026952                1.00000000                0.27667493                0.37267002               -1.13539232               -0.01918619                0.07434805               -0.46376550
               1.45482384                6.44759948               22.17961461                1.00000000               -0.12807406               -0.19400347                0.59879010               -0.02474085                0.06943138                0.95864829
               2.45354310                6.34811462               22.06925330                0.63720724               -0.08408661               -0.08483679                0.27707274               -0.00459140                0.22744839               -0.51701910
               3.45314211                6.24821127               21.96200074                0.08462777               -0.38037446                0.02521447               -0.03304393                0.24138381                3.65328616               -1.97288295
               4.44593561                6.15271991               21.92015862                0.00010000               -1.18066290                0.50349320               -0.55348903                0.53553643                9.95566292                0.13897966
               5.42952885                6.06748801               21.93819504                0.00010000               -1.73435959                0.51598803               -0.30964255                0.90325303               12.85238203               -0.07689509
               6.41124842                5.98254241               21.95555144                0.00010000               -1.86953212                0.54637436               -0.21583094                0.66362100               12.72217659                0.25639636
               7.39213821                5.89813503               21.97198046                0.00010000               -1.89841568                0.49123943               -0.18515937                0.44870056               12.66498036                0.81783537
               8.37328010                5.81561462               21.98892636                0.00010000               -1.82610544                0.31662041               -0.19266773                0.38836422               12.75549501                1.51979579
               9.35561610                5.73688183               22.00762540                0.25477629               -0.83770368                0.03403358               -0.22701730                0.14202752                6.50388853                2.27715035
              10.35652603                5.65591351               21.89973224                0.74927070                0.16669967                0.18549202               -0.62864192                0.00542606                0.11491158                0.83557873
              11.35895009                5.57517473               21.79044052                1.00000000                0.24240608                0.34655960               -1.03733984               -0.01612054                0.05183257               -0.52923983
               1.55352025                7.44589307               22.15054368                1.00000000               -0.08716947               -0.14807872                0.46307789               -0.02360666                0.02990684                0.87010229
               2.55264856                7.34749599               22.03263219                0.57922289               -0.04032073               -0.03953983                0.13001603               -0.00261965                0.15915283               -0.59070551
               3.55271384                7.24870200               21.91725600                0.06990509               -0.56498134                0.07146414               -0.19875138                0.43305265                5.46410500               -2.15832019
               4.54134893                7.15809574               21.90544594                0.00010000               -1.49349513                0.56549297               -0.56208487                0.76506170               12.50337751               -0.08679368
               5.52284394                7.07362696               21.93058339                0.00010000               -1.98868770                0.71655147               -0.33965619                0.81912444               14.40905459                0.10103426
               6.50157518                6.98903488               21.95812115                0.00010000               -2.18906062                0.77115007               -0.20684369                0.47351511               14.54107580                0.37023049
               7.47906272                6.90383354               21.98699438                0.00010000               -2.23955825                0.67365267               -0.13124547                0.11837105               14.66465106                0.80723902
               8.45678401                6.81908803               22.01787172                0.00010000               -2.15132593                0.39897162               -0.09022166               -0.07422297               14.86568629                1.40325178
               9.43603621                6.73699155               22.05136793                0.27783621               -1.00764243               -0.00964178               -0.07506049               -0.12118427                7.53716659                2.14111005
              10.43663116                6.65757559               21.93600725                0.71999250                0.13506173                0.14605508               -0.50629713               -0.00026233                0.06672474                0.75294631
              11.43873744                6.57849540               21.81986479                1.00000000                0.21062757                0.31620304               -0.94116370               -0.01366360                0.03552027               -0.59417546
               1.65114585                8.44463790               22.12091664                1.00000000               -0.04640825               -0.10451331                0.32920921               -0.02266566                0.01155890                0.84301523
               2.65068177                8.34732383               21.99565731                0.56980969                0.00287787                0.00501386               -0.01436095               -0.00071716                0.06289236               -0.60989866
               3.65120341                8.24964056               21.87137663                0.05805733               -0.71849423                0.11595811               -0.36046292                0.62873026                7.07851682               -2.10797536
               4.63631189                8.16402977               21.88643080                0.00010000               -1.81156077                0.67627816               -0.50962008                1.02109552               15.10436158               -0.23446952
               5.61497220                8.08181904               21.92297901                0.00010000               -2.28998745                0.94333654               -0.32514686                0.77963913               16.18187058                0.08641202
               6.59051214                7.99796541               21.96077816                0.00010000               -2.52598592                0.99833581               -0.18541162                0.32098074               16.31663238                0.32890314
               7.56445248                7.91160808               22.00113968                0.00010000               -2.59372503                0.92549726               -0.07832024               -0.16980442               16.58011760                0.65617335
               8.53863764                7.82359405               22.04522436                0.00906369               -2.48738118                0.56406667                0.00346442               -0.62084473               16.95194831                1.15556134
               9.51470485                7.73668899               22.09381874                0.30560168               -1.18103531               -0.04382928                0.06384592               -0.46213631                8.60146591                1.93602425
              10.51501693                7.65883461               21.97142867                0.72217005                0.10661745                0.10807780               -0.39089959               -0.01033318                0.03773608                0.69111970
              11.51683720                7.58149880               21.84850055                1.00000000                0.18202719                0.28289227               -0.85047482               -0.01130172                0.02004385               -0.66135150
               1.74769510                9.44380280               22.09123900                1.00000000               -0.00635350               -0.06414087                0.19781378               -0.02206192               -0.00705457                0.71974096
               2.74763156                9.34759627               21.95861262                0.59293221                0.04437021                0.04899808               -0.15621616                0.00042372                0.07683711               -0.52724217
               3.74858250                9.25102116               21.82761739                0.02687069               -0.90196025                0.15835319               -0.51000378                0.88265269                8.74990541               -1.46512576
               4.72959236                9.17162131               21.86845295                0.00010000               -2.20407114                1.02051912               -0.46430894                0.98035636               17.57560406               -0.07397923
               5.70450108                9.09249369               21.91472952                0.00010000               -2.56933025                1.11725839               -0.31345065                0.57893808               17.85177605                0.04434002
               6.67820575                9.00900160               21.96216940                0.00010000               -2.72315442                1.14592366               -0.16862193                0.18226578               18.01792226                0.18899199
               7.65003799                8.92234348               22.01286377                0.00010000               -2.94597709                1.12757159               -0.03595716               -0.26538178               18.39863504                0.37205938
               8.61928621                8.83036937               22.06907262                0.02790552               -2.92425342                1.00313106                0.08575559               -0.87654688               19.01762027                0.67405899
               9.59155292                8.73611496               22.13336864                0.33555138               -1.38357574               -0.05208976                0.18428006               -0.90325384                9.81242227                1.29199619
              10.59161470                8.65973715               22.00633721                0.75415077                0.08150575                0.07714123               -0.28555779               -0.02444063                0.11216887                0.56505258
              11.59318304                8.58415324               21.87635963                0.98160794                0.15683412                0.24855690               -0.76930753               -0.01100808               -0.02428553               -0.59961259
               1.84311768               10.44335509               22.05907765                1.00000000                0.03542066               -0.04477164                0.06658802                0.03712818                0.39416278                0.59911108
               2.84347189               10.34830379               21.92326057                0.83161088                0.08568770                0.07075151               -0.29288355                0.05665901                0.75438615               -0.44146707
               3.84483143               10.25280762               21.79460249                0.51388886               -1.45126972                0.17864565               -0.64075456                1.43171126               10.42853584               -0.92900980
               4.81444649               10.18444015               21.85227020                0.36488990               -2.78303839                1.28188448               -0.48140488                1.05324279               19.49840465                0.03638262
               5.78917066               10.10416421               21.90586331                0.35610078               -2.50694159                1.16705213               -0.33416407                0.28914517               19.35513072                0.03525916
               6.76430766               10.02088388               21.96155569                0.37419701               -2.56967940                1.18822823               -0.17023102                0.10995587               19.59185432                0.11602640
               7.73777708                9.93415951               22.02083241                0.41719674               -2.84862170                1.18160302               -0.01274439               -0.08745171               20.03383800                0.21720167
               8.70733522                9.84365667               22.08646812                0.52254139               -3.52525393                1.32873091                0.14096240               -1.12071453               20.80954821                0.39443914
               9.66727200                9.73564720               22.16272879                0.68467296               -2.04226943               -0.04677648                0.26044953               -1.59205433               11.23947864                0.79890868
              10.66648984                9.66037744               22.03904367                0.90337106                0.02564250                0.06402899               -0.19612506                0.02865098                0.78691908                0.46800778
              11.66778485                9.58646993               21.90601842                0.98688183                0.12950117                0.23166904               -0.69161512                0.06943087                0.33248006               -0.49880505
               0.91055949                0.50433720               23.34887280                1.00000000               -0.34947827               -0.37903647                1.32260505               -0.06639606               -0.80376433                0.83598215
               1.90706471                0.39205276               23.27044158                1.00000000               -0.29221375               -0.30074625                1.06197511               -0.05302865               -1.02576308                0.06588686
               2.90471522                0.27951593               23.18753760                1.00000000               -0.16169878               -0.22243894                0.78715995               -0.04168566               -0.97568798               -0.20985961
               3.90383074                0.16790574               23.11010541                0.62503064                0.30025216               -0.17486899                0.52332327                0.45573156               -0.04548051               -0.66004068
               4.91072026                0.06787661               23.04583503                0.71437474                0.44656117               -0.05636560                0.22620345               -0.07808582                0.41052888                0.17979671
               5.91276196               -0.02358877               22.97790979                0.79806486                0.14717459                0.02767102               -0.05453518               -0.00280277                0.04730286                0.10158788
               6.91366375               -0.11346901               22.90638407                0.77495983                0.07885924                0.10208853               -0.33240033                0.00809813               -0.14865233               -0.06440703
               7.91433914               -0.20365426               22.83445232                0.86974487                0.09530924                0.19078781               -0.62183487                0.02352551               -0.39086309                0.08077907
               8.91556994               -0.29610008               22.75787548                1.00000000                0.19728319                0.28213490               -0.91026213                0.01027385               -0.73597453                0.46795630
               9.91828481               -0.39022172               22.67888350                1.00000000                0.32879761                0.35197667               -1.19274968               -0.04136239               -0.78484794                0.00730637
              10.92214589               -0.48458576               22.60132918                1.00000000                0.38610833                0.43189677               -1.46107404               -0.05654310               -0.71666317               -0.72743459
               1.02217997                1.50054684               23.31790990                1.00000000               -0.32349124               -0.35996729                1.19931616               -0.02614196               -0.10903397                1.13605201
               2.01894506                1.38904530               23.23909951                1.00000000               -0.29040493               -0.27980800                0.94014893               -0.00893189               -0.08334554                0.09294241
               3.01637188                1.27729154               23.16076107                0.83726001               -0.23686760               -0.20011422                0.67126815                0.01822876                0.13098991               -0.58255846
               4.01420771                1.16615705               23.08619580                0.17798148               -0.53426095               -0.16374421                0.39506210                0.64461412                1.64641051               -1.07040954
               5.00568666                1.06731296               23.03810312                0.34287890               -0.54004832                0.06819041                0.15492985               -0.10164940                2.35835846                0.97630137
               6.00340674                0.97668794               22.97731871                0.44187927               -0.09545882                0.08944731               -0.10379991                0.15054179                1.50244816                0.39286485
               7.00377748                0.88755187               22.91201020                0.33303904                0.12415942                0.06850416               -0.36316056                0.19826807                1.40206618               -0.37687430
               8.00588993                0.79825362               22.84927542                0.47701309                0.25894639                0.18869484               -0.61581251                0.21470939                1.39716194                0.59899987
               9.00895641                0.70672127               22.78408354                1.00000000                0.31120461                0.26983266               -0.87005802                0.09538045                0.71303871                0.68277616
              10.01211402                0.61329805               22.70786296                1.00000000                0.34940448                0.34337035               -1.13667907                0.00198732                0.09338681                0.09389687
              11.01594450                0.51973321               22.63033321                1.00000000                0.38304737                0.42204125               -1.40417669               -0.01434886                0.02533412               -0.86279239
               1.13303973                2.49713786               23.29291040                1.00000000               -0.28983600               -0.32792653                1.08795094               -0.01898768                0.03966480                1.44524206
               2.13014137                2.38645660               23.20825804                1.00000000               -0.25358419               -0.24400997                0.82127862                0.00570302                0.18558097                0.06741585
               3.12796805                2.27551365               23.12648720                0.47960454               -0.17198851               -0.16781174                0.56629672                0.04119880                0.79675749               -1.32390349
               4.12670160                2.16463085               23.05404245                0.00010000               -1.49058345               -0.14767960                0.28418842                0.89718949                4.49736283               -1.97354422
               5.09815638                2.06924042               23.04629290                0.00010000               -1.55838621                0.15551730                0.08293532                1.68968080                5.00323858               -1.27348609
               6.09553388                1.97820018               22.98255822                0.00010000               -0.10464710               -0.06970779               -0.14546167                1.42180177                1.82959379               -0.40506356
               7.09606344                1.88790107               22.91141154                0.00010000                0.19650280               -0.14870382               -0.37600810                1.18134896                3.16355787                0.35518244
               8.09946393                1.80011964               22.87450682                0.00010000                0.31848417               -0.10705040               -0.61620434                0.79827266                3.68839102                0.88560120
               9.10243312                1.70929658               22.81466759                0.49528652                0.29243410                0.26258528               -0.81482676                0.15871407                1.72428707                1.35794207
              10.10531262                1.61664569               22.73864528                1.00000000                0.32777333                0.32968306               -1.07508295                0.02092198                0.61922117                0.60024765
              11.10898859                1.52385507               22.65669703                1.00000000                0.36759716                0.40809873               -1.35842717               -0.00879298                0.32203794               -0.87508113
               1.24316273                3.49398831               23.26810382                1.00000000               -0.24793957               -0.30368373                0.97511404               -0.01544721                0.06313331                1.40135181
               2.24068334                3.38416510               23.17636445                1.00000000               -0.20705640               -0.21319279                0.69947043                0.00586320                0.07581578               -0.03793233
               3.23902160                3.27393531               23.08482863                0.28454303               -0.11293053               -0.12944784                0.42720429                0.00394078                1.02079822               -1.59377012
               4.23842472                3.16320345               23.01196870                0.00010000               -0.65553277               -0.09960546                0.15958740                0.92267089                4.68694702               -2.62884558
               5.22591095                3.07042330               22.99366634                0.00010000               -1.26212980                0.04852729                0.00361638                2.43710955                6.95086875               -3.09806028
               6.21318213                2.97529379               22.96605857                0.00010000               -1.02129743               -0.07404655               -0.15728591                2.01600433                6.14174375               -1.14514856
               7.20548500                2.88457780               22.93142957                0.00010000               -0.63611238               -0.15204808               -0.32936044                1.68951344                5.69920331                0.91167295
               8.20045988                2.79611261               22.89507543                0.00010000               -0.49401789               -0.17908161               -0.51218128                1.28538473                5.39358420                1.12209211
               9.19560464                2.71197298               22.85440225                0.24945364               -0.12429545                0.21348068               -0.72393911                0.44492177                3.37792587                2.54617476
              10.19797397                2.61989171               22.77779469                1.00000000                0.28726184                0.30343019               -0.98452577                0.00733750                0.79820406                0.97008017
              11.20134988                2.52789519               22.68544570                1.00000000                0.33759057                0.40416193               -1.30535498               -0.01436125                0.01344719               -0.61188211
               1.35237720                4.49106418               23.24221029                1.00000000               -0.20655639               -0.27614623                0.85373479               -0.02076728                0.08409178                1.26682315
               2.35031164                4.38219275               23.14337589                0.91418507               -0.16843462               -0.17509810                0.56944614                0.00010355                0.11430849               -0.16277881
               3.34900851                4.27292469               23.04509214                0.17314544               -0.08223081               -0.07497118                0.29543880               -0.03045937                1.13844655               -1.49046182
               4.34866702                4.16263874               22.96672669                0.00010000               -0.71001357                0.07108398               -0.00432184                0.72496607                6.00986887               -2.29042389
               5.33480824                4.07021097               22.96566037                0.00010000               -1.34837766                0.08665825               -0.09977514                1.40648820                9.45863323               -1.40804052
               6.32169947                3.97671925               22.95653892                0.00010000               -1.28866794                0.19967927               -0.18194835                1.27392472                8.77523892               -0.50997912
               7.30903488                3.88486011               22.94203917                0.00010000               -1.19615107                0.14797591               -0.28728264                1.11754618                8.36966323                0.55589699
               8.29777645                3.79653801               22.92491685                0.00010000               -1.07412102                0.12579444               -0.41892630                1.03869559                8.28876247                1.64838141
               9.28755246                3.71356619               22.90884528                0.22758442               -0.41196449                0.12592063               -0.58416520                0.44322398                4.51277656                3.01766860
              10.28953716                3.62271429               22.81605745                0.89262477                0.25709747                0.26241625               -0.90077577                0.00585500                0.37388477                0.95414164
              11.29269441                3.53193831               22.71698893                1.00000000                0.31572507                0.39938650               -1.23635790               -0.01791257                0.06449958               -0.45203839
               1.46049026                5.48846538               23.21469957                1.00000000               -0.16653567               -0.23766416                0.72329241               -0.02485411                0.12131065                1.10484717
               2.45882490                5.38066314               23.10895006                0.74096533               -0.12619191               -0.12903248                0.42144611               -0.00554183                0.23677930               -0.35883761
               3.45796642                5.27243588               23.00545390                0.11733689               -0.15935665               -0.02193785                0.13289476                0.03907697                1.82940530               -1.68986736
               4.45563777                5.16462513               22.93155080                0.00010000               -0.90031058                0.32702209               -0.28366331                0.50220707                7.79674465               -0.88518815
               5.43996021                5.07215647               22.94691155                0.00010000               -1.58131441                0.30759566               -0.21528401                1.09388401               11.76002597               -0.60036711
               6.42401148                4.97928737               22.95288967                0.00010000               -1.59715226                0.35162837               -0.20688458                0.85078820               11.07934451               -0.01267235
               7.40801716                4.88753732               22.95509823                0.00010000               -1.57418831                0.33965687               -0.24526714                0.71299951               10.81978634                0.76772413
               8.39252771                4.79862850               22.95613660                0.00010000               -1.48621634                0.24462102               -0.31828665                0.70709167               10.82232273                1.68486888
               9.37829284                4.71449139               22.95841462                0.23463321               -0.64043791                0.07104771               -0.42031444                0.31291716                5.60713251                2.61822470
              10.37971896                4.62514003               22.85491662                0.79233135                0.21253803                0.22475281               -0.77637613                0.00880446                0.19972623                0.96055430
              11.38254360                4.53588292               22.74882498                1.00000000                0.28246411                0.38368083               -1.15252586               -0.01970540                0.07579462               -0.46244355
               1.56748461                6.48631090               23.18554430                1.00000000               -0.12543063               -0.19173108                0.58720705               -0.02474778                0.06878472                0.96068720
               2.56623030                6.37961210               23.07199607                0.63112926               -0.08282779               -0.08217921                0.27129775               -0.00515141                0.23272036               -0.53922594
               3.56582806                6.27248593               22.96167244                0.08844149               -0.36198628                0.02860037               -0.03296625                0.21057883                3.56291919               -2.02398578
               4.55899058                6.16917919               22.91472959                0.00010000               -1.19021863                0.49809268               -0.52600227                0.48207349               10.13467910                0.11599852
               5.54202368                6.07636288               22.93512721                0.00010000               -1.78280964                0.52174108               -0.30143918                0.84802098               13.34535313               -0.05789497
               6.52333439                5.98375181               22.95337573                0.00010000               -1.90349705                0.55184043               -0.21901725                0.59554830               13.12789522                0.30318011
               7.50395374                5.89165325               22.97006738                0.00010000               -1.91850893                0.49246891               -0.19818871                0.37286277               13.03926707                0.88853130
               8.48496421                5.80143043               22.98689119                0.00010000               -1.83272354                0.31323303               -0.21540730                0.30659407               13.11657809                1.61373349
               9.46729927                5.71498714               23.00519509                0.25217461               -0.83212420                0.02946265               -0.25978426                0.10001690                6.69052090                2.39264607
              10.46832172                5.62720935               22.89331009                0.73336047                0.17576337                0.18848376               -0.65555650                0.00685626                0.11983556                0.89272407
              11.47081454                5.53961192               22.77996290                1.00000000                0.24928147                0.35841857               -1.05735389               -0.01605967                0.05361923               -0.52404885
               1.67339291                7.48463076               23.15511546                1.00000000               -0.08460661               -0.14521023                0.45120084               -0.02355302                0.02932790                0.87261712
               2.67254684                7.37901955               23.03390674                0.57475263               -0.03909992               -0.03715272                0.12460691               -0.00281100                0.16078289               -0.60956955
               3.67261091                7.27300789               22.91527424                0.07262445               -0.55722757                0.07383973               -0.19805542                0.40290049                5.45034216               -2.20585151
               4.66140229                7.17458699               22.89985899                0.00010000               -1.51314552                0.57297508               -0.54552241                0.69522820               12.76500622                0.03289729
               5.64234800                7.08259129               22.92720342                0.00010000               -2.03851057                0.72741217               -0.33297921                0.75875460               14.92956422                0.16307862
               6.62063208                6.99032418               22.95602503                0.00010000               -2.22760964                0.78169551               -0.21179245                0.40077568               15.00712569                0.42630473
               7.59779581                6.89738669               22.98560704                0.00010000               -2.26531897                0.68018564               -0.14689359                0.03604921               15.10661862                0.87351948
               8.57532570                6.80489316               23.01684345                0.00010000               -2.16407761                0.40082563               -0.11662415               -0.16305440               15.29901737                1.48619762
               9.55451425                6.71508064               23.05043700                0.27564224               -1.00471987               -0.00821548               -0.11229148               -0.16839916                7.75874106                2.24152919
              10.55523130                6.62890971               22.93079228                0.70480236                0.14514996                0.15115505               -0.53700472                0.00030639                0.06909163                0.80368578
              11.55741725                6.54305129               22.81033622                1.00000000                0.21859511                0.32774441               -0.96402320               -0.01303473                0.03655689               -0.59304754
               1.77823597                8.48340670               23.12414992                1.00000000               -0.04390081               -0.10124394                0.31722814               -0.02258129                0.01108853                0.84748578
               2.77779696                8.37886904               22.99549082                0.56679022                0.00413333                0.00694070               -0.01930768               -0.00065535                0.06124746               -0.62577524
               3.77831863                8.27396273               22.86778269                0.05947990               -0.72426072                0.11675958               -0.35880401                0.60441455                7.17372891               -2.14619486
               4.76331174                8.18063869               22.88137210                0.00010000               -1.84285249                0.68961201               -0.49369001                0.95928847               15.46780546               -0.09259749
               5.74146158                8.09091112               22.91972838                0.00010000               -2.33786238                0.95757696               -0.32192199                0.72586884               16.70426686                0.15994439
               6.71655450                7.99938572               22.95888336                0.00010000               -2.56779189                1.01419727               -0.19298712                0.25524298               16.82259175                0.37953133
               7.69010574                7.90525696               23.00026879                0.00010000               -2.62726628                0.94035775               -0.09641985               -0.24853793               17.08024097                0.70889827
               8.66400917                7.80944694               23.04511531                0.01030302               -2.50955021                0.57310866               -0.02645378               -0.71195723               17.45100250                1.22418076
               9.63991474                7.71482283               23.09424780                0.30363978               -1.18259809               -0.03616279                0.02045876               -0.51316180                8.85781525                2.01964167
              10.64035721                7.63023245               22.96734553                0.70619339                0.11779736                0.11621017               -0.42647235               -0.01100392                0.04057762                0.73217798
              11.64227069                7.54616681               22.83986086                1.00000000                0.19134795                0.29381865               -0.87720755               -0.01015019                0.02088462               -0.66828820
               1.88201659                9.48260588               23.09315861                1.00000000               -0.00388825               -0.06060111                0.18575575               -0.02198279               -0.00789116                0.72551884
               2.88197770                9.37915837               22.95703045                0.59054599                0.04564854                0.05049724               -0.16068229                0.00050349                0.07630675               -0.53894789
               3.88292956                9.27534308               22.82253442                0.02652600               -0.91690206                0.15788849               -0.50707471                0.86661980                8.94813785               -1.48720128
               4.86363966                9.18837923               22.86383901                0.00010000               -2.24056096                1.03530381               -0.45421493                0.94363085               18.03717611                0.02347646
               5.83811834                9.10174283               22.91158231                0.00010000               -2.61242806                1.13345497               -0.31413347                0.54719538               18.38239187                0.08957671
               6.81139110                9.01060813               22.96042837                0.00010000               -2.76772528                1.16647179               -0.17931799                0.14198559               18.56248593                0.21792036
               7.78276383                8.91619385               23.01240440                0.00010000               -2.99352102                1.15189605               -0.05637486               -0.31958151               18.95483185                0.40061941
               8.75152068                8.81635533               23.06978196                0.03041811               -2.96491618                1.02893295                0.05572312               -0.94748618               19.57784639                0.71775896
               9.72346551                8.71435739               23.13496775                0.33363815               -1.39267173               -0.03819811                0.13366468               -0.95558140               10.10312322                1.34474032
              10.72366725                8.63123391               23.00327714                0.73512534                0.09400076                0.08880017               -0.32749893               -0.02602312                0.11987466                0.59292211
              11.72534552                8.54892766               22.86850706                0.98220061                0.16782775                0.25927808               -0.80111039               -0.00971807               -0.02295009               -0.61359511
               1.98469134               10.48219467               23.05968543                1.00000000                0.03784903               -0.04112102                0.05452872                0.03590681                0.39763235                0.60516130
               2.98506983               10.37987899               22.92031375                0.83103443                0.08694149                0.07206192               -0.29703997                0.05550377                0.76385041               -0.45027938
               3.98643017               10.27712050               22.78821506                0.51339398               -1.46426083                0.17774150               -0.63726200                1.42334997               10.69496836               -0.94139031
               4.95578461               10.20134476               22.84746248                0.36530329               -2.81267883                1.29655347               -0.47906622                1.03748140               20.04185782                0.08998819
               5.93017659               10.11358022               22.90249578                0.35629988               -2.54207130                1.18373942               -0.33838256                0.27434537               19.92185604                0.05417085
               6.90494319               10.02271516               22.95978428                0.37401002               -2.61048435                1.21070347               -0.18421630                0.09094151               20.18383298                0.12612590
               7.87796691                9.92829488               23.02059068                0.41655293               -2.90236396                1.21010323               -0.03620534               -0.11417073               20.64196151                0.22722101
               8.84689591                9.83002560               23.08772344                0.52441496               -3.60211853                1.36702640                0.11029479               -1.17427774               21.41554583                0.41496497
               9.80592453                9.71405887               23.16505768                0.68411795               -2.08147170               -0.02985154                0.20316626               -1.65495467               11.57035596                0.83063778
              10.80526647                9.63200845               23.03684554                0.89259603                0.03821482                0.07745400               -0.24478004                0.02459780                0.82017490                0.48852630
              11.80668883                9.55135237               22.89891360                0.98681306                0.14223575                0.24247133               -0.72935079                0.06872284                0.34711324               -0.51478199
               0.98217558                0.54435178               24.36206433                1.00000000               -0.34783932               -0.37715192                1.31577887               -0.06582410               -0.81988553                0.85088902
               1.97869719                0.42468825               24.28102885                1.00000000               -0.29140775               -0.29885143                1.05581050               -0.05206548               -1.04916871                0.07073666
               2.97634743                0.30477039               24.19537824                1.00000000               -0.16282133               -0.22062705                0.78187156               -0.04126598               -1.00158591               -0.21010882
               3.97544076                0.18572708               24.11530292                0.62599479                0.28790211               -0.17354869                0.51807719                0.43703700               -0.08302288               -0.68295227
               4.98210547                0.07782232               24.04808082                0.71532906                0.43470449               -0.05618451                0.22383791               -0.08050481                0.36056208                0.19077351
               5.98413485               -0.02170061               23.97737100                0.79872274                0.14880575                0.02725254               -0.05322830               -0.00573343                0.00522006                0.10811765
               6.98508158               -0.11959656               23.90308555                0.77524759                0.08648398                0.10083295               -0.32795756                0.00677333               -0.19543702               -0.06684142
               7.98586453               -0.21766796               23.82827732                0.86996552                0.10483588                0.18858660               -0.61411783                0.01943411               -0.44255674                0.08665546
               8.98717830               -0.31776907               23.74883037                1.00000000                0.20164317                0.27830358               -0.89982648                0.00695046               -0.78362084                0.47985215
               9.98989740               -0.41940994               23.66702743                1.00000000                0.32734929                0.34863343               -1.17956195               -0.04045305               -0.82178352                0.00690315
              10.99372529               -0.52128540               23.58680010                1.00000000                0.38278926                0.42880659               -1.44597215               -0.05429079               -0.74592220               -0.75431103
               1.10118087                1.54058026               24.32986902                1.00000000               -0.32136411               -0.35835711                1.19247578               -0.02544685               -0.11221794                1.15671405
               2.09796723                1.42169974               24.24846807                1.00000000               -0.28827608               -0.27795398                0.93388323               -0.00812097               -0.09095144                0.09921841
               3.09541535                1.30256411               24.16745069                0.84596754               -0.23410329               -0.19809971                0.66676114                0.01674748                0.11601714               -0.57887840
               4.09328517                1.18399159               24.09014803                0.18518831               -0.52005426               -0.16131992                0.39430644                0.61929631                1.64438759               -1.08862799
               5.08501427                1.07726047               24.03962620                0.34983032               -0.52491057                0.06538928                0.15042681               -0.10753789                2.36881758                0.98634998
               6.08278696                0.97857191               23.97626873                0.44963233               -0.09406387                0.08777292               -0.10586126                0.13673577                1.50631529                0.40310290
               7.08313299                0.88141177               23.90838146                0.34161216                0.11790870                0.07380411               -0.36260712                0.18699831                1.40951263               -0.37040886
               8.08514513                0.78421791               23.84313118                0.48328897                0.24929046                0.18737570               -0.61336906                0.19640902                1.40818301                0.60185157
               9.08811880                0.68501396               23.77540853                1.00000000                0.30529480                0.26735884               -0.86540537                0.08775196                0.71798483                0.70224649
              10.09125103                0.58407639               23.69653125                1.00000000                0.34695172                0.34065571               -1.13025731                0.00247265                0.09208487                0.09674205
              11.09505783                0.48300267               23.61633707                1.00000000                0.38068079                0.42073994               -1.39575771               -0.01233270                0.02408868               -0.89452253
               1.21942770                2.53718464               24.30375391                1.00000000               -0.28767826               -0.32687262                1.08061445               -0.01800409                0.04094700                1.47066732
               2.21655092                2.41912917               24.21644041                1.00000000               -0.25185907               -0.24216504                0.81520963                0.00671709                0.19251861                0.07343687
               3.21439052                2.30080839               24.13211212                0.49085821               -0.17102929               -0.16505914                0.55971438                0.03912035                0.79647969               -1.33151086
               4.21313033                2.18250068               24.05685059                0.00010000               -1.45080640               -0.14491981                0.27834762                0.86444443                4.52537326               -1.99343710
               5.18537439                2.07913010               24.04708315                0.00010000               -1.52060320                0.14473278                0.07552263                1.61778639                5.07716623               -1.26630847
               6.18271827                1.98005485               23.98107543                0.00010000               -0.10994184               -0.07168906               -0.15058235                1.35835858                1.89022419               -0.37586564
               7.18317556                1.88187952               23.90762971                0.00010000                0.17361254               -0.14414437               -0.37984496                1.11957095                3.21857871                0.39968947
               8.18619052                1.78607956               23.86833077                0.00010000                0.29496517               -0.10396177               -0.61912031                0.75153568                3.76239273                0.93789455
               9.18907486                1.68757810               23.80650718                0.49937746                0.28838104                0.25958145               -0.81730453                0.14186726                1.78780804                1.40257211
              10.19195814                1.58740317               23.72789393                1.00000000                0.32756101                0.32645991               -1.07521938                0.01716607                0.64093649                0.62028640
              11.19562608                1.48712940               23.64312610                1.00000000                0.36679378                0.41030716               -1.35580667               -0.00818965                0.33243945               -0.90861347
               1.33693173                3.53404281               24.27781387                1.00000000               -0.24539083               -0.30298952                0.96684792               -0.01448819                0.06748321                1.42137103
               2.33447783                3.41685643               24.18333011                1.00000000               -0.20527422               -0.21132977                0.69359887                0.00704737                0.08217843               -0.03779800
               3.33282625                3.29926293               24.08908775                0.29391118               -0.11127395               -0.12652196                0.42448700                0.00113345                1.02932311               -1.61360106
               4.33225235                3.18109320               24.01352749                0.00010000               -0.65052090               -0.10055615                0.15379634                0.88382144                4.75140295               -2.66639624
               5.31981583                3.08015513               23.99368256                0.00010000               -1.25238195                0.03903395               -0.00023552                2.33319676                7.07912632               -3.10539470
               6.30720471                2.97713813               23.96445416                0.00010000               -1.01580661               -0.07837553               -0.16314582                1.92369711                6.27104067               -1.10402568
               7.29949970                2.87852888               23.92810118                0.00010000               -0.63637220               -0.15738697               -0.33666211                1.59938633                5.82577614                0.98677373
               8.29447726                2.78213867               23.88990683                0.00010000               -0.49335843               -0.17923001               -0.52164451                1.22156314                5.50742048                1.22254087
               9.28963253                2.69020559               23.84711262                0.24791234               -0.12171074                0.20024235               -0.73361522                0.41244228                3.46184657                2.63171248
              10.29204305                2.59060559               23.76790926                1.00000000                0.29045249                0.30034681               -0.99200339               -0.00001294                0.82870898                1.00021312
              11.29544158                2.49120881               23.67237090                1.00000000                0.33985316                0.40859462               -1.30903991               -0.01309349                0.01410373               -0.63455776
               1.45351069                4.53112485               24.25070001                1.00000000               -0.20389449               -0.27533707                0.84425449               -0.02028438                0.09180790                1.27788230
               2.45147175                4.41490258               24.14904163                0.90501483               -0.16671317               -0.17303156                0.56354694                0.00043568                0.12724770               -0.17570478
               3.45017643                4.29827795               24.04803814                0.17879447               -0.07785890               -0.07214332                0.29343993               -0.03802249                1.14520886               -1.52249483
               4.44991457                4.18048956               23.96672365                0.00010000               -0.70915176                0.06130065                0.00245223                0.68863350                6.09904075               -2.39510065
               5.43599339                4.07991078               23.96467893                0.00010000               -1.35480560                0.08389452               -0.09719670                1.33224808                9.66499715               -1.43190758
               6.42281846                3.97848733               23.95469783                0.00010000               -1.29153258                0.19395026               -0.18631339                1.19831362                8.98771040               -0.47571852
               7.41016274                3.87873178               23.93911987                0.00010000               -1.19366908                0.14030695               -0.29713472                1.04088247                8.57039415                0.62848589
               8.39894507                3.78249496               23.92065366                0.00010000               -1.06529766                0.11699933               -0.43405123                0.96337498                8.47163619                1.74604584
               9.38885679                3.69158295               23.90289574                0.22461762               -0.39952069                0.10599825               -0.60533201                0.40698981                4.61795957                3.13685953
              10.39095466                3.59341011               23.80696200                0.87287400                0.26504882                0.26093019               -0.91751591                0.00375074                0.39778321                1.00119602
              11.39415776                3.49530129               23.70456826                1.00000000                0.32031033                0.40662772               -1.24686881               -0.01888649                0.07922564               -0.45989739
               1.56897060                5.52853607               24.22187896                1.00000000               -0.16371592               -0.23637619                0.71264294               -0.02476073                0.12317257                1.10854329
               2.56733344                5.41339580               24.11313444                0.73316719               -0.12458902               -0.12645772                0.41519310               -0.00591887                0.24551644               -0.38162068
               3.56647882                5.29782007               24.00677986                0.12156470               -0.14706249               -0.01833675                0.13174370                0.02069724                1.78653233               -1.73852478
               4.56439219                5.18231921               23.92884725                0.00010000               -0.90079002                0.31210614               -0.25747968                0.46364030                7.92407531               -1.02898194
               5.54846302                5.08183302               23.94480328                0.00010000               -1.60211051                0.30637289               -0.20613773                1.02471531               12.10235478               -0.61573982
               6.53234998                4.98101714               23.95080624                0.00010000               -1.60766442                0.34916590               -0.20985949                0.77748460               11.38433526                0.02567157
               7.51630973                4.88133502               23.95258832                0.00010000               -1.57281908                0.33325351               -0.25733733                0.63534334               11.10066299                0.84013949
               8.50089360                4.78447866               23.95285516                0.00010000               -1.47262760                0.23437425               -0.33858496                0.62647100               11.08746947                1.78449341
               9.48685718                4.69232555               23.95406602                0.23146941               -0.62469385                0.05647091               -0.44947633                0.27481815                5.75072638                2.74540560
              10.48839972                4.59582419               23.84704149                0.77466339                0.22121508                0.22411134               -0.79790180                0.01080421                0.21124505                1.02518384
              11.49128148                4.49934137               23.73721900                1.00000000                0.28817582                0.39406121               -1.16757632               -0.02032746                0.07698283               -0.45691128
               1.68329601                6.52639733               24.19135875                1.00000000               -0.12266359               -0.18981363                0.57567020               -0.02470728                0.06801563                0.96156334
               2.68206937                6.41237342               24.07467925                0.62495769               -0.08145212               -0.07929778                0.26510961               -0.00570542                0.23791671               -0.56101263
               3.68166697                6.29791122               23.96134141                0.09159915               -0.34474749                0.03273290               -0.03362581                0.18239357                3.48676213               -2.07346876
               4.67517442                6.18673168               23.90963857                0.00010000               -1.19385975                0.48959865               -0.48862007                0.42273543               10.31268849                0.09514830
               5.65778977                6.08603824               23.93216626                0.00010000               -1.81541397                0.52271705               -0.28884919                0.77725702               13.81366728               -0.03525547
               6.63886614                5.98547065               23.95117109                0.00010000               -1.91908433                0.55181082               -0.22169388                0.51613569               13.51478315                0.35290744
               7.61940808                5.88539685               23.96801669                0.00010000               -1.91910921                0.48837486               -0.21257411                0.28893684               13.39633598                0.96101022
               8.60048396                5.78718244               23.98461821                0.00010000               -1.82002341                0.30546032               -0.24001446                0.21781590               13.46072782                1.70847093
               9.58300762                5.69271237               24.00242972                0.24935002               -0.81645129                0.02219310               -0.29372134                0.05574593                6.86823463                2.50876011
              10.58415493                5.59789233               23.88662111                0.71729230                0.18546259                0.18948396               -0.68178983                0.00921054                0.12431186                0.95213148
              11.58671687                5.50318252               23.76929344                1.00000000                0.25619345                0.36975605               -1.07555376               -0.01602070                0.05525401               -0.51413056
               1.79652426                7.52473980               24.15956770                1.00000000               -0.08188242               -0.14264286                0.43913799               -0.02350454                0.02865900                0.87441123
               2.79570544                7.41180985               24.03512432                0.57016959               -0.03779179               -0.03444081                0.11863105               -0.00302467                0.16215931               -0.62787866
               3.79576843                7.29847472               23.91329489                0.07467278               -0.54927818                0.07726323               -0.19814536                0.37155420                5.44627481               -2.25173638
               4.78471988                7.19211118               23.89453549                0.00010000               -1.52496215                0.57330609               -0.51083742                0.61802572               13.02203668                0.15136975
               5.76526918                7.09228736               23.92392381                0.00010000               -2.07028991                0.73004008               -0.32017008                0.68493364               15.42675455                0.22643085
               6.74331408                6.99205335               23.95388530                0.00010000               -2.24462541                0.78410201               -0.21570604                0.31862871               15.45241681                0.48398207
               7.72037668                6.89110252               23.98405651                0.00010000               -2.26898389                0.67959143               -0.16381349               -0.05241161               15.52928711                0.94139374
               8.69793440                6.79058787               24.01553923                0.00010000               -2.15572375                0.39783608               -0.14518959               -0.25691900               15.71326582                1.56997796
               9.67726220                6.69276942               24.04912210                0.27330581               -0.99103100               -0.00806477               -0.15149606               -0.21753318                7.97001085                2.34114669
              10.67811378                6.59961387               23.92526715                0.68940356                0.15592470                0.15504843               -0.56805258                0.00137824                0.07069635                0.85591253
              11.68038070                6.50673649               23.80058432                1.00000000                0.22669159                0.33898340               -0.98568254               -0.01237014                0.03743692               -0.58813199
               1.90868582                8.52354447               24.12726120                1.00000000               -0.04118632               -0.09810670                0.30481020               -0.02252000                0.01059219                0.85139475
               2.90827395                8.41168460               23.99527116                0.56371111                0.00554495                0.00922681               -0.02499076               -0.00057682                0.05937964               -0.64104403
               3.90879672                8.29945648               23.86420055                0.06028783               -0.72758249                0.11850193               -0.35801547                0.57407375                7.27685307               -2.18243031
               4.89372230                8.19819780               23.87655700                0.00010000               -1.86252210                0.69446334               -0.46133979                0.88753346               15.82381461                0.04670408
               5.87154627                8.10063904               23.91654057                0.00010000               -2.36493731                0.96152301               -0.31303317                0.66226293               17.20217702                0.23239399
               6.84642356                8.00115269               23.95691841                0.00010000               -2.58604669                1.02028663               -0.19959671                0.18344719               17.30770483                0.43073879
               7.81982534                7.89898868               23.99921128                0.00010000               -2.63724388                0.94657325               -0.11553481               -0.33045823               17.55975281                0.76327381
               8.79367868                7.79513916               24.04469528                0.01170577               -2.50971968                0.57642759               -0.05846597               -0.80461083               17.92787001                1.29573980
               9.76963095                7.69255107               24.09422792                0.30168021               -1.17316257               -0.02847623               -0.02563027               -0.56439313                9.10178426                2.10083613
              10.77021543                7.60099330               23.96289922                0.69002573                0.12966445                0.12408526               -0.46331615               -0.01148943                0.04270339                0.77323831
              11.77222424                7.50996219               23.83095640                1.00000000                0.20088068                0.30460563               -0.90336649               -0.00893657                0.02162774               -0.67281487
               2.01979359                9.52277766               24.09495412                1.00000000               -0.00117025               -0.05698987                0.17300810               -0.02193432               -0.00870713                0.73081534
               3.01978189                9.41199438               23.95539898                0.58813225                0.04715554                0.05234997               -0.16607465                0.00062046                0.07573901               -0.55012583
               4.02073670                9.30084476               23.81747590                0.02575053               -0.92469522                0.15810246               -0.50507327                0.83957092                9.14853777               -1.50754251
               5.00128799                9.20600045               23.85936865                0.00010000               -2.25885757                1.03975825               -0.43583765                0.89768382               18.48913013                0.11353506
               5.97555955                9.11151782               23.90844685                0.00010000               -2.63273034                1.13908234               -0.31143357                0.50991757               18.89181438                0.13337952
               6.94863338                9.01245909               23.95858304                0.00010000               -2.78892552                1.17709476               -0.18959567                0.09910127               19.08719627                0.24694636
               7.91978104                8.91003398               24.01173627                0.00010000               -3.01767939                1.16713477               -0.07751026               -0.37454330               19.49171281                0.43042499
               8.88827979                8.80211642               24.07018708                0.03331014               -2.98304217                1.04669208                0.02555748               -1.01668108               20.11186384                0.76588162
               9.86012020                8.69219989               24.13604194                0.33194632               -1.39034575               -0.02354854                0.07951041               -1.00473831               10.37655310                1.39468152
              10.86047288                8.60209558               23.99978723                0.71603657                0.10719991                0.10089357               -0.37145317               -0.02746552                0.12690869                0.61979901
              11.86226420                8.51282860               23.86033742                0.98258978                0.17913202                0.26995184               -0.83280047               -0.00835996               -0.02137379               -0.62624579
               2.12981369               10.52240467               24.06016822                1.00000000                0.04055753               -0.03729916                0.04161310                0.03470281                0.40085311                0.61077756
               3.13021926               10.41273160               23.91731977                0.83047853                0.08841900                0.07372196               -0.30232443                0.05443033                0.77300820               -0.45864517
               4.13158207               10.30261853               23.78185725                0.51273764               -1.46081697                0.17737685               -0.63492884                1.39760474               10.95741659               -0.95244241
               5.10100293               10.21899297               23.84268888                0.36569392               -2.81480400                1.29925183               -0.47485113                1.01160168               20.57347172                0.13590582
               6.07528599               10.12342069               23.89909566                0.35649084               -2.55567536                1.19028687               -0.34092436                0.25772470               20.47089182                0.07220779
               7.04988942               10.02469459               23.95787136                0.37382040               -2.63044236                1.22355028               -0.19861136                0.07113837               20.75628809                0.13635234
               8.02267714                9.92233138               24.02010830                0.41588875               -2.93551345                1.22973938               -0.06062805               -0.14146920               21.23224265                0.23814411
               8.99117915                9.81607300               24.08867402                0.52653996               -3.65600608                1.39565868                0.08094585               -1.22262803               21.99271293                0.43946510
               9.94955702                9.69208010               24.16679212                0.68374032               -2.10708689               -0.01197913                0.14170454               -1.70940933               11.87920009                0.85976837
              10.94903741                9.60301117               24.03414807                0.88184866                0.05169854                0.09155965               -0.29601435                0.02050952                0.85202484                0.50787407
              11.95059099                9.51536122               23.89143141                0.98671385                0.15535802                0.25326228               -0.76727058                0.06768434                0.36174313               -0.52978423
               1.05623273                0.58574560               25.37518837                1.00000000               -0.34653084               -0.37540696                1.30930071               -0.06517687               -0.83561297                0.86528688
               2.05276743                0.45858906               25.29155779                1.00000000               -0.29116520               -0.29709520                1.05041274               -0.05114377               -1.07211161                0.07537172
               3.05040943                0.33116885               25.20317503                1.00000000               -0.16498648               -0.21887593                0.77810632               -0.04134691               -1.02717513               -0.21038117
               4.04946770                0.20455647               25.12046695                0.62669718                0.27269966               -0.17196481                0.51550200                0.41684880               -0.11976971               -0.70415397
               5.05586342                0.08860132               25.05031179                0.71564863                0.41969664               -0.05636922                0.22316395               -0.08102693                0.31324378                0.20070671
               6.05786163               -0.01922186               24.97684522                0.79853594                0.14926365                0.02674357               -0.05171291               -0.00833275               -0.03413152                0.11446525
               7.05884870               -0.12539766               24.89982492                0.77496246                0.09407825                0.09971924               -0.32465334                0.00530911               -0.23981275               -0.06889240
               8.05974319               -0.23162885               24.82216996                0.86962938                0.11493588                0.18660595               -0.60837395                0.01524724               -0.49196864                0.09219290
               9.06114741               -0.33965936               24.73987895                1.00000000                0.20681084                0.27487576               -0.89165305                0.00373948               -0.82909211                0.49192252
              10.06387941               -0.44909129               24.65529226                1.00000000                0.32673508                0.34576876               -1.16870871               -0.03955089               -0.85692724                0.00675388
              11.06768212               -0.55874593               24.57240974                1.00000000                0.38027050                0.42626846               -1.43341305               -0.05221209               -0.77382056               -0.77965008
               1.18273751                1.58199153               25.34175941                1.00000000               -0.31931473               -0.35696228                1.18568896               -0.02469579               -0.11536756                1.17655055
               2.17954436                1.45561811               25.25777717                1.00000000               -0.28626270               -0.27628793                0.92819015               -0.00726612               -0.09830778                0.10536576
               3.17701226                1.32898009               25.17409629                0.85418016               -0.23122065               -0.19612405                0.66244105                0.01483762                0.10197586               -0.57543764
               4.17491995                1.20283682               25.09408193                0.19188171               -0.50349691               -0.15869061                0.39187356                0.59139387                1.64140867               -1.10685551
               5.16694232                1.08803763               25.04111165                0.35586341               -0.50710796                0.06282882                0.14692500               -0.10898996                2.37823877                0.99493800
               6.16477779                0.98104558               24.97520148                0.45626182               -0.09185163                0.08596466               -0.10744822                0.12460372                1.51153989                0.41333260
               7.16510528                0.87559954               24.90475806                0.34948574                0.11243649                0.07864016               -0.36225855                0.17613020                1.41799118               -0.36373888
               8.16702652                0.77023721               24.83700804                0.48888285                0.24053723                0.18653647               -0.61177334                0.17904946                1.41972426                0.60430117
               9.16991603                0.66308939               24.76677543                1.00000000                0.30003321                0.26516468               -0.86178484                0.08039477                0.72324631                0.72122772
              10.17302718                0.55436639               24.68525782                1.00000000                0.34492992                0.33823509               -1.12507286                0.00301871                0.09099606                0.10006720
              11.17681463                0.44551676               24.60241806                1.00000000                0.37874438                0.41974511               -1.38873623               -0.01041795                0.02314671               -0.92411754
               1.30848567                2.57860636               25.31452268                1.00000000               -0.28521300               -0.32609511                1.07303257               -0.01718611                0.04236619                1.49479834
               2.30563354                2.45306330               25.22456223                1.00000000               -0.24991019               -0.24050892                0.80928153                0.00743388                0.19889927                0.07962960
               3.30348747                2.32724637               25.13768149                0.50260576               -0.16977523               -0.16214163                0.55470530                0.03588950                0.79476437               -1.33739181
               4.30223804                2.20138266               25.05960940                0.00010000               -1.40063004               -0.14171755                0.27336818                0.82747756                4.54972110               -2.01210912
               5.27547487                2.08985790               25.04780336                0.00010000               -1.47231204                0.13409985                0.06873395                1.53696339                5.14995243               -1.25694381
               6.27279180                1.98249744               24.97954658                0.00010000               -0.11475979               -0.07273543               -0.15486671                1.28618904                1.95153657               -0.34525689
               7.27317967                1.87617515               24.90381464                0.00010000                0.15212645               -0.13882092               -0.38280584                1.05235031                3.27314269                0.44412088
               8.27583433                1.77210188               24.86212442                0.00010000                0.27232258               -0.09983340               -0.62271405                0.70195533                3.83444749                0.98911939
               9.27862612                1.66564393               24.79832150                0.50263904                0.28390487                0.25646331               -0.81994695                0.12473214                1.85013704                1.44599996
              10.28151242                1.55767341               24.71714089                1.00000000                0.32734530                0.32307538               -1.07537607                0.01338686                0.66252803                0.64062524
              11.28517303                1.44964897               24.62958089                1.00000000                0.36606063                0.41225578               -1.35320314               -0.00774078                0.34279976               -0.93961585
               1.43347990                3.57546963               25.28744078                1.00000000               -0.24268779               -0.30248092                0.95836411               -0.01394737                0.07214959                1.43973101
               2.43105302                3.45080793               25.19023643                1.00000000               -0.20346067               -0.20944874                0.68765221                0.00762776                0.08924487               -0.03739553
               3.42941069                3.32573726               25.09331837                0.30326179               -0.10975252               -0.12318493                0.42179997               -0.00311298                1.03663046               -1.63063417
               4.42885797                3.20000247               25.01504463                0.00010000               -0.64219410               -0.09828446                0.15121276                0.83756890                4.81542543               -2.69873133
               5.41656681                3.09071963               24.99366163                0.00010000               -1.23368260                0.02970974               -0.00360607                2.21237673                7.20424460               -3.10561506
               6.40418432                2.97959087               24.96279565                0.00010000               -1.00094786               -0.08223212               -0.16849325                1.81622176                6.39615899               -1.05966367
               7.39654785                2.87282312               24.92469632                0.00010000               -0.62937391               -0.16162302               -0.34447098                1.49784665                5.94734928                1.06249288
               8.39159684                2.76824054               24.88464254                0.00010000               -0.48543540               -0.17956433               -0.53135875                1.14972564                5.61711441                1.32175547
               9.38683914                2.66821866               24.83972994                0.24593322               -0.11534832                0.18530281               -0.74250230                0.37822763                3.54339374                2.71379269
              10.38928988                2.56082790               24.75795462                1.00000000                0.29347680                0.29662858               -0.99815285               -0.00744512                0.85832255                1.02914398
              11.39270868                2.45376187               24.65926490                1.00000000                0.34188001                0.41216393               -1.31138399               -0.01193426                0.01438908               -0.65526239
               1.55753013                4.57255674               25.25909538                1.00000000               -0.20116645               -0.27460596                0.83467489               -0.02009926                0.09980577                1.28711197
               2.55551847                4.44887432               25.15464683                0.89608238               -0.16497321               -0.17074129                0.55738550                0.00036169                0.14071481               -0.18864508
               3.55423067                4.32478267               25.05096094                0.18410097               -0.07557083               -0.06875738                0.29107738               -0.04418963                1.15458972               -1.55282876
               4.55400705                4.19941697               24.96677573                0.00010000               -0.70483320                0.05640530                0.00747072                0.64536536                6.18887509               -2.48613815
               5.54013400                4.09045209               24.96371643                0.00010000               -1.34971546                0.08173566               -0.09544989                1.24586671                9.86228434               -1.44654115
               6.52701274                3.98085279               24.95281265                0.00010000               -1.28235336                0.18683370               -0.19101356                1.11097088                9.19018662               -0.43736393
               7.51448693                3.87294269               24.93609648                0.00010000               -1.17897221                0.13100840               -0.30790698                0.95457241                8.76124762                0.70254905
               8.50343330                3.76851059               24.91623583                0.00010000               -1.04418109                0.10566375               -0.44973930                0.88049293                8.64449387                1.84274423
               9.49360331                3.66934999               24.89673864                0.22130687               -0.38064937                0.08234348               -0.62553876                0.36886402                4.71766693                3.25149188
              10.49582031                3.56360598               24.79770713                0.85308605                0.27315433                0.25783492               -0.93230860                0.00216293                0.42185162                1.04792176
              11.49906640                3.45789225               24.69205155                1.00000000                0.32460914                0.41288171               -1.25524857               -0.02039479                0.09465197               -0.46515810
               1.68044274                5.56997751               25.22895243                1.00000000               -0.16084214               -0.23516550                0.70195872               -0.02475137                0.12491411                1.11058170
               2.67883432                5.44739310               25.11725392                0.72540949               -0.12292452               -0.12361822                0.40848172               -0.00639431                0.25449446               -0.40425881
               3.67798425                5.32436211               25.00808877                0.12525335               -0.13692307               -0.01405727                0.12964199                0.00553937                1.75550069               -1.78537699
               4.67609586                5.20113058               24.92640120                0.00010000               -0.89679691                0.29884702               -0.23225599                0.42023394                8.05084709               -1.15418000
               5.66004832                5.09235434               24.94278879                0.00010000               -1.60913578                0.30425724               -0.19686004                0.94137367               12.42474759               -0.62305430
               6.64391315                4.98332754               24.94869248                0.00010000               -1.60334075                0.34390570               -0.21316907                0.69279146               11.67310529                0.06783800
               7.62798150                4.87544329               24.94995149                0.00010000               -1.55568714                0.32312847               -0.27054063                0.54863361               11.36693900                0.91401360
               8.61279940                4.77035381               24.94936490                0.00010000               -1.44302337                0.22025929               -0.35991022                0.53773411               11.33804056                1.88356593
               9.59912103                4.66986553               24.94942509                0.22797531               -0.60042666                0.03781353               -0.47864772                0.23442709                5.88743464                2.87070286
              10.60079087                4.56598460               24.83895858                0.75692173                0.23036000                0.22101683               -0.81765260                0.01389514                0.22338065                1.09116275
              11.60372823                4.46201951               24.72547345                1.00000000                0.29373632                0.40358704               -1.18013063               -0.02108162                0.07785308               -0.44736413
               1.80220392                6.56785343               25.19705771                1.00000000               -0.11979452               -0.18804869                0.56403114               -0.02464250                0.06717106                0.96119951
               2.80100598                6.44640196               25.07729826                0.61873591               -0.07999713               -0.07615135                0.25845585               -0.00616961                0.24314778               -0.58229781
               3.80060398                6.32450153               24.96099992                0.09407669               -0.32932378                0.03759553               -0.03508643                0.15664637                3.42904712               -2.12102811
               4.79441950                6.20539391               24.90495719                0.00010000               -1.19197358                0.47826894               -0.44503533                0.35769778               10.49190649                0.08425271
               5.77676451                6.09653724               24.92935022                0.00010000               -1.83199392                0.51956266               -0.27331921                0.69109857               14.25413715               -0.00753080
               6.75777962                5.98773091               24.94894185                0.00010000               -1.91655857                0.54644777               -0.22420160                0.42512922               13.88069540                0.40532393
               7.73843334                5.87940526               24.96581590                0.00010000               -1.90069444                0.47883426               -0.22816932                0.19654903               13.73512811                1.03474563
               8.71976573                5.77291578               24.98209091                0.00010000               -1.78861337                0.29309209               -0.26610028                0.12135096               13.78759136                1.80316455
               9.70266107                5.67010626               24.99932066                0.24623342               -0.79107496                0.01199215               -0.32842756                0.00880272                7.03727259                2.62413915
              10.70394423                5.56802632               24.87967430                0.70107169                0.19569414                0.18826224               -0.70691540                0.01249394                0.12868979                1.01247120
              11.70657495                5.46596399               24.75845182                1.00000000                0.26307171                0.38030909               -1.09158447               -0.01606086                0.05669009               -0.50009730
               1.92285283                7.56621654               25.16389822                1.00000000               -0.07899995               -0.14026294                0.42683041               -0.02344776                0.02793542                0.87533879
               2.92206283                7.44587007               25.03627936                0.56540215               -0.03637981               -0.03142263                0.11209605               -0.00316449                0.16343472               -0.64563049
               3.92212523                7.32511402               24.91131133                0.07598867               -0.54243620                0.08157919               -0.19891420                0.33958769                5.46088510               -2.29572550
               4.91121411                7.21069595               24.88964224                0.00010000               -1.52959729                0.56728541               -0.46162194                0.53300402               13.27923048                0.27165146
               5.89153329                7.10274559               24.92080002                0.00010000               -2.08331973                0.72493617               -0.30270793                0.59698719               15.89380816                0.29091012
               6.86954771                6.99425650               24.95171091                0.00010000               -2.24028381                0.77859239               -0.21906181                0.22663185               15.87408217                0.54295964
               7.84672761                6.88501997               24.98233077                0.00010000               -2.25111452                0.67187087               -0.18192215               -0.14751230               15.93112970                1.01073699
               8.82452542                6.77621566               25.01393966                0.00010000               -2.12705322                0.38990538               -0.17550316               -0.35651995               16.10746828                1.65425321
               9.80418655                6.67010537               25.04740708                0.27077640               -0.96712047               -0.00932664               -0.19198986               -0.26901997                8.17052361                2.43889224
              10.80518301                6.56974984               24.91943122                0.67379262                0.16725556                0.15754138               -0.59897302                0.00294375                0.07157702                0.90838487
              11.80753166                6.46962569               24.79062257                1.00000000                0.23486465                0.34967105               -1.00591412               -0.01171869                0.03811692               -0.58003918
               2.04242789                8.56504817               25.13024612                1.00000000               -0.03826924               -0.09506851                0.29194706               -0.02247180                0.01008352                0.85458115
               3.04204520                8.44577351               24.99499101                0.56044857                0.00709806                0.01185822               -0.03139383               -0.00035942                0.05742704               -0.65576265
               4.04256985                8.32613311               24.86062238                0.06037336               -0.72985939                0.12107510               -0.35793317                0.53857589                7.39656698               -2.21661783
               5.02744801                8.21673962               24.87214530                0.00010000               -1.87130731                0.69110465               -0.41481089                0.80700291               16.17689716                0.17857165
               6.00514371                8.11103596               24.91346771                0.00010000               -2.37050654                0.95548675               -0.29988811                0.58850401               17.66928546                0.30237336
               6.98003788                8.00330275               24.95489142                0.00010000               -2.58098870                1.01688030               -0.20574225                0.10523015               17.76944703                0.48224183
               7.95352393                7.89284267               24.99795810                0.00010000               -2.62439742                0.94426792               -0.13548823               -0.41612186               18.01709301                0.81965203
               8.92754993                7.78071388               25.04394599                0.01324511               -2.48887262                0.57392881               -0.09201547               -0.89980387               18.38084078                1.37141677
               9.90374648                7.66991972               25.09373520                0.29969133               -1.15335690               -0.02092774               -0.07377782               -0.61634300                9.33208188                2.17863032
              10.90448280                7.57117714               24.95807920                0.67366164                0.14212041                0.13156026               -0.50106464               -0.01176924                0.04388338                0.81339807
              11.90658889                7.47295742               24.82179353                1.00000000                0.21060941                0.31510248               -0.92894046               -0.00767268                0.02221349               -0.67528443
               2.16095272                9.56431517               25.09661878                1.00000000                0.00179818               -0.05330799                0.15959612               -0.02192227               -0.00949591                0.73550495
               3.16097070                9.44610724               24.95370896                0.58559955                0.04889629                0.05454951               -0.17239402                0.00080603                0.07528804               -0.56085790
               4.16193064                9.32753553               24.81243295                0.02443957               -0.92596924                0.15879130               -0.50384160                0.80251732                9.35583290               -1.52614426
               5.14245131                9.22451805               24.85512226                0.00010000               -2.25952068                1.03413985               -0.41073473                0.84437139               18.93441413                0.18933605
               6.11674023                9.12185533               24.90535364                0.00010000               -2.63028561                1.13453948               -0.30645905                0.46721484               19.37703996                0.17446164
               7.08984560                9.01459410               24.95663646                0.00010000               -2.78730920                1.17814072               -0.19987480                0.05342150               19.59060556                0.27596478
               8.06099405                8.90390533               25.01085420                0.00010000               -3.01966544                1.17355167               -0.09899370               -0.43073513               20.00898039                0.46194608
               9.02945229                8.78769423               25.07029311                0.03657297               -2.97988090                1.05635777               -0.00333943               -1.08510482               20.61696359                0.82056930
              10.00139643                8.66968682               25.13655796                0.33049151               -1.37711783               -0.00829243                0.02231985               -1.05125894               10.62952209                1.44088449
              11.00190994                8.57238105               24.99584808                0.69692428                0.12106167                0.11335551               -0.41726538               -0.02870966                0.13293559                0.64507423
              12.00381766                8.47592774               24.85185105                0.98273304                0.19077242                0.28056506               -0.86461505               -0.00692484               -0.01958898               -0.63762294
               2.27840530               10.56398201               25.06051770                1.00000000                0.04356579               -0.03331577                0.02788134                0.03350745                0.40372758                0.61587825
               3.27884096               10.44686450               24.91426726                0.82983002                0.09020442                0.07572588               -0.30876513                0.05337267                0.78185207               -0.46664656
               4.28020939               10.32930894               24.77551649                0.51186270               -1.44126617                0.17734116               -0.63360171                1.35577064               11.21736749               -0.96225937
               5.25001564               10.23742241               24.83796546                0.36606469               -2.78987224                1.29043657               -0.46981436                0.97732304               21.09484472                0.16852667
               6.22441195               10.13372675               24.89567730                0.35668100               -2.54796641                1.18714230               -0.34266548                0.23932956               21.00167807                0.08882779
               7.19905631               10.02686557               24.95581205                0.37362777               -2.63014217                1.22714643               -0.21374546                0.05041857               21.30842529                0.14686350
               8.17180910                9.91631371               25.01937812                0.41520156               -2.94949808                1.24083772               -0.08554239               -0.16972067               21.80572180                0.25051555
               9.14006635                9.80184104               25.08934236                0.52892092               -3.68873097                1.41468072                0.05494641               -1.26658608               22.53810053                0.47007633
              10.09803448                9.66975388               25.16789177                0.68354610               -2.11993327                0.00670574                0.07640559               -1.75603357               12.16129380                0.88545064
              11.09766768                9.57344425               25.03092525                0.87113479                0.06612653                0.10632040               -0.34985896                0.01651662                0.88197990                0.52557497
              12.09935702                9.47856872               24.88356819                0.98658272                0.16893322                0.26409782               -0.80579045                0.06638172                0.37631465               -0.54369468
               1.13272449                0.62851545               26.38825034                1.00000000               -0.34561903               -0.37384814                1.30343382               -0.06450036               -0.85065823                0.87895315
               2.12926830                0.49375693               26.30203711                1.00000000               -0.29148603               -0.29543128                1.04583963               -0.05017001               -1.09408654                0.07995716
               3.12689477                0.35872024               26.21094037                1.00000000               -0.16798428               -0.21713352                0.77538185               -0.04160871               -1.05163047               -0.21046909
               4.12590861                0.22441405               26.12561296                0.62723530                0.25486543               -0.17020162                0.51412854                0.39476122               -0.15508654               -0.72415740
               5.13199207                0.10023673               26.05254410                0.71555809                0.40152431               -0.05690606                0.22409848               -0.08015214                0.26735156                0.21025937
               6.13393910               -0.01612382               25.97633675                0.79778552                0.14842592                0.02610325               -0.04963290               -0.01064499               -0.07272790                0.12079414
               7.13496059               -0.13084068               25.89659249                0.77429851                0.10160158                0.09879493               -0.32220429                0.00374389               -0.28333558               -0.07065640
               8.13597113               -0.24550026               25.81610984                0.86871293                0.12567817                0.18497386               -0.60462524                0.01096635               -0.53973486                0.09720003
               9.13747416               -0.36172358               25.73099731                1.00000000                0.21284677                0.27195490               -0.88590081                0.00069420               -0.87240042                0.50414594
              10.14022806               -0.47920597               25.64365326                1.00000000                0.32698880                0.34350775               -1.16042451               -0.03854735               -0.89021286                0.00682050
              11.14401393               -0.59689504               25.55813184                1.00000000                0.37858683                0.42441996               -1.42355841               -0.05027154               -0.80037632               -0.80342690
               1.26683800                1.62477696               26.35358280                1.00000000               -0.31738066               -0.35581008                1.17912954               -0.02386277               -0.11852508                1.19539266
               2.26366420                1.49080261               26.26703187                1.00000000               -0.28439434               -0.27472108                0.92295738               -0.00631240               -0.10571364                0.11154618
               3.26115012                1.35654891               26.18069951                0.86242478               -0.22831076               -0.19408842                0.65830105                0.01266476                0.08788088               -0.57137059
               4.25909798                1.22271203               26.09798551                0.19821685               -0.48453132               -0.15591282                0.38856478                0.56065174                1.63760824               -1.12434226
               5.25145949                1.09966767               26.04256470                0.36117479               -0.48633143                0.06022587                0.14413762               -0.10653180                2.38739862                1.00308513
               6.24937135                0.98413721               25.97411976                0.46202267               -0.08866186                0.08396778               -0.10862711                0.11391078                1.51778519                0.42377190
               7.24968625                0.87014727               25.90113629                0.35687158                0.10754449                0.08321769               -0.36234173                0.16561208                1.42704410               -0.35682018
               8.25152224                0.75634947               25.83089571                0.49387546                0.23238495                0.18638571               -0.61134231                0.16250924                1.43162097                0.60549234
               9.25433395                0.64099597               25.75817284                1.00000000                0.29530386                0.26335853               -0.85942744                0.07333002                0.72888801                0.73948799
              10.25742832                0.52422911               25.67402979                1.00000000                0.34331677                0.33624195               -1.12129238                0.00372173                0.09018243                0.10396078
              11.26120029                0.40734916               25.58856235                1.00000000                0.37719675                0.41926385               -1.38318263               -0.00858800                0.02258530               -0.95131076
               1.40019593                2.62139924               26.32521457                1.00000000               -0.28258315               -0.32561152                1.06529584               -0.01640336                0.04368178                1.51773799
               2.39737010                2.48826250               26.23262605                1.00000000               -0.24786474               -0.23893445                0.80356623                0.00800817                0.20480594                0.08609841
               3.39523864                2.35483848               26.14320622                0.51501389               -0.16836075               -0.15890549                0.55053494                0.03169165                0.79131346               -1.34109196
               4.39400289                2.22129579               26.06231795                0.00010000               -1.34011880               -0.13798978                0.26817370                0.78611911                4.57079214               -2.02743297
               5.36843626                2.10144125               26.04845783                0.00010000               -1.41325869                0.12310398                0.06310536                1.44749741                5.22099660               -1.24556930
               6.36573771                1.98555553               25.97797809                0.00010000               -0.11878466               -0.07292130               -0.15818771                1.20521350                2.01330243               -0.31381365
               7.36606057                1.87082367               25.89997360                0.00010000                0.13174504               -0.13251805               -0.38538580                0.97927341                3.32629066                0.48780829
               8.36837261                1.75822745               25.85587649                0.00010000                0.25002772               -0.09435517               -0.62801900                0.64918031                3.90431347                1.03840531
               9.37106112                1.64354359               25.79010824                0.50504447                0.27883457                0.25341703               -0.82300801                0.10728919                1.91189892                1.48793846
              10.37394931                1.52751887               25.70638641                1.00000000                0.32704719                0.31965606               -1.07557696                0.00964332                0.68426077                0.66174010
              11.37760207                1.41149024               25.61606204                1.00000000                0.36527625                0.41418737               -1.35060812               -0.00743758                0.35327645               -0.96734222
               1.53278342                3.61826473               26.29698115                1.00000000               -0.23982888               -0.30219029                0.94956420               -0.01368223                0.07686449                1.45688525
               2.53038513                3.48602392               26.19708316                1.00000000               -0.20163787               -0.20751589                0.68167853                0.00782267                0.09672038               -0.03663979
               3.52875066                3.35337080               26.09752374                0.31237498               -0.10837664               -0.11937513                0.41944128               -0.00855000                1.04377965               -1.64529085
               4.52821759                3.21995224               26.01655174                0.00010000               -0.63004795               -0.09427851                0.15098741                0.78463170                4.87667460               -2.72399905
               5.51614970                3.10212975               25.99361043                0.00010000               -1.20621986                0.02057755               -0.00632273                2.07462200                7.32537031               -3.10039742
               6.50409320                2.98267878               25.96108429                0.00010000               -0.97749478               -0.08561527               -0.17370757                1.69357948                6.51607554               -1.01344972
               7.49659980                2.86749691               25.92121176                0.00010000               -0.61536323               -0.16480367               -0.35279397                1.38437672                6.06361652                1.13729315
               8.49178593                2.75446237               25.87927965                0.00010000               -0.47057432               -0.17999874               -0.54162049                1.06937892                5.72331153                1.41910447
               9.48718832                2.64606431               25.83226258                0.24349634               -0.10556976                0.16870246               -0.75059717                0.34187769                3.62356011                2.79201562
              10.48967454                2.53062223               25.74794620                1.00000000                0.29602409                0.29228577               -1.00244419               -0.01509644                0.88742857                1.05730160
              11.49310880                2.41563291               25.64614322                1.00000000                0.34342620                0.41496750               -1.31191845               -0.01093736                0.01423093               -0.67324215
               1.66440391                4.61535544               26.26739351                1.00000000               -0.19834198               -0.27396775                0.82479728               -0.02020106                0.10792509                1.29507072
               2.66242049                4.48411219               26.16018934                0.88718391               -0.16322929               -0.16823617                0.55103834               -0.00013052                0.15452090               -0.20151673
               3.66113932                4.35245097               26.05385969                0.18891433               -0.07419579               -0.06486296                0.28867933               -0.05055368                1.16604822               -1.58188425
               4.66093657                4.21941022               25.96687306                0.00010000               -0.69685827                0.05509555                0.01188637                0.59466699                6.27907036               -2.56412294
               5.64720216                4.10185280               25.96276993                0.00010000               -1.33472144                0.08041968               -0.09400549                1.14749951               10.05192659               -1.45341719
               6.63424214                3.98384323               25.95087756                0.00010000               -1.26188205                0.17829550               -0.19630070                1.01154964                9.38240270               -0.39569477
               7.62196452                3.86752760               25.93296173                0.00010000               -1.15246765                0.11994807               -0.31950918                0.85802671                8.94225918                0.77695538
               8.61119279                3.75462748               25.91165887                0.00010000               -1.01128480                0.09162644               -0.46594735                0.78924551                8.80826119                1.93742094
               9.60173882                3.64691764               25.89038497                0.21762231               -0.35570074                0.05466395               -0.64448945                0.32804889                4.81318657                3.36048223
              10.60407878                3.53336458               25.78831583                0.83330328                0.28115715                0.25290277               -0.94426485                0.00081931                0.44652561                1.09381958
              11.60736196                3.41978959               25.67946329                1.00000000                0.32831871                0.41804536               -1.26063224               -0.02249953                0.11054099               -0.46758554
               1.79486590                5.61278538               26.23591813                1.00000000               -0.15789179               -0.23399586                0.69106135               -0.02489681                0.12640789                1.11137315
               2.79328698                5.48265920               26.12130407                0.71766945               -0.12121758               -0.12050814                0.40138353               -0.00711053                0.26353119               -0.42668655
               3.79244155                5.35207354               26.00937270                0.12834522               -0.12889346               -0.00914399                0.12687345               -0.00776976                1.73617073               -1.83076832
               4.79070911                5.22105415               25.92420213                0.00010000               -0.88874303                0.28827339               -0.20852407                0.36951399                8.17959104               -1.25841057
               5.77466669                5.10373814               25.94086608                0.00010000               -1.60298614                0.30117983               -0.18788216                0.84381181               12.72847021               -0.62123908
               6.75864939                4.98624469               25.94654286                0.00010000               -1.58452979                0.33577392               -0.21715253                0.59649770               11.94540885                0.11362228
               7.74297609                4.86989587               25.94717750                0.00010000               -1.52342925                0.30924437               -0.28481646                0.45236422               11.61845729                0.98852425
               8.72818080                4.75629490               25.94565696                0.00010000               -1.39819516                0.20217495               -0.38209190                0.43999759               11.57436592                1.98110296
               9.71501219                4.64715759               25.94449306                0.22410485               -0.56809147                0.01477638               -0.50768414                0.19081198                6.01812926                2.99278858
              10.71681897                4.53568028               25.83068844                0.73910531                0.23983079                0.21522662               -0.83504779                0.01775108                0.23675350                1.15723358
              11.71980880                4.42399381               25.71361639                1.00000000                0.29898289                0.41209347               -1.18951567               -0.02196416                0.07834809               -0.43426773
               1.92415833                6.61067552               26.20263937                1.00000000               -0.11682130               -0.18636093                0.55218535               -0.02460962                0.06626439                0.95975344
               2.92299012                6.48170202               26.07984837                0.61240248               -0.07846755               -0.07273550                0.25135992               -0.00666921                0.24840638               -0.60302927
               3.92258898                6.35226809               25.96063968                0.09586611               -0.31639319                0.04321087               -0.03732621                0.13276830                3.39298456               -2.16680113
               4.91666225                6.22517569               25.90073786                0.00010000               -1.18505640                0.46509755               -0.39715562                0.28574932               10.67432163                0.08961948
               5.89888785                6.10787639               25.92669988                0.00010000               -1.83239401                0.51249624               -0.25643385                0.58965058               14.66470076                0.02676394
               6.88001437                5.99055871               25.94668706                0.00010000               -1.89631274                0.53591417               -0.22707655                0.32258389               14.22438417                0.46033779
               7.86096160                5.87371249               25.96345330                0.00010000               -1.86416736                0.46395966               -0.24497352                0.09533495               14.05505724                1.10923404
               8.84273103                5.75867097               25.97929621                0.00010000               -1.73959592                0.27614704               -0.29338944                0.01636655               14.09701437                1.89714661
               9.82616968                5.64721316               25.99586116                0.24274978               -0.75667274               -0.00124288               -0.36368002               -0.04164688                7.19802856                2.73807938
              10.82759757                5.53766912               25.87248280                0.68465218                0.20629716                0.18481895               -0.73064941                0.01645743                0.13343328                1.07243871
              11.83029562                5.42803146               25.74746175                1.00000000                0.26980498                0.39000921               -1.10530466               -0.01618870                0.05789213               -0.48284009
               2.05232070                7.60905816               26.16810430                1.00000000               -0.07596783               -0.13799901                0.41422599               -0.02339756                0.02718686                0.87537140
               3.05156102                7.48120449               26.03736624                0.56048083               -0.03487285               -0.02811368                0.10501817               -0.00321388                0.16471674               -0.66284260
               4.05162324                7.35293776               25.90931661                0.07654358               -0.53726121                0.08672052               -0.20040965                0.30681974                5.50095982               -2.33781620
               5.04081580                7.23035610               25.88530306                0.00010000               -1.52732802                0.55567665               -0.40215397                0.44014818               13.54015976                0.39630539
               6.02107668                7.11398807               25.91786965                0.00010000               -2.07754121                0.71282464               -0.28259989                0.49524439               16.32575624                0.35641251
               6.99926497                6.99696298               25.94950406                0.00010000               -2.21530813                0.76566370               -0.22259771                0.12473688               16.27023209                0.60296420
               7.97677052                6.87917506               25.98041807                0.00010000               -2.21287595                0.65729023               -0.20124663               -0.24970522               16.31127577                1.08152019
               8.95500745                6.76181784               26.01202917                0.00010000               -2.07947067                0.37715378               -0.20719658               -0.46274804               16.48119865                1.73892808
               9.93518111                6.64713273               26.04528231                0.26799414               -0.93388118               -0.01201841               -0.23319267               -0.32357402                8.36015176                2.53419464
              10.93632983                6.53937666               25.91328769                0.65793666                0.17896208                0.15876454               -0.62952112                0.00492325                0.07179443                0.96005263
              11.93876035                6.43179400               25.78046604                1.00000000                0.24305179                0.35982769               -1.02485688               -0.01105453                0.03857334               -0.56958369
               2.17939772                8.60791554               26.13310014                1.00000000               -0.03514770               -0.09209853                0.27861373               -0.02244893                0.00959172                0.85694826
               3.17904624                8.48113975               25.99464328                0.55688687                0.00880223                0.01482401               -0.03849450               -0.00002931                0.05558663               -0.67001960
               4.17957376                8.35400250               25.85704189                0.05966213               -0.73156661                0.12450048               -0.35845455                0.49831497                7.53970793               -2.24873579
               5.16441491                8.23628922               25.86826078                0.00010000               -1.86939503                0.68054555               -0.35892667                0.71850826               16.53108832                0.29870190
               6.14218586                8.12213289               25.91054281                0.00010000               -2.35463965                0.94047014               -0.28472962                0.50461104               18.10094871                0.36851637
               7.11732212                8.00587198               25.95280357                0.00010000               -2.55366169                1.00473878               -0.21223613                0.02026814               18.20640352                0.53375823
               8.09111263                7.88685829               25.99650152                0.00010000               -2.59018592                0.93389094               -0.15620863               -0.50622245               18.45147543                0.87854893
               9.06551840                7.76621405               26.04285497                0.01487727               -2.44866266                0.56567993               -0.12656141               -0.99888224               18.80878033                1.45304564
              10.04213937                7.64697280               26.09275236                0.29762821               -1.12418158               -0.01358579               -0.12322345               -0.66975423                9.54771576                2.25216410
              11.04303477                7.54084441               25.95287793                0.65709716                0.15502419                0.13871760               -0.53945597               -0.01180620                0.04393086                0.85182086
              12.04523986                7.43522801               25.81237759                1.00000000                0.22050930                0.32537417               -0.95419228               -0.00633360                0.02260898               -0.67621321
               2.30542330                9.60721619               26.09814604                1.00000000                0.00501680               -0.04955718                0.14552545               -0.02195244               -0.01024760                0.73952598
               3.30547347                9.48150097               25.95195110                0.58261922                0.05083817                0.05711597               -0.17964862                0.00114272                0.07524355               -0.57129238
               4.30644007                9.35542777               25.80739907                0.02246580               -0.92089452                0.16018888               -0.50323220                0.75617513                9.57348467               -1.54308047
               5.28705558                9.24396701               25.85115395                0.00010000               -2.24269593                1.01939347               -0.38256878                0.78469005               19.37540070                0.24477008
               6.26158615                9.13279747               25.90231767                0.00010000               -2.60553243                1.12085235               -0.30114934                0.41889193               19.83626358                0.21172234
               7.23494493                9.01705775               25.95458555                0.00010000               -2.76410735                1.17043471               -0.21091334                0.00451961               20.07225830                0.30488820
               8.20630400                8.89785288               26.00975640                0.00010000               -3.00148148                1.17177755               -0.12058234               -0.48888362               20.50748912                0.49578222
               9.17491530                8.77313144               26.07012030                0.04018767               -2.95741681                1.05809878               -0.02946577               -1.15413743               21.09084776                0.88481680
              10.14715567                8.64686101               26.13648833                0.32925422               -1.35384046                0.00743513               -0.03724768               -1.09598977               10.85865542                1.48247895
              11.14783849                8.54215101               25.99144192                0.67779296                0.13554027                0.12619625               -0.46480686               -0.02968540                0.13765684                0.66812969
              12.14986647                8.43830148               25.84304512                0.98260677                0.20279772                0.29125260               -0.89703744               -0.00537563               -0.01760457               -0.64786682
               2.43038911               10.60692440               26.06072585                1.00000000                0.04684100               -0.02917922                0.01336118                0.03234741                0.40619117                0.62044185
               3.43085752               10.48228207               25.91114447                0.82893077                0.09210584                0.07810984               -0.31643023                0.05249868                0.79072115               -0.47444125
               4.43223122               10.35720628               25.76918522                0.51068491               -1.40592540                0.17785143               -0.63323098                1.29886684               11.47575001               -0.97090077
               5.40273901               10.25667709               25.83329259                0.36641527               -2.73791319                1.27100822               -0.46583471                0.93552523               21.60676206                0.18307114
               6.37747296               10.14454993               25.89224235                0.35686744               -2.51909555                1.17524644               -0.34523196                0.21886004               21.51421161                0.10362309
               7.35235710               10.02928067               25.95359645                0.37343251               -2.61058449                1.22229213               -0.23027328                0.02841181               21.84026486                0.15784923
               8.32526127                9.91029384               26.01839745                0.41449285               -2.94647908                1.24409615               -0.11062495               -0.19950569               22.36479184                0.26497485
               9.29342752                9.78737603               26.08977294                0.53154797               -3.70306327                1.42445865                0.03442819               -1.30739586               23.04894113                0.50966018
              10.25120000                9.64712150               26.16832023                0.68354705               -2.12134636                0.02604871                0.00772974               -1.79595087               12.41137019                0.90688779
              11.25100059                9.54336833               26.02715089                0.86049200                0.08157041                0.12173174               -0.40641199                0.01278756                0.90963721                0.54114438
              12.25283141                9.44105306               25.87531560                0.98640137                0.18308238                0.27515804               -0.84562675                0.06496709                0.39086648               -0.55640832
               1.21164604                0.67265975               27.40125705                1.00000000               -0.34503676               -0.37245919                1.29820017               -0.06382710               -0.86474261                0.89167494
               2.20819567                0.53019867               27.31247458                1.00000000               -0.29225370               -0.29385755                1.04198160               -0.04915797               -1.11471829                0.08459216
               3.20580096                0.38744118               27.21868267                1.00000000               -0.17167203               -0.21543579                0.77349125               -0.04199376               -1.07454398               -0.21034411
               4.20476223                0.24532824               27.13074952                0.62759001                0.23428536               -0.16832505                0.51365677                0.37067550               -0.18839968               -0.74363358
               5.21048667                0.11276531               27.05479376                0.71519493                0.37982271               -0.05797007                0.22687264               -0.07807585                0.22271162                0.21998530
               6.21235868               -0.01237201               26.97585256                0.79684605                0.14611080                0.02516753               -0.04678872               -0.01286279               -0.11200575                0.12745850
               7.21340889               -0.13589839               26.89338083                0.77352270                0.10924953                0.09804143               -0.32040667                0.00190454               -0.32751168               -0.07226497
               8.21454367               -0.25925658               26.81007745                0.86722301                0.13735522                0.18369916               -0.60257899                0.00641626               -0.58675725                0.10137307
               9.21615599               -0.38392750               26.72216093                1.00000000                0.21984756                0.26957264               -0.88235945               -0.00219753               -0.91393781                0.51637531
              10.21894063               -0.50970796               26.63208377                1.00000000                0.32807195                0.34204172               -1.15463119               -0.03732971               -0.92194788                0.00684337
              11.22271743               -0.63567549               26.54393857                1.00000000                0.37768048                0.42358287               -1.41634899               -0.04837376               -0.82598694               -0.82611790
               1.35346885                1.66893516               27.36534200                1.00000000               -0.31554775               -0.35484938                1.17282959               -0.02299155               -0.12168222                1.21309199
               2.35031338                1.52726009               27.27623632                1.00000000               -0.28263061               -0.27323405                0.91807416               -0.00530025               -0.11327283                0.11788637
               3.34781624                1.38528682               27.18726231                0.87107123               -0.22532271               -0.19204417                0.65432661                0.01028798                0.07327856               -0.56620332
               4.34580692                1.24364499               27.10185322                0.20414682               -0.46301040               -0.15302386                0.38475062                0.52694145                1.63351311               -1.14093431
               5.33855603                1.11218561               27.04399441                0.36585956               -0.46225086                0.05677370                0.14264887               -0.10086639                2.39714602                1.01199601
               6.33656190                0.98787967               26.97302894                0.46724007               -0.08429067                0.08143194               -0.10895844                0.10399040                1.52476944                0.43517167
               7.33687022                0.86508202               26.89751122                0.36407822                0.10302437                0.08771197               -0.36291740                0.15494720                1.43619408               -0.34969961
               8.33862239                0.74258041               26.82478120                0.49839218                0.22447419                0.18713093               -0.61228686                0.14642401                1.44367354                0.60419532
               9.34135970                0.61876823               26.74958688                1.00000000                0.29094650                0.26202312               -0.85854115                0.06651204                0.73488196                0.75662214
              10.34444132                0.49371246               26.66283197                1.00000000                0.34207603                0.33498785               -1.11923236                0.00476637                0.08962320                0.10824353
              11.34820122                0.36856034               26.57475440                1.00000000                0.37599024                0.41983748               -1.37948157               -0.00671892                0.02244292               -0.97640462
               1.49453635                2.66556277               27.33582860                1.00000000               -0.27983453               -0.32533857                1.05748673               -0.01566197                0.04477395                1.53951768
               2.49173800                2.52473399               27.24063356                1.00000000               -0.24572593               -0.23741262                0.79795075                0.00844959                0.21028221                0.09298688
               3.48962183                2.38360030               27.14869219                0.52825030               -0.16678631               -0.15544222                0.54678542                0.02676129                0.78571925               -1.34209037
               4.48840228                2.24226776               27.06497287                0.00010000               -1.26935848               -0.13388042                0.26260159                0.73991686                4.58916761               -2.03758079
               5.46423466                2.11390078               27.04906546                0.00010000               -1.34301009                0.11069839                0.06053549                1.34872530                5.29114667               -1.23199350
               6.46154207                1.98925663               26.97638282                0.00010000               -0.12137846               -0.07286305               -0.15984104                1.11488365                2.07543937               -0.28152063
               7.46180709                1.86585585               26.89610693                0.00010000                0.11219393               -0.12505864               -0.38840414                0.89920009                3.37735567                0.53017058
               8.46378595                1.74448604               26.84956404                0.00010000                0.22735460               -0.08700843               -0.63618304                0.59234868                3.97206016                1.08506122
               9.46635418                1.62131296               26.78186134                0.50657200                0.27289425                0.25070088               -0.82704234                0.08949266                1.97415781                1.52808451
              10.46924384                1.49699180               26.69562935                1.00000000                0.32665551                0.31660263               -1.07635411                0.00623928                0.70656710                0.68430585
              11.47288729                1.37272126               26.60256873                1.00000000                0.36434543                0.41677201               -1.34862724               -0.00715181                0.36422997               -0.99099117
               1.63481317                3.66242839               27.30643206                1.00000000               -0.23683399               -0.30207982                0.94057524               -0.01362369                0.08144424                1.47312645
               2.63244484                3.52251184               27.20387000                1.00000000               -0.19977405               -0.20554563                0.67562834                0.00771469                0.10445052               -0.03537384
               3.63081769                3.38217798               27.10170720                0.32116612               -0.10700292               -0.11521345                0.41729017               -0.01491931                1.05122212               -1.65761009
               4.63030478                3.24096738               27.01806438                0.00010000               -0.61380143               -0.08918192                0.15181288                0.72487655                4.93518004               -2.74179958
               5.61854167                3.11439957               26.99353518                0.00010000               -1.17001332                0.01136631               -0.00857284                1.91942057                7.44133968               -3.09050619
               6.60690451                2.98642241               26.95932150                0.00010000               -0.94584241               -0.08881515               -0.17889826                1.55540998                6.63018859               -0.96651993
               7.59962482                2.86258085               26.91764044                0.00010000               -0.59461285               -0.16699007               -0.36196399                1.25807738                6.17413905                1.21029121
               8.59501225                2.74084024               26.87381013                0.00010000               -0.44905115               -0.18021666               -0.55311407                0.97953588                5.82660901                1.51480475
               9.59064379                2.62378224               26.82471800                0.24060906               -0.09272227                0.15080925               -0.75874676                0.30300906                3.70381512                2.86605982
              10.59315781                2.50004451               26.73790574                1.00000000                0.29777360                0.28741659               -1.00418035               -0.02288992                0.91701397                1.08570297
              11.59659927                2.37689578               26.63302654                1.00000000                0.34414585                0.41730540               -1.30991465               -0.01012310                0.01357465               -0.68711111
               1.77409698                4.65952117               27.27559133                1.00000000               -0.19542704               -0.27346396                0.81474459               -0.02051755                0.11604021                1.30219708
               2.77214271                4.52062307               27.16566760                0.87826527               -0.16145363               -0.16557494                0.54453470               -0.00098003                0.16850482               -0.21418735
               3.77086790                4.38129603               27.05673452                0.19312220               -0.07322468               -0.06056144                0.28611929               -0.05735184                1.17931811               -1.60988422
               4.77067821                4.24048412               26.96701346                0.00010000               -0.68499324                0.05650941                0.01551924                0.53608052                6.36829366               -2.62905941
               5.75716804                4.11412811               26.96183632                0.00010000               -1.31046076                0.08000200               -0.09302598                1.03657684               10.23336422               -1.45273402
               6.74446900                3.98748033               26.94888664                0.00010000               -1.23086175                0.16840407               -0.20227791                0.89966622                9.56401540               -0.35144221
               7.73255080                3.86251605               26.92970629                0.00010000               -1.11468595                0.10706744               -0.33218564                0.75065519                9.11325987                0.85112310
               8.72217528                3.74088170               26.90691688                0.00010000               -0.96703563                0.07491476               -0.48316064                0.68860041                8.96390877                2.02959416
               9.71321009                3.62432915               26.88384885                0.21356967               -0.32513883                0.02314316               -0.66228533                0.28333841                4.90671658                3.46288937
              10.71567250                3.50274013               26.77882184                0.81357679                0.28861017                0.24588911               -0.95173824               -0.00084870                0.47276809                1.13823463
              11.71898230                3.38106737               26.66683891                1.00000000                0.33097933                0.42199532               -1.26123438               -0.02527483                0.12634404               -0.46706577
               1.91219902                5.65695911               27.24277365                1.00000000               -0.15486427               -0.23294224                0.68001652               -0.02516494                0.12755117                1.11129396
               2.91065037                5.51920034               27.12528159                0.70992814               -0.11947034               -0.11719347                0.39401235               -0.00806361                0.27244130               -0.44881481
               3.90980961                5.38096675               27.01062624                0.13076705               -0.12280323               -0.00372144                0.12360740               -0.01982511                1.72774341               -1.87486174
               4.90819431                5.24209757               26.92223072                0.00010000               -0.87663085                0.28006261               -0.18720556                0.31001963                8.31057725               -1.33838096
               5.89227699                5.11599961               26.93903115                0.00010000               -1.58422072                0.29704178               -0.17937512                0.73171068               13.01440531               -0.60971785
               6.87650990                4.98979049               26.94434943                0.00010000               -1.55202231                0.32480654               -0.22207308                0.48837353               12.20103130                0.16275361
               7.86123655                4.86472220               26.94425516                0.00010000               -1.47693661                0.29166626               -0.30033822                0.34612865               11.85517811                1.06322604
               8.84697116                4.74233854               26.94172306                0.00010000               -1.33922060                0.18023961               -0.40520606                0.33228922               11.79686627                2.07664592
               9.83445213                4.62424511               26.93927141                0.21982959               -0.52842758               -0.01252736               -0.53660894                0.14243577                6.14382278                3.11066318
              10.83640261                4.50496230               26.82225763                0.72121924                0.24935804                0.20678519               -0.84956041                0.02151958                0.25201621                1.22164403
              11.83943930                4.38533569               26.70168314                1.00000000                0.30366845                0.41950873               -1.19542522               -0.02303106                0.07842952               -0.41884270
               2.04911122                6.65486232               27.20810142                1.00000000               -0.11374262               -0.18479565                0.54015181               -0.02462873                0.06529529                0.95740795
               3.04797379                6.51827920               27.08232546                0.60604144               -0.07685219               -0.06910152                0.24389752               -0.00731184                0.25361735               -0.62314696
               4.04757418                6.38122160               26.96025340                0.09694765               -0.30640260                0.04943734               -0.04022017                0.11020891                3.38060560               -2.21069451
               5.04184574                6.24608537               26.89701408                0.00010000               -1.17324240                0.45007898               -0.34692956                0.20586461               10.86209370                0.11629636
               6.02410933                6.12006894               26.92422154                0.00010000               -1.81659297                0.50156475               -0.23925557                0.47307518               15.04414632                0.06846805
               7.00551388                5.99397646               26.94440032                0.00010000               -1.85919991                0.52043912               -0.23086643                0.20872348               14.54525588                0.51779831
               7.98692533                5.86834937               26.96091643                0.00010000               -1.81078631                0.44399786               -0.26313179               -0.01492463               14.35597730                1.18422837
               8.96929816                5.74448650               26.97622312                0.00010000               -1.67451408                0.25484592               -0.32174329               -0.09783906               14.38922235                1.99025842
               9.95343505                5.62407860               26.99204706                0.23885279               -0.71429217               -0.01735192               -0.39914625               -0.09658691                7.35115289                2.85055445
              10.95501231                5.50687584               26.86506131                0.66805410                0.21699211                0.17967352               -0.75298628                0.02057516                0.13903046                1.13103827
              11.95777489                5.38945754               26.73634573                1.00000000                0.27625780                0.39912444               -1.11725266               -0.01647212                0.05876861               -0.46346934
               2.18487268                7.65326320               27.17218274                1.00000000               -0.07278236               -0.13584625                0.40129904               -0.02337758                0.02643102                0.87452181
               3.18414486                7.51781831               27.03837972                0.55537767               -0.03325328               -0.02454707                0.09744939               -0.00331533                0.16601198               -0.67953125
               4.18420762                7.38195550               26.90730314                0.07633137               -0.53403007                0.09271676               -0.20259134                0.27265867                5.57106522               -2.37797340
               5.17346426                7.25109915               26.88159917                0.00010000               -1.51801051                0.53886923               -0.33692358                0.33992622               13.80763104                0.52604435
               6.15384741                7.12603091               26.91514802                0.00010000               -2.05301621                0.69446637               -0.26191558                0.38053465               16.71936916                0.42259889
               7.13240394                7.00019927               26.94725895                0.00010000               -2.17096951                0.74599861               -0.22712040                0.01323045               16.63998160                0.66371610
               8.11042802                6.87360216               26.97830584                0.00010000               -2.15593901                0.63629743               -0.22195145               -0.35935538               16.66951966                1.15393823
               9.08928516                6.74743546               27.00979573                0.00010000               -2.01484806                0.35985863               -0.23997534               -0.57637753               16.83466681                1.82433079
              10.07013106                6.62389807               27.04274322                0.26488010               -0.89249927               -0.01608097               -0.27459360               -0.38184513                8.53916923                2.62725741
              11.07143517                6.50855577               26.90684080                0.64183524                0.19076900                0.15917497               -0.65948016                0.00719898                0.07145012                1.01042602
              12.07394644                6.39331818               26.77012543                1.00000000                0.25112676                0.36982632               -1.04296548               -0.01041608                0.03876378               -0.55731802
               2.31953345                8.65214540               27.13581840                1.00000000               -0.03182583               -0.08916096                0.26476467               -0.02246565                0.00913361                0.85845598
               3.31921519                8.51778826               26.99422112                0.55295811                0.01065342                0.01809476               -0.04625766                0.00041084                0.05402795               -0.68392977
               4.31974651                8.38307594               26.85345329                0.05811542               -0.73231662                0.12875428               -0.35968735                0.45321794                7.71002788               -2.27895206
               5.30456886                8.25686276               26.86496677                0.00010000               -1.85633100                0.66412458               -0.30066458                0.62294013               16.88927723                0.40254100
               6.28261989                8.13395827               26.90777312                0.00010000               -2.31808055                0.91796615               -0.27021048                0.41100873               18.49503499                0.42947293
               7.25820724                8.00889643               26.95064670                0.00010000               -2.50589273                0.98498561               -0.22003798               -0.07174235               18.61829609                0.58502742
               8.23250204                7.88107532               26.99483393                0.00010000               -2.53662746                0.91614413               -0.17782071               -0.60158518               18.86289536                0.94069003
               9.20747470                7.75168367               27.04141477                0.01653689               -2.39121020                0.55185696               -0.16170978               -1.10330912               19.21135104                1.54319934
              10.18467784                7.62375698               27.09127073                0.29543768               -1.08692551               -0.00647688               -0.17305450               -0.72537391                9.74818141                2.32114307
              11.18573618                7.51005934               26.94729008                0.64032633                0.16819567                0.14574603               -0.57825091               -0.01158952                0.04265217                0.88804170
              12.18804175                7.39685407               26.80270968                1.00000000                0.23055645                0.33571098               -0.97966593               -0.00488986                0.02278810               -0.67591435
               2.45313765                9.65147998               27.09952928                1.00000000                0.00848947               -0.04570881                0.13076088               -0.02205526               -0.01096014                0.74290419
               3.45322254                9.51818020               26.95011599                0.57895203                0.05299181                0.06003341               -0.18782779                0.00157158                0.07591433               -0.58166070
               4.45419748                9.38453058               26.80236831                0.01972894               -0.90909066                0.16213407               -0.50323581                0.70155931                9.80260953               -1.55889028
               5.43504073                9.26438164               26.84747088                0.00010000               -2.20817873                0.99718989               -0.35692850                0.71922699               19.81353786                0.27540176
               6.41003391                9.14439023               26.89933066                0.00010000               -2.55943452                1.09957865               -0.29791073                0.36448869               20.26941756                0.24424040
               7.38385204                9.01989898               26.95241819                0.00010000               -2.72124146                1.15521542               -0.22372245               -0.04829650               20.53267928                0.33365275
               8.35560908                8.89192504               27.00844255                0.00010000               -2.96573616                1.16278874               -0.14235737               -0.54999903               20.98925278                0.53265419
               9.32453731                8.75847259               27.06970379                0.04410721               -2.91805829                1.05226389               -0.05161037               -1.22544051               21.53189713                0.96253034
              10.29724791                8.62376853               27.13581301                0.32822560               -1.32155126                0.02354293               -0.09833059               -1.13978998               11.06059509                1.51879660
              11.29810629                8.51147069               26.98655194                0.65868825                0.15056288                0.13949342               -0.51397364               -0.03036292                0.14079949                0.68847952
              12.30025917                8.40003240               26.83391030                0.98221668                0.21528813                0.30227616               -0.93081656               -0.00367025               -0.01546249               -0.65711379
               2.58569189               10.65123122               27.06078492                1.00000000                0.05041254               -0.02487554               -0.00195460                0.03119500                0.40818790                0.62456321
               3.58619601               10.51898893               26.90793866                0.82743460                0.09421899                0.08087259               -0.32536899                0.05171708                0.79984709               -0.48232587
               4.58757627               10.38631862               26.76285187                0.50912110               -1.35511341                0.17880340               -0.63403862                1.22875986               11.73249783               -0.97897450
               5.55909375               10.27680656               26.82864876                0.36674497               -2.65919742                1.24249186               -0.46534058                0.88686315               22.10920432                0.17683099
               6.53439232               10.15594984               26.88877266                0.35705435               -2.46936195                1.15596112               -0.35070679                0.19555057               22.00886357                0.11631629
               7.50970651               10.03200074               26.95120658                0.37323534               -2.57319355                1.21017569               -0.24914863                0.00450961               22.35255066                0.16948813
               8.48292845                9.90433110               27.01716562                0.41376612               -2.92920565                1.24060568               -0.13596747               -0.23165264               22.91310688                0.28222917
               9.45112239                9.77272895               27.09003092                0.53440231               -3.70222525                1.42563524                0.02098335               -1.34665488               23.52291720                0.56183014
              10.40888394                9.62422784               27.16804636                0.68373019               -2.11286664                0.04593083               -0.06374046               -1.83038399               12.62377509                0.92338583
              11.40886506                9.51284920               27.02279701                0.84993981                0.09804911                0.13785173               -0.46585122                0.00946498                0.93462313                0.55413414
              12.41084493                9.40289959               26.86665565                0.98617757                0.19798651                0.28671981               -0.88781513                0.06361459                0.40541399               -0.56787972
               1.29299456                0.71817904               28.41421434                1.00000000               -0.34462561               -0.37117875                1.29340889               -0.06325805               -0.87766740                0.90333284
               2.28954831                0.56792530               28.32287674                1.00000000               -0.29328079               -0.29239299                1.03864540               -0.04823618               -1.13365642                0.08934065
               3.28712895                0.41735408               28.22641019                1.00000000               -0.17593911               -0.21387485                0.77247573               -0.04258239               -1.09535682               -0.20998597
               4.28602953                0.26733398               28.13588610                0.62761083                0.21071578               -0.16639827                0.51461149                0.34471602               -0.21874588               -0.76288197
               5.29134326                0.12623515               28.05708155                0.71467926                0.35411927               -0.05992598                0.23170163               -0.07472599                0.17943697                0.23058121
               6.29311191               -0.00792740               27.97540097                0.79622216                0.14211021                0.02377839               -0.04330584               -0.01529382               -0.15301591                0.13479663
               7.29418547               -0.14054676               27.89018435                0.77304088                0.11719856                0.09739385               -0.31885196               -0.00040351               -0.37318256               -0.07396352
               8.29545588               -0.27288028               27.80405826                0.86518615                0.15018063                0.18270834               -0.60135858                0.00135648               -0.63370573                0.10434489
               9.29718908               -0.40624797               27.71335012                1.00000000                0.22777943                0.26759735               -0.88017092               -0.00508681               -0.95428304                0.52840811
              10.30001147               -0.54056549               27.62056063                1.00000000                0.32977618                0.34138915               -1.15055663               -0.03587635               -0.95270935                0.00627594
              11.30378460               -0.67504907               27.52980486                1.00000000                0.37731333                0.42399735               -1.41108326               -0.04639096               -0.85125408               -0.84876182
               1.44261572                1.71446725               28.37703939                1.00000000               -0.31372966               -0.35397498                1.16676677               -0.02224120               -0.12488407                1.22960563
               2.43947843                1.56500137               28.28539336                1.00000000               -0.28084697               -0.27183699                0.91336248               -0.00440345               -0.12111897                0.12447184
               3.43699878                1.41521533               28.19378604                0.88037979               -0.22211381               -0.19011458                0.65041798                0.00766922                0.05787714               -0.55964134
               4.43503615                1.26567000               28.10568052                0.20935018               -0.43860454               -0.15004791                0.38054872                0.49019976                1.63014754               -1.15655203
               5.42822669                1.12563589               28.04541768                0.36998350               -0.43431126                0.05127279                0.14369742               -0.09268150                2.40890119                1.02377278
               6.42634993                0.99231038               27.97194059                0.47244575               -0.07844090                0.07799771               -0.10788768                0.09422086                1.53224408                0.44825169
               7.42665788                0.86042718               27.89387794                0.37154549                0.09850637                0.09223089               -0.36379794                0.14387076                1.44469594               -0.34295049
               8.42832005                0.72894680               27.81864997                0.50255295                0.21614708                0.18900143               -0.61462014                0.13021727                1.45554345                0.59898151
               9.43098082                0.59642800               27.74100202                1.00000000                0.28666025                0.26110643               -0.85920181                0.05957412                0.74096579                0.77214052
              10.43405326                0.46284840               27.65164515                1.00000000                0.34117280                0.33483536               -1.11912734                0.00623403                0.08901245                0.11223749
              11.43780427                0.32919090               27.56097272                1.00000000                0.37510149                0.42236764               -1.37810169               -0.00458449                0.02257157               -1.00063901
               1.59148151                2.71109954               28.34636430                1.00000000               -0.27693434               -0.32513583                1.04982124               -0.01506338                0.04543579                1.56027234
               2.58871216                2.56248856               28.24858506                1.00000000               -0.24339000               -0.23594830                0.79215789                0.00864090                0.21515087                0.10045860
               3.58661371                2.41355179               28.15414193                0.54253400               -0.16495997               -0.15195340                0.54305613                0.02132001                0.77770021               -1.33999934
               4.58541296                2.26433302               28.06756998                0.00010000               -1.18822295               -0.12971670                0.25690226                0.68829400                4.60721852               -2.04182108
               5.56284925                2.12726060               28.04966854                0.00010000               -1.26039632                0.09564379                0.06322626                1.23961038                5.36262418               -1.21584092
               6.56020504                1.99363256               27.97478127                0.00010000               -0.12113886               -0.07329070               -0.16031127                1.01395163                2.13769296               -0.24839597
               7.56042647                1.86129786               27.89220551                0.00010000                0.09271845               -0.11619082               -0.39241576                0.81016376                3.42564192                0.57037313
               8.56205941                1.73089974               27.84315283                0.00010000                0.20262474               -0.07705885               -0.64795866                0.52984008                4.03786968                1.12857166
               9.56447896                1.59897416               27.77356739                0.50719005                0.26569241                0.24849955               -0.83282901                0.07098288                2.03819257                1.56597984
              10.56737325                1.46613121               27.68485932                1.00000000                0.32644717                0.31477031               -1.07925515                0.00385717                0.72979770                0.70894704
              11.57100791                1.33339828               27.58908949                1.00000000                0.36346542                0.42148037               -1.34942822               -0.00657198                0.37631810               -1.01008753
               1.73953642                3.70796454               28.31579265                1.00000000               -0.23374179               -0.30208778                0.93176939               -0.01367980                0.08568695                1.48875506
               2.73719900                3.56028240               28.21059572                1.00000000               -0.19778472               -0.20358541                0.66942252                0.00734776                0.11223866               -0.03335887
               3.73558072                3.41217626               28.10586955                0.32958588               -0.10528928               -0.11087713                0.41479372               -0.02203098                1.05905401               -1.66748045
               4.73509321                3.26307566               28.01958800                0.00010000               -0.59306774               -0.08351636                0.15208609                0.65800932                4.99089971               -2.75184282
               5.72371937                3.12754876               27.99343898                0.00010000               -1.12507556                0.00207705               -0.01091867                1.74579618                7.55111777               -3.07675947
               6.71259170                2.99084457               27.95750633                0.00010000               -0.90627032               -0.09230507               -0.18451907                1.40010232                6.73782064               -0.91982977
               7.70559396                2.85810336               27.91397248                0.00010000               -0.56755730               -0.16812576               -0.37220664                1.11670265                6.27839146                1.28108470
               8.70124056                2.72740562               27.86821737                0.00010000               -0.42124782               -0.17966613               -0.56623026                0.87818187                5.92656103                1.60953628
               9.69716901                2.60139799               27.81708764                0.23732002               -0.07671387                0.13239279               -0.76975256                0.26137078                3.78523740                2.93580427
              10.69970628                2.46914380               27.72786260                1.00000000                0.29848469                0.28230878               -1.00373099               -0.03033301                0.94910837                1.11562438
              11.70313870                2.33762051               27.61994492                1.00000000                0.34324200                0.41966944               -1.30396405               -0.00998986                0.01326708               -0.69435853
               1.88657217                4.70505778               28.28368840                1.00000000               -0.19247820               -0.27316826                0.80487841               -0.02086150                0.12404931                1.30877394
               2.88464739                4.55841685               28.17108003                0.86933779               -0.15961736               -0.16286793                0.53792598               -0.00196615                0.18247839               -0.22644234
               3.88337983                4.41133424               28.05958207                0.19664578               -0.07233725               -0.05594149                0.28304301               -0.06437986                1.19373483               -1.63668264
               4.88320065                4.26266269               27.96718345                0.00010000               -0.66917819                0.06051239                0.01642282                0.46952183                6.45418463               -2.67869566
               5.86999626                4.12730214               27.96090941                0.00010000               -1.27740820                0.08048991               -0.09272540                0.91202352               10.40561368               -1.44387465
               6.85765248                3.99178645               27.94683200                0.00010000               -1.18983957                0.15707548               -0.20942874                0.77437510                9.73449058               -0.30500983
               7.84619947                3.85793534               27.92631802                0.00010000               -1.06620351                0.09234430               -0.34621225                0.63160142                9.27397765                0.92472977
               8.83632841                3.72730642               27.90199566                0.00010000               -0.91156369                0.05579798               -0.50206187                0.57739955                9.11181621                2.11950223
               9.82796820                3.60162201               27.87713926                0.20915982               -0.28921670               -0.01126804               -0.68145151                0.23280205                5.00088891                3.55903853
              10.83054408                3.47177739               27.76928106                0.79394736                0.29432517                0.23649430               -0.95087252               -0.00445265                0.50225132                1.17987570
              11.83385470                3.34179167               27.65423860                1.00000000                0.33106226                0.42448144               -1.25397441               -0.02918832                0.14129274               -0.46348259
               2.03240105                5.70250117               28.24951846                1.00000000               -0.15178359               -0.23215970                0.66906750               -0.02541366                0.12833164                1.11050498
               3.03088322                5.55702505               28.12918432                0.70216868               -0.11768853               -0.11379509                0.38650096               -0.00903242                0.28116055               -0.47054491
               4.03004728                5.41105743               28.01184485                0.13250604               -0.11837341                0.00215310                0.11992433               -0.03032450                1.72902258               -1.91756973
               5.02851575                5.26428591               27.92045802                0.00010000               -0.86056017                0.27352398               -0.16791257                0.24182315                8.44292867               -1.38963329
               6.01283608                5.12915856               27.93727857                0.00010000               -1.55348723                0.29133679               -0.17155384                0.60442190               13.28314869               -0.58780146
               6.99744600                4.99398608               27.94210140                0.00010000               -1.50650286                0.31093483               -0.22837939                0.36819047               12.43964493                0.21498643
               7.98270602                4.85995025               27.94117074                0.00010000               -1.41720633                0.27055158               -0.31747546                0.22971888               12.07724349                1.13801056
               8.96910188                4.72852158               27.93755284                0.00010000               -1.26759718                0.15485285               -0.42955592                0.21394058               12.00627924                2.17057300
               9.95735408                4.60117263               27.93376088                0.21511375               -0.48271539               -0.04347878               -0.56543541                0.08692270                6.26613278                3.22493956
              10.95944757                4.47387369               27.81369723                0.70319548                0.25861465                0.19646583               -0.86194366                0.02364696                0.26997664                1.28295001
              11.96252637                4.34611014               27.68970789                1.00000000                0.30788015                0.42640535               -1.20016078               -0.02398268                0.07813301               -0.40268276
               2.17701615                6.70041459               28.21344241                1.00000000               -0.11056693               -0.18347779                0.52802152               -0.02464860                0.06427973                0.95418086
               3.17591048                6.55614095               28.08472632                0.59962645               -0.07518407               -0.06534197                0.23619051               -0.00798194                0.25876715               -0.64261477
               4.17551247                6.41137731               27.95983528                0.09735812               -0.29872517                0.05604850               -0.04346800                0.08850234                3.39296662               -2.25276371
               5.16993598                6.26813317               27.89379927                0.00010000               -1.15639696                0.43191936               -0.29487499                0.11796812               11.05554759                0.16817910
               6.15238453                6.13312888               27.92191476                0.00010000               -1.78556876                0.48649517               -0.22249911                0.34200868               15.39147049                0.11772319
               7.13422460                5.99800515               27.94206973                0.00010000               -1.80630917                0.50024210               -0.23620268                0.08391426               14.84285157                0.57755327
               8.11625835                5.86334638               27.95819066                0.00010000               -1.74198817                0.41930400               -0.28301233               -0.13417760               14.63820170                1.25979435
               9.09938484                5.73040348               27.97286134                0.00010000               -1.59519025                0.22956124               -0.35120831               -0.22162070               14.66514306                2.08292724
              10.08435454                5.60075244               27.98787824                0.23447261               -0.66526636               -0.03592114               -0.43456663               -0.15657170                7.49802969                2.96261620
              11.08607951                5.47570671               27.85742307                0.65113934                0.22738048                0.17413581               -0.77404572                0.02481987                0.14633120                1.18871254
              12.08890215                5.35031978               27.72511670                1.00000000                0.28226392                0.40867730               -1.12868668               -0.01669298                0.05939420               -0.44200472
               2.32045536                7.69883162               28.17613028                1.00000000               -0.06944991               -0.13382358                0.38803373               -0.02340105                0.02568263                0.87271612
               3.31976086                7.55571821               28.03931523                0.55020664               -0.03151287               -0.02080310                0.08947148               -0.00358922                0.16731851               -0.69567898
               4.31982511                7.41217840               27.90526478                0.07539456               -0.53186635                0.09904942               -0.20527537                0.23611460                5.67324848               -2.41624372
               5.30912354                7.27292430               27.87856458                0.00010000               -1.50104143                0.51675780               -0.26996881                0.23273503               14.08274841                0.65901736
               6.28980428                7.13888847               27.91263134                0.00010000               -2.01083714                0.67054163               -0.24243320                0.25443611               17.07267403                0.48832714
               7.26890679                7.00399092               27.94496165                0.00010000               -2.10900674                0.72040707               -0.23354069               -0.10747524               16.98299006                0.72500053
               8.24762414                6.86833633               27.97597904                0.00010000               -2.08216961                0.60944983               -0.24445773               -0.47669976               17.00627145                1.22843962
               9.22726340                6.73311281               28.00722966                0.00010000               -1.93523625                0.33832469               -0.27377834               -0.69791720               17.16893664                1.91120902
              10.20891942                6.60045421               28.03979044                0.26133915               -0.84433864               -0.02132811               -0.31554870               -0.44416290                8.70864967                2.71913952
              11.21037663                6.47735641               27.90009809                0.62541056                0.20234766                0.15936962               -0.68851338                0.00994073                0.07100373                1.05977950
              12.21296637                6.35428368               27.75960673                1.00000000                0.25897411                0.38025346               -1.06098065               -0.00955860                0.03888781               -0.54306412
               2.46277495                8.69773812               28.13839544                1.00000000               -0.02830381               -0.08619322                0.25031754               -0.02255658                0.00870106                0.85906491
               3.46249191                8.55572489               27.99371813                0.54869059                0.01268602                0.02160048               -0.05461028                0.00060219                0.05268124               -0.69756395
               4.46302867                8.41335829               27.84984814                0.05580613               -0.73056477                0.13364901               -0.36164472                0.40278519                7.90715572               -2.30755798
               5.44788062                8.27846833               27.86224749                0.00010000               -1.83110203                0.64343758               -0.24828143                0.52109385               17.25314863                0.48495006
               6.42640663                8.14653971               27.90513860                0.00010000               -2.26266906                0.88971383               -0.25866322                0.30839366               18.85197558                0.48378060
               7.40262723                8.01241329               27.94840281                0.00010000               -2.44020803                0.95900002               -0.23027433               -0.17122566               19.00559009                0.63579297
               8.37760247                7.87553537               27.99294510                0.00010000               -2.46593094                0.89189672               -0.20085168               -0.70320016               19.25200560                1.00695122
               9.35330862                7.73716997               28.03962077                0.01813816               -2.31873919                0.53265415               -0.19742904               -1.21450528               19.58932032                1.64505728
              10.33122768                7.60032588               28.08929127                0.29304223               -1.04298806                0.00035496               -0.22233616               -0.78379379                9.93381505                2.38599287
              11.33244885                7.47889410               27.94131291                0.62335866                0.18143705                0.15286356               -0.61725590               -0.01102373                0.03993612                0.92193843
              12.33485643                7.35792485               27.79278427                1.00000000                0.24075712                0.34647755               -1.00619941               -0.00321882                0.02272740               -0.67444684
               2.60403069                9.69710775               28.10076126                1.00000000                0.01220392               -0.04168635                0.11519065               -0.02223169               -0.01166471                0.74573799
               3.60415273                9.55615022               27.94819454                0.57415610                0.05533369                0.06326622               -0.19684586                0.00196160                0.07748973               -0.59218796
               4.60513737                9.41485138               27.79733435                0.01632754               -0.88943689                0.16506942               -0.50460782                0.63926193               10.04105867               -1.57447387
               5.58636399                9.28579305               27.84401538                0.00010000               -2.15550892                0.96948071               -0.33996160                0.64765240               20.24860196                0.27925689
               6.56202719                9.15668274               27.89635945                0.00010000               -2.49386868                1.07262707               -0.29902088                0.30318273               20.67819277                0.27130694
               7.53648662                9.02317092               27.95011110                0.00010000               -2.66118651                1.13401794               -0.23958352               -0.10602841               20.97289955                0.36211086
               8.50880346                8.88617426               28.00690925                0.00010000               -2.91519141                1.14784544               -0.16505138               -0.61542165               21.45720918                0.57331125
               9.47818279                8.74376589               28.06908809                0.04827023               -2.86420216                1.03941962               -0.06954173               -1.30082242               21.93963456                1.05828531
              10.45151942                8.60046131               28.13452172                0.32735499               -1.28128040                0.03983138               -0.15985670               -1.18352396               11.23250832                1.54951037
              11.45255719                8.48041368               27.98116245                0.63963841                0.16605419                0.15333899               -0.56464969               -0.03065845                0.14212952                0.70587929
              12.45484050                8.36121323               27.82442879                0.98152020                0.22833140                0.31399629               -0.96690341               -0.00174504               -0.01321065               -0.66529201
               2.74424539               10.69690439               28.06068676                1.00000000                0.05421254               -0.02033584               -0.01820692                0.03005133                0.40967319                0.62845500
               3.74478751               10.55699021               27.90463709                0.82481866                0.09628436                0.08399973               -0.33542718                0.05124245                0.80949440               -0.49068997
               4.74617107               10.41665968               27.75650445                0.50716684               -1.28926042                0.18083006               -0.63713905                1.14675725               11.98688981               -0.98793264
               5.71900230               10.29785794               27.82398578                0.36706520               -2.55393314                1.20648945               -0.47036194                0.83045948               22.60052620                0.15046574
               6.69509241               10.16799225               27.88522822                0.35723181               -2.39935797                1.13095125               -0.36120972                0.16830752               22.48590326                0.12661140
               7.67101514               10.03509365               27.94861348                0.37303532               -2.51966708                1.19227276               -0.27168040               -0.02214636               22.84623700                0.18183374
               8.64469907                9.89849228               28.01567810                0.41301608               -2.90050110                1.23180172               -0.16248289               -0.26720321               23.45512342                0.30297092
               9.61300512                9.75795836               28.09019261                0.53746232               -3.68948260                1.41924752                0.01460028               -1.38625601               23.95856295                0.63071397
              10.57090942                9.60112250               28.16704542                0.68409179               -2.09606807                0.06611939               -0.13733342               -1.86087412               12.79321702                0.93444248
              11.57108376                9.48196088               28.01783386                0.83952671                0.11564967                0.15472005               -0.52837346                0.00677096                0.95669022                0.56425440
              12.57322241                9.36420477               27.85755929                0.98591393                0.21386500                0.29915369               -0.93363698                0.06258052                0.42002480               -0.57789751
               1.37676790                0.76507632               29.42712523                1.00000000               -0.34412055               -0.36990032                1.28868449               -0.06287453               -0.88949237                0.91412605
               2.37332670                0.60695224               29.33324749                1.00000000               -0.29417169               -0.29110360                1.03545940               -0.04756337               -1.15060971                0.09411977
               3.37088447                0.44848976               29.23413219                1.00000000               -0.18053733               -0.21275029                0.77211407               -0.04330861               -1.11320721               -0.20918131
               4.36971595                0.29048176               29.14104175                0.62697886                0.18380348               -0.16516991                0.51758786                0.31697470               -0.24513553               -0.78115515
               5.37456054                0.14070468               29.05942780                0.71450181                0.32398080               -0.06306007                0.23726335               -0.07050910                0.13663599                0.24265648
               6.37619557               -0.00275531               28.97498645                0.79664657                0.13637034                0.02197185               -0.03968592               -0.01838013               -0.19600615                0.14240474
               7.37728794               -0.14476484               28.88700379                0.77330361                0.12541141                0.09666925               -0.31649733               -0.00320740               -0.41983849               -0.07593861
               8.37870379               -0.28635310               28.79805028                0.86269394                0.16400084                0.18185758               -0.59945290               -0.00437484               -0.68074151                0.10587922
               9.38056796               -0.42866313               28.70455751                1.00000000                0.23639544                0.26568921               -0.87786276               -0.00832993               -0.99385464                0.54018253
              10.38343170               -0.57175146               28.60907264                1.00000000                0.33179709                0.34099838               -1.14684885               -0.03424914               -0.98285795                0.00474027
              11.38720390               -0.71498644               28.51571690                1.00000000                0.37722005                0.42493681               -1.40665732               -0.04413689               -0.87654512               -0.87227922
               1.53426324                1.76137732               29.38867734                1.00000000               -0.31188919               -0.35306863                1.16102045               -0.02182909               -0.12819532                1.24517005
               2.53114434                1.60404121               29.29450357                1.00000000               -0.27883058               -0.27057253                0.90877475               -0.00391848               -0.12946679                0.13115372
               3.52868662                1.44636226               29.20027067                0.89131307               -0.21830537               -0.18864763                0.64639160                0.00476468                0.04128471               -0.55140628
               4.52677824                1.28883006               29.10946420                0.21317328               -0.41063205               -0.14789519                0.37751867                0.45079577                1.62884506               -1.16968734
               5.52047398                1.14007408               29.04686835                0.37422367               -0.40158565                0.04289930                0.14904029               -0.08251682                2.42466044                1.04034095
               6.51874652                0.99746440               28.97087118                0.47855678               -0.07096107                0.07391479               -0.10522698                0.08455830                1.53871683                0.46153499
               7.51905476                0.85620185               28.89023526                0.37974365                0.09313333                0.09668085               -0.36422599                0.13307527                1.45080150               -0.33732787
               8.52060919                0.71546548               28.81248879                0.50646126                0.20645416                0.19215835               -0.61803647                0.11347933                1.46650296                0.58882451
               9.52318384                0.57399376               28.73240284                1.00000000                0.28208398                0.26050297               -0.86127944                0.05183088                0.74684801                0.78593651
              10.52625087                0.43165852               28.64044942                1.00000000                0.34068353                0.33523775               -1.12077663                0.00775738                0.08791227                0.11513795
              11.52999752                0.28926292               28.54719237                1.00000000                0.37466460                0.42668738               -1.37884768               -0.00208912                0.02272305               -1.02566328
               1.69100354                2.75801495               29.35682503                1.00000000               -0.27401552               -0.32489646                1.04300087               -0.01453880                0.04542111                1.58025852
               2.68826339                2.60154079               29.25647671                1.00000000               -0.24063174               -0.23457585                0.78618060                0.00851137                0.21883014                0.10855083
               3.68619091                2.44471681               29.15955331                0.55810291               -0.16216733               -0.14870137                0.53766092                0.01514672                0.76660018               -1.33433287
               4.68502004                2.28752385               29.07011092                0.00010000               -1.09575264               -0.12565011                0.25075915                0.63104827                4.62714355               -2.03787292
               5.66427586                2.14156267               29.05032999                0.00010000               -1.16305427                0.07747154                0.07011669                1.11854205                5.43940216               -1.19683055
               6.66175896                1.99872298               28.97317660                0.00010000               -0.11637408               -0.07446597               -0.16266310                0.89935069                2.19730850               -0.21598573
               7.66194837                1.85716878               28.88825861                0.00010000                0.07112565               -0.10559048               -0.39599060                0.70969641                3.46789345                0.60753755
               8.66318147                1.71749007               28.83660486                0.00010000                0.17315809               -0.06386726               -0.66281352                0.45986363                4.10051801                1.16898454
               9.66541154                1.57654693               28.76520476                0.50692248                0.25681106                0.24663468               -0.84129327                0.04913483                2.10472455                1.60083863
              10.66831769                1.43495329               28.67404425                1.00000000                0.32708891                0.31383715               -1.08580009                0.00160975                0.75310264                0.73629264
              11.67195331                1.29354730               28.57558017                1.00000000                0.36356238                0.42982901               -1.35573387               -0.00547708                0.38890120               -1.02366938
               1.84692077                3.75487939               29.32506745                1.00000000               -0.23080601               -0.30220547                0.92373691               -0.01341195                0.08949670                1.50386551
               2.84461271                3.59934969               29.21725845                1.00000000               -0.19571385               -0.20175813                0.66327413                0.00720274                0.11982644               -0.03032919
               3.84300650                3.44338823               29.11000307                0.33724638               -0.10296854               -0.10648664                0.41105878               -0.02921787                1.06649299               -1.67433061
               4.84255334                3.28631706               29.02110610                0.00010000               -0.56803996               -0.07418328                0.14864583                0.58249033                5.03809262               -2.74645345
               5.83164570                3.14162351               28.99331680                0.00010000               -1.07129591               -0.00758238               -0.01463850                1.55069666                7.65233753               -3.06199959
               6.82112742                2.99597508               28.95563112                0.00010000               -0.85820481               -0.09689593               -0.19143850                1.22288921                6.83865399               -0.87395939
               7.81448160                2.85409004               28.91019631                0.00010000               -0.53495576               -0.16781992               -0.38392793                0.95656865                6.37605927                1.34905563
               8.81042831                2.71418813               28.86248552                0.00010000               -0.38891408               -0.17768926               -0.58043055                0.76226501                6.02137342                1.70382378
               9.80670332                2.57892646               28.80932295                0.23370971               -0.05728081                0.11448718               -0.78510682                0.21390320                3.86671109                3.00118502
              10.80928269                2.43793526               28.71783112                0.99463932                0.29983160                0.27748586               -1.00879902               -0.03832267                0.98636196                1.15103520
              11.81269995                2.29785950               28.60694725                1.00000000                0.34172583                0.42437262               -1.29934023               -0.01058810                0.01963958               -0.69092681
               2.00179470                4.75197084               29.29168890                1.00000000               -0.18961006               -0.27320931                0.79558939               -0.02086311                0.13205932                1.31466674
               2.99989860                4.59750563               29.17642612                0.86040290               -0.15777598               -0.16032674                0.53141055               -0.00246418                0.19645449               -0.23816156
               3.99863918                4.44258707               29.06239538                0.19926648               -0.07320179               -0.05130398                0.27946855               -0.06777877                1.20775998               -1.66196833
               4.99843457                4.28604019               28.96734191                0.00010000               -0.65037113                0.06860101                0.01634927                0.39448816                6.53468090               -2.70636805
               5.98563176                4.14141102               28.95998181                0.00010000               -1.23421807                0.08073612               -0.09388964                0.76978839               10.56974763               -1.42769841
               6.97375021                3.99678506               28.94469806                0.00010000               -1.13825317                0.14387029               -0.21871621                0.63422829                9.89380624               -0.25702124
               7.96286670                3.85381238               28.92278205                0.00010000               -1.00799251                0.07598589               -0.36220590                0.49997993                9.42473838                0.99746042
               8.95359036                3.71393628               28.89687564                0.00010000               -0.84621142                0.03480902               -0.52238775                0.45512953                9.25123045                2.20721172
               9.94594247                3.57883668               28.87021982                0.20442029               -0.24860823               -0.04607690               -0.70550546                0.17469002                5.09831125                3.65313946
              10.94861819                3.44050301               28.75980439                0.77439811                0.29753011                0.22720087               -0.94374097               -0.01147356                0.53874013                1.21821031
              11.95189307                3.30203476               28.64175942                1.00000000                0.32748808                0.42722142               -1.24585477               -0.03279045                0.15806896               -0.45667913
               2.15543393                5.74941520               29.25615500                1.00000000               -0.14867365               -0.23183602                0.65839538               -0.02549016                0.12888510                1.10874618
               3.15394719                5.59614315               29.13301161                0.69457284               -0.11587851               -0.11048166                0.37902670               -0.00976950                0.28986771               -0.49187691
               4.15311636                5.44236215               29.01302473                0.13349331               -0.11640171                0.00796618                0.11611592               -0.03663527                1.73988232               -1.95859646
               5.15161916                5.28768908               28.91887247                0.00010000               -0.84098854                0.26511013               -0.14714377                0.16593629                8.57724057               -1.40874825
               6.13629659                5.14323823               28.93560007                0.00010000               -1.51042665                0.28298119               -0.16482795                0.45999664               13.53515953               -0.55595732
               7.12141063                4.99885249               28.93978185                0.00010000               -1.44833069                0.29411041               -0.23688914                0.23581693               12.66120230                0.27022630
               8.10732998                4.85560976               28.93790565                0.00010000               -1.34520120                0.24622899               -0.33690241                0.10314382               12.28533002                1.21291261
               9.09450660                4.71488431               28.93313194                0.00010000               -1.18497912                0.12659655               -0.45578750                0.08591221               12.20410952                2.26380048
              10.08363039                4.57800492               28.92796270                0.20994494               -0.43257315               -0.07676523               -0.59418161                0.02432044                6.38788425                3.33831883
              11.08585514                4.44247928               28.80501875                0.68485363                0.26751272                0.18731093               -0.87495805                0.02406495                0.29265637                1.34101079
              12.08898065                4.30640393               28.67767992                1.00000000                0.31255079                0.43419254               -1.20772740               -0.02341217                0.07712204               -0.38620608
               2.30782900                6.74733412               29.21866185                1.00000000               -0.10727304               -0.18253537                0.51581898               -0.02468687                0.06332452                0.94979471
               3.30675627                6.59529600               29.08704927                0.59327520               -0.07342203               -0.06151172                0.22834094               -0.00890914                0.26403539               -0.66139312
               4.30636056                6.44274640               28.95938404                0.09708082               -0.29395282                0.06278075               -0.04674026                0.06766351                3.43144034               -2.29269625
               5.30087721                6.29134239               28.89111658                0.00010000               -1.13461376                0.40710992               -0.24004479                0.02288770               11.25482471                0.24488652
               6.28366828                6.14707064               28.91977156                0.00010000               -1.73910976                0.46676917               -0.20697473                0.19660553               15.70471932                0.17393685
               7.26609501                6.00266727               28.93967627                0.00010000               -1.73852653                0.47568569               -0.24402463               -0.05141373               15.11682081                0.63958899
               8.24889775                5.85873696               28.95525618                0.00010000               -1.65907865                0.39033735               -0.30541932               -0.26217973               14.90256987                1.33634177
               9.23291344                5.71646822               28.96919895                0.00010000               -1.50319198                0.20079451               -0.38229464               -0.35448506               14.92674263                2.17592595
              10.21883391                5.57730137               28.98335573                0.22953756               -0.61064820               -0.05685477               -0.47012480               -0.22068803                7.64111524                3.07549989
              11.22070048                5.44424923               28.84958039                0.63378765                0.23708077                0.16911182               -0.79271719                0.03005229                0.15665503                1.24697460
              12.22357553                5.31071861               28.71377200                1.00000000                0.28750485                0.41926939               -1.14001969               -0.01674868                0.06051917               -0.41627022
               2.45901644                7.74576450               29.17994342                1.00000000               -0.06597064               -0.13191966                0.37436165               -0.02350341                0.02495371                0.86975437
               3.45835673                7.59491292               29.04016915                0.54503547               -0.02966019               -0.01691612                0.08117373               -0.00434450                0.16863625               -0.71119356
               4.45842324                7.44361776               28.90319763                0.07384846               -0.53020319                0.10544044               -0.20808982                0.19590338                5.80766303               -2.45222676
               5.44775267                7.29583128               28.87619979                0.00010000               -1.47597076                0.48842847               -0.20401026                0.12100039               14.36393288                0.78906688
               6.42890382                7.15257362               28.91029936                0.00010000               -1.95183173                0.64175624               -0.22609800                0.11853669               17.38401246                0.55232797
               7.40871604                7.00836620               28.94258814                0.00010000               -2.03091921                0.68977883               -0.24307745               -0.23697895               17.29913838                0.78672020
               8.38828544                6.86341651               28.97341668                0.00010000               -1.99317721                0.57735866               -0.26968455               -0.60197824               17.32255946                1.30570690
               9.36885249                6.71890020               29.00432016                0.00010000               -1.84249079                0.31290864               -0.30908019               -0.82735969               17.48635539                2.00061118
              10.35143562                6.57686782               29.03643225                0.25727537               -0.79067703               -0.02779101               -0.35555170               -0.51052993                8.87093463                2.81143115
              11.35303895                6.44586152               28.89307053                0.60860967                0.21356483                0.15922605               -0.71650076                0.01314629                0.07120212                1.10847196
              12.35570692                6.31478932               28.74890582                1.00000000                0.26679672                0.39122342               -1.07999732               -0.00831716                0.03888321               -0.52616777
               2.60906208                8.74469573               29.14082475                1.00000000               -0.02459718               -0.08305399                0.23515802               -0.02273826                0.00827857                0.85865871
               3.60881611                8.59495767               28.99312891                0.54427981                0.01490948                0.02522825               -0.06345213                0.00009932                0.05143199               -0.71080717
               4.60936027                8.44485521               28.84622039                0.05297831               -0.72373705                0.13835169               -0.36399645                0.34639329                8.12608021               -2.33445129
               5.59434137                8.30111096               28.86000114                0.00010000               -1.79280911                0.61986034               -0.20822331                0.41427774               17.61983982                0.54049031
               6.57350409                8.15990577               28.90259986                0.00010000               -2.19144120                0.85765693               -0.25224479                0.19750570               19.17426947                0.53012386
               7.55051254                8.01646285               28.94604121                0.00010000               -2.35899506                0.92821633               -0.24443031               -0.27887196               19.36883448                0.68587503
               8.52632419                7.87028413               28.99081689                0.00010000               -2.37988051                0.86208778               -0.22654738               -0.81228126               19.62009892                1.07824073
               9.50291493                7.72272639               29.03746619                0.01955605               -2.23310933                0.50831304               -0.23441337               -1.33367694               19.94497635                1.76194226
              10.48166200                7.57674555               29.08682400                0.29031576               -0.99365121                0.00683824               -0.27030982               -0.84522698               10.10622696                2.44790616
              11.48304191                7.44743375               28.93494497                0.60618024                0.19457897                0.16029020               -0.65652280               -0.00998062                0.03581975                0.95372772
              12.48555358                7.31854308               28.78258569                1.00000000                0.25116699                0.35811065               -1.03503090               -0.00129957                0.02239350               -0.67149463
               2.75803778                9.74410342               29.10183310                1.00000000                0.01614603               -0.03732033                0.09863106               -0.02246253               -0.01245396                0.74800515
               3.75819924                9.59541749               28.94617907                0.56884432                0.05800179                0.06661816               -0.20648813                0.00167437                0.07914439               -0.60279196
               4.75919782                9.44638480               28.79227615                0.01331829               -0.86057878                0.16822830               -0.50845599                0.57080506               10.28328734               -1.59072626
               5.74098766                9.30822848               28.84067165                0.00010000               -2.08478835                0.93820561               -0.33562518                0.56905449               20.67767705                0.25829926
               6.71750205                9.16972675               28.89335024                0.00010000               -2.41137170                1.04193886               -0.30646852                0.23403244               21.06498151                0.29204430
               7.69276023                9.02693053               28.94762652                0.00010000               -2.58628888                1.10849021               -0.26021818               -0.16998359               21.39385220                0.39006033
               8.66577627                8.88065826               29.00514152                0.00010000               -2.85213476                1.12843386               -0.19047389               -0.68682322               21.91484890                0.61840136
               9.63571754                8.72906646               29.06831296                0.05257264               -2.79762749                1.02038968               -0.08494253               -1.38211360               22.31556307                1.17659532
              10.60982372                8.57700459               29.13261587                0.32657400               -1.23378605                0.05618695               -0.22070639               -1.22770550               11.37303499                1.57496781
              11.61104181                8.44906732               28.97525895                0.62066809                0.18192768                0.16788544               -0.61675574               -0.03049858                0.14149974                0.72049288
              12.61346227                8.32195153               28.81457224                1.00000000                0.24204606                0.32687775               -1.00647942                0.00047025               -0.01088645               -0.67204720
               2.90598469               10.74394932               29.06042078                1.00000000                0.05835223               -0.01540965               -0.03574552                0.02876279                0.41052510                0.63215244
               3.90656821               10.59629004               28.90123011                0.82170095                0.09903416                0.08725516               -0.34605969                0.05041988                0.81833303               -0.49955163
               4.90796537               10.44821977               28.75010908                0.50510318               -1.20938560                0.18349737               -0.64318229                1.05600755               12.23665776               -0.99948314
               5.88238050               10.31987507               28.81924153                0.36736152               -2.42413430                1.16465904               -0.48156534                0.76552220               23.07798827                0.10897915
               6.85948269               10.18074454               28.88154846                0.35740689               -2.30995698                1.10177895               -0.37871024                0.13594283               22.94451430                0.13382085
               7.83618136               10.03863265               28.94577298                0.37282733               -2.45154503                1.17021211               -0.29974078               -0.05247365               23.32194068                0.19475939
               8.81045179                9.89285281               29.01391597                0.41224316               -2.86275125                1.21945455               -0.19239415               -0.30737190               23.99536083                0.32775852
               9.77892634                9.74313418               29.09032293                0.54067023               -3.66723773                1.40677172                0.01223704               -1.42829596               24.35624213                0.72030013
              10.73710703                9.57786929               29.16529969                0.68459429               -2.07206714                0.08647001               -0.21221336               -1.88880512               12.91622352                0.93988232
              11.73748499                9.45079146               29.01222954                0.82926192                0.13437641                0.17241361               -0.59412270                0.00488490                0.97581558                0.57146878
              12.73979456                9.32508063               28.84798291                0.98560174                0.23095672                0.31290967               -0.98452743                0.06214576                0.43477133               -0.58617155
               1.46296019                0.81335734               30.43998803                1.00000000               -0.34310315               -0.36864868                1.28363229               -0.06226316               -0.90119083                0.92518804
               2.45952916                0.64729554               30.34358593                1.00000000               -0.29448210               -0.29003186                1.03203801               -0.04653328               -1.16644273                0.09876560
               3.45707055                0.48089348               30.24185247                1.00000000               -0.18489745               -0.21273951                0.77103979               -0.04214705               -1.12825513               -0.20934617
               4.45583121                0.31486599               30.14623786                0.62607574                0.15303715               -0.16589046                0.51814070                0.28410069               -0.26974058               -0.79948303
               5.46013129                0.15620716               30.06182682                0.71572129                0.28922917               -0.06666447                0.24029863               -0.06757562                0.09206345                0.25551396
               6.46161579                0.00315122               29.97460725                0.79860183                0.12967874                0.01997116               -0.03609049               -0.02262483               -0.23862070                0.14891252
               7.46272486               -0.14852847               29.88385441                0.77470791                0.13357705                0.09542721               -0.31175473               -0.00640368               -0.46520692               -0.07767351
               8.46428733               -0.29963972               29.79206921                0.86004118                0.17823836                0.18084278               -0.59508115               -0.01080554               -0.72740463                0.10616084
               9.46628963               -0.45113498               29.69579287                1.00000000                0.24537966                0.26344674               -0.87368794               -0.01247469               -1.03267738                0.55185165
              10.46919492               -0.60322425               29.59762366                1.00000000                0.33377744                0.34037976               -1.14205998               -0.03282546               -1.01249065                0.00258856
              11.47296518               -0.75544559               29.50167171                1.00000000                0.37702549                0.42599626               -1.40206095               -0.04136854               -0.90206383               -0.89599128
               1.62839935                1.80967085               30.40025980                1.00000000               -0.31035993               -0.35213704                1.15543468               -0.02124472               -0.13156189                1.26102235
               2.62529576                1.64439522               30.30356885                1.00000000               -0.27677515               -0.26954242                0.90475323               -0.00367231               -0.13804295                0.13722200
               3.62286385                1.47876608               30.20671387                0.90289868               -0.21401916               -0.18803727                0.64317426                0.00264092                0.02440069               -0.54283882
               4.62101537                1.31320708               30.11323089                0.21638788               -0.37754685               -0.14661647                0.38148430                0.40611905                1.62909435               -1.17771255
               5.61531291                1.15554051               30.04839849                0.38042025               -0.36290086                0.03341915                0.15790389               -0.07079134                2.44158966                1.05622357
               6.61375736                1.00335093               29.96983605                0.48618771               -0.06283088                0.07008399               -0.10177765                0.07460413                1.53975161                0.46987890
               7.61405630                0.85242581               29.88659342                0.38879142                0.08625879                0.10080145               -0.36290293                0.12244918                1.45165626               -0.33177378
               8.61548253                0.70216871               29.80628924                0.51009451                0.19504257                0.19612130               -0.62196501                0.09549861                1.47553898                0.57407252
               9.61795715                0.55149949               29.72377643                1.00000000                0.27697230                0.26029022               -0.86454279                0.04276391                0.75300349                0.79836446
              10.62102198                0.40017955               29.62922961                1.00000000                0.34078441                0.33498086               -1.12406064                0.00899265                0.08680885                0.11734887
              11.62477284                0.24881437               29.53339576                1.00000000                0.37508597                0.43078005               -1.38208143                0.00092800                0.02317778               -1.05167206
               1.79308655                2.80631460               30.36722432                1.00000000               -0.27260719               -0.32464396                1.03708425               -0.01374124                0.04498077                1.59989941
               2.79036048                2.64190469               30.26430867                1.00000000               -0.23875256               -0.23344045                0.78181784                0.00911395                0.22103476                0.11645793
               3.78831150                2.47713273               30.16489515                0.57230702               -0.15906642               -0.14592531                0.52760616                0.01140236                0.75104725               -1.32532376
               4.78717915                2.31193366               30.07258517                0.00010000               -0.98699464               -0.11457426                0.24153556                0.56343860                4.64199984               -2.01909371
               5.76857161                2.15687554               30.05107087                0.00010000               -1.04782860                0.05582153                0.07237212                0.97737131                5.51506694               -1.18417083
               6.76622258                2.00455290               29.97152801                0.00010000               -0.11077692               -0.07535084               -0.16935856                0.76699704                2.24613921               -0.18986263
               7.76635607                1.85348756               29.88428570                0.00010000                0.04505180               -0.09323822               -0.39646740                0.59671277                3.49679960                0.64126249
               8.76712362                1.70428271               29.82989656                0.00010000                0.13889982               -0.04786955               -0.67912366                0.38210610                4.15601806                1.20759610
               9.76913407                1.55407083               29.75674153                0.50580405                0.24681390                0.24535732               -0.85348202                0.01965699                2.17353085                1.63364577
              10.77205990                1.40347537               29.66314332                1.00000000                0.32900131                0.31124121               -1.09624534               -0.00567917                0.77513797                0.76517513
              11.77571409                1.25317001               29.56197482                1.00000000                0.36541985                0.44041756               -1.36675055               -0.00421669                0.39896410               -1.03037408
               1.95694434                3.80317798               30.33426739                1.00000000               -0.22844393               -0.30255193                0.91668913               -0.01253792                0.09364552                1.51778966
               2.95465990                3.63972642               30.22386121                1.00000000               -0.19407048               -0.20021150                0.65762804                0.00895562                0.12755465               -0.02675179
               3.95306293                3.47584758               30.11409072                0.34283096               -0.10592855               -0.10297562                0.40697551               -0.02515449                1.07205597               -1.67782647
               4.95254133                3.31091560               30.02256092                0.00010000               -0.54109182               -0.05823470                0.14767126                0.49690240                5.07952082               -2.72681817
               5.94224110                3.15665695               29.99314621                0.00010000               -1.00280284               -0.02053171               -0.02202563                1.31958874                7.74914335               -3.05262108
               6.93248528                3.00184392               29.95367756                0.00010000               -0.79901746               -0.10287988               -0.20091707                1.02049436                6.93265359               -0.82976954
               7.92626075                2.85056104               29.90629392                0.00010000               -0.49719441               -0.16561739               -0.39824610                0.77639931                6.46717013                1.41192282
               8.92254139                2.70121132               29.85660876                0.00010000               -0.35515603               -0.17392377               -0.59639601                0.63186146                6.11103204                1.79838489
               9.91915763                2.55640664               29.80138551                0.22989297               -0.03660883                0.09871115               -0.80081755                0.15323330                3.94746523                3.06315154
              10.92180921                2.40640437               29.70768662                0.97156257                0.30707967                0.27392972               -1.03390282               -0.05322662                1.02976129                1.20431700
              11.92529922                2.25762272               29.59395812                1.00000000                0.34900097                0.43777060               -1.31746635               -0.00856926                0.03750297               -0.67609618
               2.11973892                4.80026356               30.29960019                1.00000000               -0.18689221               -0.27374153                0.78679530               -0.02024953                0.14056642                1.31911912
               3.11787000                4.63790046               30.18170824                0.85168657               -0.15598439               -0.15810290                0.52519508               -0.00197007                0.21112281               -0.24985579
               4.11661923                4.47507322               30.06517144                0.20082112               -0.07810815               -0.04753635                0.27586059               -0.06051824                1.22348453               -1.68576607
               5.11630783                4.31076897               29.96751043                0.00010000               -0.62920817                0.07103418                0.02233043                0.31677868                6.61645272               -2.72069597
               6.10403507                4.15646491               29.95903162                0.00010000               -1.17897292                0.07963614               -0.09774900                0.60575682               10.72730870               -1.40649218
               7.09272837                4.00249531               29.94245768                0.00010000               -1.07592040                0.12842409               -0.23122862                0.47947518               10.04290154               -0.20788056
               8.08251666                3.85017521               29.91907390                0.00010000               -0.94065611                0.05866626               -0.38148416                0.35553509                9.56716623                1.06924223
               9.07391525                3.70080423               29.89154791                0.00010000               -0.77554892                0.01314828               -0.54514671                0.32277325                9.38261178                2.29223357
              10.06700568                3.55604505               29.86302915                0.19936344               -0.20679867               -0.08017695               -0.72906351                0.11085288                5.20408752                3.74541823
              11.06977928                3.40895396               29.75040624                0.75461854                0.30501660                0.22567621               -0.95638165               -0.01726814                0.58994731                1.26804220
              12.07310601                3.26192542               29.62932150                1.00000000                0.33267335                0.43753593               -1.26613663               -0.03049141                0.17544142               -0.44698399
               2.28126555                5.79770315               30.26268637                1.00000000               -0.14547028               -0.23207455                0.64781003               -0.02543477                0.12951947                1.10537647
               3.27981085                5.63656436               30.13676485                0.68713268               -0.11407405               -0.10724606                0.37170121               -0.01036466                0.29899319               -0.51303869
               4.27898407                5.47489685               30.01416717                0.13375004               -0.11628145                0.01386287                0.11269687               -0.03866687                1.76278353               -1.99808458
               5.27748522                5.31233628               29.91751515                0.00010000               -0.81770872                0.24673096               -0.12218275                0.08449675                8.71671166               -1.40590327
               6.26262989                5.15824967               29.93398201                0.00010000               -1.45603717                0.27217114               -0.15978333                0.29801383               13.76841951               -0.51497406
               7.24836447                5.00441240               29.93736361                0.00010000               -1.37836852                0.27476644               -0.24873718                0.09163609               12.86570936                0.32892419
               8.23506252                4.85173437               29.93443269                0.00010000               -1.26187285                0.21934833               -0.36006829               -0.03338554               12.48055442                1.28848042
               9.22312702                4.70147428               29.92843709                0.00010000               -1.09187842                0.09647749               -0.48504155               -0.05131868               12.39363741                2.35608512
              10.21322495                4.55480310               29.92187725                0.20423356               -0.37717697               -0.11260814               -0.62583177               -0.03833316                6.51222190                3.45280332
              11.21558348                4.41091790               29.79619807                0.66567362                0.27607605                0.18202273               -0.88631865                0.02937063                0.32287416                1.39606732
              12.21874648                4.26637344               29.66555334                1.00000000                0.31629984                0.44215285               -1.21492276               -0.02327958                0.07840129               -0.36543492
               2.44150780                6.79562207               30.22375879                1.00000000               -0.10387992               -0.18196723                0.50338143               -0.02478187                0.06247450                0.94383973
               3.44046900                6.63575554               30.08929314                0.58698806               -0.07169157               -0.05748332                0.22037555               -0.01015344                0.26955972               -0.67947053
               4.44007397                6.47535048               29.95890048                0.09612228               -0.29120257                0.07003321               -0.04990854                0.04558513                3.49765612               -2.33010088
               5.43464495                6.31570358               29.88899838                0.00010000               -1.10773707                0.37423962               -0.18348611               -0.08134468               11.45901340                0.34068350
               6.41791923                6.16190833               29.91777527                0.00010000               -1.67842747                0.44285303               -0.19406848                0.03766651               15.98066163                0.23539413
               7.40107640                6.00799063               29.93718924                0.00010000               -1.65660810                0.44739914               -0.25576010               -0.19691919               15.36669008                0.70424150
               8.38478706                5.85456218               29.95208228                0.00010000               -1.56281256                0.35776972               -0.33185821               -0.39880317               15.15036645                1.41463609
               9.36982015                5.70273378               29.96521545                0.00010000               -1.39958300                0.16917555               -0.41662627               -0.49606852               15.17693594                2.27035637
              10.35679540                5.55379289               29.97847574                0.22392355               -0.55118995               -0.07942692               -0.50687090               -0.28882920                7.78563096                3.18981371
              11.35879635                5.41259442               29.84156873                0.61568802                0.24669652                0.16216881               -0.80900440                0.03596097                0.17308404                1.30621753
              12.36172933                5.27076848               29.70231631                1.00000000                0.29329858                0.42865947               -1.15228097               -0.01624416                0.06197203               -0.38493211
               2.60050297                7.79406380               30.18361752                1.00000000               -0.06235960               -0.13002289                0.36015627               -0.02369125                0.02425690                0.86540927
               3.59987937                7.63541469               30.04093871                0.53978647               -0.02776197               -0.01283589                0.07259512               -0.00551898                0.17007318               -0.72591713
               4.59994773                7.47629751               29.90110298                0.07170245               -0.52894519                0.11201357               -0.21078316                0.15052319                5.97319583               -2.48524118
               5.58930047                7.31982107               29.87448438                0.00010000               -1.44257776                0.45513465               -0.14204497                0.00311066               14.64985304                0.90757598
               6.57109617                7.16710673               29.90810938                0.00010000               -1.87641142                0.60914907               -0.21506147               -0.02639871               17.65218475                0.61296768
               7.55177224                7.01336038               29.94010010                0.00010000               -1.93764310                0.65508890               -0.25745876               -0.37532382               17.58874466                0.84902240
               8.53234331                6.85888976               29.97058535                0.00010000               -1.88986502                0.54065813               -0.29929850               -0.73550886               17.61994950                1.38667171
               9.51397494                6.70485779               30.00104806                0.00010000               -1.73777882                0.28411196               -0.34725499               -0.96471591               17.79066779                2.09390939
              10.49758774                6.55321456               30.03267940                0.25254465               -0.73239170               -0.03462546               -0.39535192               -0.58092412                9.02986012                2.90652493
              11.49932711                6.41416127               29.88576808                0.59134006                0.22428676                0.15929100               -0.74444935                0.01696412                0.07317034                1.15564190
              12.50207347                6.27494663               29.73800678                1.00000000                0.27463648                0.40300273               -1.10214885               -0.00678902                0.03873954               -0.50719984
               2.75833219                8.79302161               30.14309860                1.00000000               -0.02072855               -0.07959902                0.21920689               -0.02294396                0.00785045                0.85704117
               3.75812491                8.63549883               29.99244909                0.53969220                0.01729267                0.02892409               -0.07272227               -0.00088377                0.05021391               -0.72335999
               4.75867805                8.47759075               29.84256821                0.04988916               -0.71134816                0.14253250               -0.36683803                0.28351301                8.35942074               -2.35967009
               5.74389794                8.32480628               29.85808302                0.00010000               -1.74130514                0.59487863               -0.18380811                0.30217742               17.98490326                0.56455536
               6.72385194                8.17409131               29.90009371                0.00010000               -2.10555270                0.82341474               -0.25318064                0.07809529               19.46541798                0.56797823
               7.70178689                8.02109241               29.94351420                0.00010000               -2.26362348                0.89399916               -0.26448841               -0.39579160               19.70887952                0.73525390
               8.67857947                7.86537534               29.98841416                0.00010000               -2.27929302                0.82767287               -0.25713594               -0.93028511               19.96907458                1.15535062
               9.65620103                7.70841602               30.03493251                0.02064676               -2.13530158                0.47916291               -0.27445785               -1.46150990               20.28248182                1.89659862
              10.63587344                7.55310038               30.08388508                0.28712764               -0.93987351                0.01352091               -0.31667019               -0.90946992               10.26865889                2.50914249
              11.63740356                7.41578024               29.92818246                0.58876386                0.20746991                0.16888431               -0.69667799               -0.00840685                0.03059371                0.98426309
              12.64002284                7.27882853               29.77208365                0.99553325                0.26192811                0.37142212               -1.06804324                0.00096579                0.02186289               -0.66628533
               2.91508967                9.79247182               30.10273388                1.00000000                0.02028971               -0.03247698                0.08095733               -0.02261338               -0.01340669                0.74934815
               3.91529256                9.63599317               29.94406478                0.56419758                0.06104356                0.06991341               -0.21649254                0.00086516                0.07931063               -0.61284324
               4.91631054                9.47914816               29.78716523                0.01142675               -0.82245552                0.17067057               -0.51463664                0.49701228               10.52175419               -1.60675687
               5.89884345                9.33171865               29.83730288                0.00010000               -1.99692960                0.90457470               -0.34432106                0.48258036               21.09573582                0.21737511
               6.87637195                9.18357502               29.89023008                0.00010000               -2.31355376                1.00904542               -0.32211066                0.15605103               21.43180904                0.30609184
               7.85257238                9.03124037               29.94490673                0.00010000               -2.49789722                1.08017576               -0.28788911               -0.24161211               21.79623821                0.41731893
               8.82641400                8.87544322               30.00309977                0.00010000               -2.77763351                1.10616134               -0.22185540               -0.76612267               22.36562816                0.66832464
               9.79701971                8.71444105               30.06738924                0.05688664               -2.71899397                0.99642011               -0.10237375               -1.47065167               22.66402273                1.32060496
              10.77203412                8.55348498               30.13010759                0.32576896               -1.17944463                0.07260646               -0.27991852               -1.27241313               11.48356105                1.59636422
              11.77343081                8.41753896               29.96882733                0.60179313                0.19810371                0.18344157               -0.67029675               -0.02983062                0.13890973                0.73312892
              12.77599620                8.28237507               29.80429920                0.97871867                0.25653811                0.34157281               -1.05083615                0.00302402               -0.00854631               -0.67645089
               3.07083722               10.79237207               30.05997185                1.00000000                0.06286478               -0.00997460               -0.05486822                0.02725741                0.41072427                0.63513036
               4.07146587               10.63689709               29.89771590                0.81963951                0.10277983                0.09039210               -0.35665491                0.04893479                0.82447386               -0.50799260
               5.07289282               10.48100416               29.74364080                0.50337032               -1.11715889                0.18559966               -0.65025766                0.95826188               12.47673126               -1.01158105
               6.04912269               10.34289777               29.81435447                0.36764854               -2.27207857                1.11791239               -0.49863184                0.69132688               23.53709066                0.05993749
               7.02745125               10.19427222               29.87765401                0.35757381               -2.20181182                1.06971974               -0.40498822                0.09783786               23.38266695                0.13730328
               8.00508645               10.04269593               29.94261866                0.37262137               -2.36974561                1.14555614               -0.33584986               -0.08727487               23.77974853                0.20804486
               8.98005633                9.88749857               30.01183022                0.41145484               -2.81701086                1.20553525               -0.22961985               -0.35334191               24.53728769                0.35688326
               9.94874624                9.72834442               30.09043735                0.54397261               -3.63645302                1.39033701                0.00646354               -1.47465018               24.71946145                0.83319514
              10.90732727                9.55455251               30.16280115                0.68521432               -2.04146923                0.10675300               -0.28728899               -1.91545254               12.99320150                0.94004239
              11.90791685                9.41944907               30.00595141                0.81917894                0.15419114                0.19101088               -0.66298431                0.00397785                0.99221273                0.57612468
              12.91041110                9.28565999               29.83786875                0.98528119                0.24942437                0.32849165               -1.04164074                0.06258207                0.44969073               -0.59210149
               1.55154830                0.86303656               31.45279787                1.00000000               -0.34148966               -0.36750734                1.27837201               -0.06092645               -0.91461525                0.93781638
               2.54813340                0.68896170               31.35388825                1.00000000               -0.29404322               -0.28988023                1.02900815               -0.04322584               -1.18500299                0.10351142
               3.54566744                0.51458003               31.24955298                1.00000000               -0.18933073               -0.21172290                0.76800906               -0.03826758               -1.14895566               -0.21419067
               4.54434679                0.34050603               31.15140457                0.62476770                0.11824864               -0.15775303                0.51279857                0.23745223               -0.29906176               -0.81769592
               5.54803241                0.17267163               31.06423377                0.71823307                0.25243876               -0.07171289                0.24013557               -0.07021394                0.05146279                0.26613037
               6.54939556                0.00976534               30.97426464                0.80127433                0.12447225                0.01758894               -0.03166376               -0.02829316               -0.27499245                0.15334207
               7.55052185               -0.15179634               30.88076870                0.77749064                0.14108395                0.09314237               -0.30331101               -0.01047988               -0.50583907               -0.07764232
               8.55221724               -0.31266995               30.78614866                0.85802344                0.19190545                0.17895308               -0.58643843               -0.01787154               -0.77240218                0.10560577
               9.55435996               -0.47359322               30.68708376                1.00000000                0.25429003                0.26056092               -0.86541696               -0.01772472               -1.07035243                0.56333138
              10.55730304               -0.63491161               30.58623144                1.00000000                0.33532781                0.33974390               -1.13469615               -0.03159141               -1.04159745               -0.00029791
              11.56106652               -0.79635438               30.48767568                1.00000000                0.37634748                0.42807527               -1.39652545               -0.03805167               -0.92790069               -0.92060475
               1.72501389                1.85936148               31.41178603                1.00000000               -0.30844807               -0.35156057                1.14972045               -0.02055068               -0.13441857                1.27830517
               2.72192941                1.68606290               31.31259863                1.00000000               -0.27506449               -0.26920529                0.90114578               -0.00094164               -0.14605367                0.14404230
               3.71951260                1.51246280               31.21313416                0.89592437               -0.21269477               -0.18732743                0.64503505                0.00667589                0.01292137               -0.54420437
               4.71767551                1.33892850               31.11709388                0.22098914               -0.34059921               -0.13470363                0.39572946                0.34146139                1.63452453               -1.20399702
               5.71270061                1.17195450               31.05002643                0.38882877               -0.31644474                0.02299491                0.16193096               -0.06926628                2.45092414                1.05961621
               6.71134662                1.00994123               30.96883563                0.49432233               -0.05329579                0.06594449               -0.09924258                0.06259640                1.53265287                0.46959779
               7.71163470                0.84913508               30.88297720                0.39829434                0.07951744                0.10449370               -0.35954352                0.10861606                1.44653250               -0.32338359
               8.71293697                0.68911958               30.80004949                0.51323317                0.18344219                0.19962120               -0.62522201                0.07530361                1.48193825                0.55636226
               9.71530354                0.52901239               30.71511199                1.00000000                0.27153715                0.26019925               -0.86893618                0.03208396                0.76031278                0.80943108
              10.71836771                0.36848583               30.61796821                1.00000000                0.34126148                0.33556994               -1.12918175                0.00990507                0.08627130                0.11981359
              11.72212877                0.20792638               30.51955074                1.00000000                0.37610626                0.43659204               -1.38902565                0.00420886                0.02366341               -1.07686776
               1.89773445                2.85600534               31.37756671                1.00000000               -0.27211983               -0.32510863                1.03085819               -0.01316644                0.04727782                1.61989354
               2.89501325                2.68357760               31.27211307                1.00000000               -0.23995455               -0.23239090                0.77902499                0.01196020                0.22192252                0.12354973
               3.89293536                2.51083348               31.17010543                0.58124577               -0.16644664               -0.14536984                0.52051936                0.02348307                0.73583359               -1.32182283
               4.89168432                2.33781195               31.07494163                0.00010000               -0.86505026               -0.10365347                0.24203452                0.48554044                4.66990416               -2.02452306
               5.87563435                2.17313153               31.05177743                0.00010000               -0.91087046                0.03279197                0.05636916                0.80417921                5.57573173               -1.19306254
               6.87346691                2.01108423               30.96978943                0.00010000               -0.10592663               -0.07455994               -0.17800900                0.62240870                2.28131443               -0.17464269
               7.87351582                1.85029353               30.88032926                0.00010000                0.01895488               -0.07973889               -0.39641155                0.47486733                3.50998233                0.67098442
               8.87384601                1.69132247               30.82302239                0.00010000                0.10597834               -0.03075487               -0.69548756                0.29688152                4.20082001                1.24604165
               9.87563539                1.53161077               30.74813512                0.50388235                0.23705770                0.24447348               -0.86992408               -0.01257260                2.24423820                1.66926557
              10.87858716                1.37179979               30.65211934                1.00000000                0.33171103                0.31364255               -1.11277429               -0.01478541                0.79844775                0.78841331
              11.88226961                1.21237747               30.54824516                1.00000000                0.36824475                0.45322574               -1.38511429               -0.00332131                0.40928573               -1.03998123
               2.06960605                3.85285931               31.34340123                1.00000000               -0.22655802               -0.30355502                0.90949984               -0.01164885                0.09893152                1.53033635
               3.06734047                3.68141508               31.23041101                1.00000000               -0.19290751               -0.19863662                0.65261087                0.01163248                0.13762304               -0.02516978
               4.06574790                3.50955541               31.11814258                0.34641737               -0.11260989               -0.10190881                0.40413677               -0.00941653                1.08308818               -1.67926077
               5.06508828                3.33685543               31.02405953                0.00010000               -0.51179886               -0.05699557                0.15452445                0.41370321                5.12960738               -2.72661195
               6.05551193                3.17261034               30.99287629                0.00010000               -0.92277452               -0.03430803               -0.03266327                1.05954703                7.84296721               -3.04723070
               7.04663278                3.00845003               30.95161278                0.00010000               -0.73090640               -0.10714164               -0.21520582                0.80145080                7.01968714               -0.78777160
               8.04089380                2.84754031               30.90223139                0.00010000               -0.45377115               -0.16175414               -0.41714903                0.58292147                6.55042807                1.46712267
               9.03755736                2.68850448               30.85055760                0.00010000               -0.31595144               -0.16849210               -0.61712505                0.49014427                6.19896677                1.89381505
              10.03457477                2.53390186               30.79330660                0.22578420               -0.01260292                0.08212631               -0.81578450                0.08923496                4.01916990                3.12742860
              11.03730530                2.37475868               30.69715306                0.94998811                0.31661159                0.27763018               -1.06792811               -0.06866720                1.06590745                1.26119519
              12.04090700                2.21699089               30.58059793                1.00000000                0.36016973                0.45611961               -1.35233125               -0.01169090                0.05501328               -0.66433681
               2.24038993                4.84993424               31.30742480                1.00000000               -0.18401210               -0.27475884                0.77770354               -0.01987305                0.15013819                1.32142283
               3.23854981                4.67960486               31.18693002                0.84355961               -0.15416212               -0.15587983                0.51898307               -0.00165763                0.22708223               -0.26224651
               4.23730668                4.50879531               31.06791259                0.20163680               -0.08231789               -0.04419891                0.27257076               -0.05294922                1.24619682               -1.70924771
               5.23690345                4.33667204               30.96778852                0.00010000               -0.60379950                0.06138217                0.03395326                0.23501675                6.71074115               -2.75527452
               6.22523069                4.17244537               30.95802683                0.00010000               -1.11687442                0.07923801               -0.10371280                0.42869685               10.87344752               -1.37801780
               7.21456596                4.00894139               30.94007349                0.00010000               -1.00554496                0.11246935               -0.24780491                0.31272189               10.18151944               -0.15647070
               8.20511979                3.84705845               30.91515236                0.00010000               -0.86393117                0.04153421               -0.40664691                0.19925161                9.70088819                1.14123350
               9.19728734                3.68795263               30.88597271                0.00010000               -0.69769552               -0.00830055               -0.57340925                0.17861367                9.51329615                2.37548848
              10.19116588                3.53325329               30.85563855                0.19386373               -0.15812746               -0.11437332               -0.75258575                0.04694223                5.31193042                3.82971349
              11.19412479                3.37735240               30.74067675                0.73327335                0.32027452                0.22397267               -0.98625492               -0.02111017                0.63646630                1.34177382
              12.19757137                3.22149986               30.61643669                1.00000000                0.34465880                0.45547704               -1.30024561               -0.03869688                0.18067394               -0.41618803
               2.40986735                5.84736413               31.26911121                1.00000000               -0.14210921               -0.23272390                0.63677763               -0.02567144                0.13042936                1.10005488
               3.40844626                5.67829749               31.14044563                0.67993205               -0.11228044               -0.10360660                0.36437268               -0.01183678                0.30875129               -0.53409563
               4.40762174                5.50867143               31.01527867                0.13325543               -0.11538543                0.02066293                0.10959443               -0.04563295                1.79948162               -2.03574373
               5.40613855                5.33808307               30.91642881                0.00010000               -0.79026148                0.22573924               -0.10062030               -0.00985452                8.85750890               -1.39212319
               6.39181651                5.17419510               30.93240441                0.00010000               -1.39322055                0.26028968               -0.15740908                0.12381519               13.97796581               -0.46488623
               7.37827414                5.01069941               30.93480710                0.00010000               -1.29744595                0.25371092               -0.26540274               -0.06341298               13.05170818                0.39228267
               8.36586759                4.84837099               30.93070428                0.00010000               -1.16696732                0.19092865               -0.38938461               -0.18009354               12.66354409                1.36630149
               9.35493479                4.68833847               30.92343111                0.00010000               -0.98768727                0.06558703               -0.52062813               -0.19926175               12.57639869                2.44842284
              10.34611385                4.53161440               30.91544607                0.19785984               -0.31491276               -0.14789001               -0.66362294               -0.10364837                6.64632770                3.56198643
              11.34863654                4.37923814               30.78729238                0.64478657                0.28621471                0.17255886               -0.89568627                0.03414240                0.36726468                1.46114188
              12.35183814                4.22610043               30.65338147                1.00000000                0.32016047                0.45333310               -1.22278670               -0.02634830                0.08407817               -0.32547793
               2.57800979                6.84527977               31.22872947                1.00000000               -0.10040152               -0.18156287                0.49043054               -0.02511088                0.06167959                0.93626431
               3.57700578                6.67753273               31.09145678                0.58065474               -0.07006748               -0.05294283                0.21225239               -0.01223644                0.27526565               -0.69679518
               4.57660844                6.50920856               30.95838587                0.09450622               -0.29115458                0.07868895               -0.05295858                0.01869170                3.59156563               -2.36496068
               5.57118268                6.34118683               30.88744686                0.00010000               -1.07588936                0.34075393               -0.12839991               -0.19763082               11.66675622                0.45028347
               6.55509065                6.17765116               30.91589019                0.00010000               -1.60304372                0.41597171               -0.18603945               -0.13279674               16.21651128                0.30065766
               7.53912181                6.01401561               30.93456107                0.00010000               -1.56058938                0.41611362               -0.27331403               -0.35166579               15.59171187                0.77222224
               8.52387887                5.85087702               30.94861902                0.00010000               -1.45315573                0.32235370               -0.36474966               -0.54411806               15.38246679                1.49632206
               9.51005869                5.68926437               30.96086643                0.00010000               -1.28428081                0.13614319               -0.45730892               -0.64722641               15.41896902                2.36816136
              10.49819325                5.53029549               30.97321831                0.21749264               -0.48685488               -0.10127029               -0.54861102               -0.36309191                7.93729242                3.30957198
              11.50032160                5.38080357               30.83340031                0.59658007                0.25632843                0.15612459               -0.82723052                0.04047327                0.19871077                1.36296368
              12.50331982                5.23056652               30.69072638                1.00000000                0.29982212                0.43887707               -1.17013819               -0.01539770                0.06283790               -0.35371004
               2.74485920                7.84373288               31.18714654                1.00000000               -0.05864683               -0.12797883                0.34533469               -0.02400877                0.02356459                0.85969223
               3.74427273                7.67723863               31.04162105                0.53423995               -0.02588585               -0.00841657                0.06368595               -0.00713371                0.17163540               -0.73973939
               4.74434148                7.51024521               30.89898197                0.06909009               -0.52646964                0.11954962               -0.21365851                0.09829128                6.16682297               -2.51581378
               5.73374334                7.34489815               30.87335889                0.00010000               -1.40048444                0.41983704               -0.08807840               -0.11997088               14.93741818                1.00692827
               6.71633179                7.18251453               30.90599813                0.00010000               -1.78641890                0.57467327               -0.21142327               -0.17929246               17.87714959                0.66930137
               7.69801496                7.01902169               30.93743897                0.00010000               -1.82976603                0.61728415               -0.27886058               -0.52242990               17.85232046                0.91246658
               8.67973647                6.85481806               30.96743071                0.00010000               -1.77215825                0.49998474               -0.33576064               -0.87759226               17.90024644                1.47262699
               9.66257179                6.69106133               30.99737506                0.00010000               -1.62118329                0.25264051               -0.39088254               -1.10970599               18.08619758                2.19335825
              10.64731281                6.52958899               31.02852521                0.24697792               -0.66984087               -0.03976435               -0.43745486               -0.65543637                9.19025828                3.00908590
              11.64917498                6.38236063               30.87818155                0.57350007                0.23457449                0.16280906               -0.77540724                0.02112962                0.07863700                1.20278271
              12.65200430                6.23487797               30.72686284                0.99392805                0.28293192                0.41792158               -1.13171368               -0.00483442                0.03874564               -0.48539005
               2.91051811                8.84272019               31.14520889                1.00000000               -0.01673364               -0.07578742                0.20251977               -0.02314662                0.00737047                0.85407950
               3.91035077                8.67736440               30.99167447                0.53506424                0.01983202                0.03275909               -0.08246187               -0.00196318                0.04860720               -0.73488225
               4.91091475                8.51159956               30.83888363                0.04684508               -0.69184166                0.14659320               -0.37145797                0.21362426                8.59860099               -2.38411940
               5.89651394                8.34958357               30.85632498                0.00010000               -1.67667402                0.57031921               -0.17659797                0.18196303               18.34381411                0.55555263
               6.87738127                8.18914463               30.89753625                0.00010000               -2.00721279                0.78868746               -0.26330469               -0.05098455               19.72946848                0.59731998
               7.85636968                8.02636129               30.94075144                0.00010000               -2.15469474                0.85753805               -0.29285643               -0.52337811               20.02675402                0.78426313
               8.83428737                7.86087672               30.98567417                0.00010000               -2.16380164                0.78953145               -0.29583335               -1.05871276               20.30127710                1.23881789
               9.81309365                7.69431718               31.03197703                0.02122287               -2.02510724                0.44561926               -0.32048183               -1.59790681               20.60799024                2.05026654
              10.79378523                7.52950021               31.08049060                0.28332237               -0.88192219                0.02134031               -0.36202082               -0.97566918               10.42617747                2.57382974
              11.79545521                7.38405976               30.92101141                0.57106003                0.22016068                0.18001589               -0.73896965               -0.00609142                0.02481570                1.01610767
              12.79818844                7.23892495               30.76122483                0.97994899                0.27332356                0.38797248               -1.10758727                0.00368549                0.02130675               -0.65644118
               3.07510784                9.84221713               31.10345224                1.00000000                0.02462569               -0.02721017                0.06228858               -0.02268294               -0.01451428                0.74927841
               4.07535410                9.67789381               30.94184922                0.56123453                0.06434795                0.07317757               -0.22677049               -0.00010464                0.07677185               -0.62150941
               5.07639480                9.51317707               30.78198342                0.01021229               -0.77582847                0.17187263               -0.52076349                0.41786969               10.74914944               -1.62029765
               6.05983753                9.35630453               30.83378523                0.00010000               -1.89302128                0.86935318               -0.36449665                0.38531896               21.49700891                0.16318140
               7.03853437                9.19828828               30.88690802                0.00010000               -2.20111125                0.97490623               -0.34756536                0.06792422               21.77975457                0.31363893
               8.01581530                9.03617245               30.94186874                0.00010000               -2.39640223                1.05041967               -0.32524150               -0.32245745               22.18046459                0.44387491
               8.99060633                8.87060869               31.00070442                0.00010000               -2.69125671                1.08264310               -0.26378116               -0.85536230               22.81199304                0.72301934
               9.96199017                8.69997372               31.06626548                0.06104141               -2.62747407                0.96923382               -0.13006124               -1.56709570               22.99288307                1.49035398
              10.93805685                8.53001580               31.12701750                0.32481345               -1.11808829                0.08914049               -0.33668576               -1.31704978               11.56968301                1.61562455
              11.93962840                8.38596095               30.96185301                0.58303067                0.21453823                0.20030203               -0.72529147               -0.02859605                0.13453870                0.74547012
              12.94234761                8.24263742               30.79355551                0.96451650                0.27192091                0.35872779               -1.10095938                0.00591071               -0.00628300               -0.67665821
               3.23871108               10.84217599               31.05932342                1.00000000                0.06776553               -0.00411413               -0.07534197                0.02552057                0.41036713                0.63660206
               4.23938873               10.67882795               30.89409702                0.81878965                0.10751699                0.09341416               -0.36727829                0.04651491                0.82697613               -0.51466833
               5.24086142               10.51503701               30.73710393                0.50213543               -1.01398161                0.18599403               -0.65537170                0.85379587               12.70039860               -1.01834453
               6.21910910               10.36697063               30.80926889                0.36791169               -2.09947914                1.06660986               -0.52172935                0.60744444               23.97228880                0.01049366
               7.19887184               10.20864275               30.87344870                0.35773973               -2.07544898                1.03544672               -0.44136457                0.05369906               23.79772893                0.13694831
               8.17760012               10.04736969               30.93905598                0.37240592               -2.27464918                1.11972409               -0.38291903               -0.12717654               24.21905688                0.22148691
               9.15337885                9.88252958               31.00932357                0.41065091               -2.76277457                1.19208882               -0.27962680               -0.40613919               25.08175389                0.39017866
              10.12234463                9.71370186               31.09045220                0.54728291               -3.59609245                1.37281378               -0.01550027               -1.52688200               25.05596333                0.96898208
              11.08145700                9.53128302               31.15955391                0.68587192               -2.00414876                0.12672209               -0.36122696               -1.94178752               13.03078660                0.93571154
              12.08226166                9.38806580               30.99896986                0.80928632                0.17483490                0.21048484               -0.73426588                0.00414976                1.00625708                0.57894363
              13.08495370                9.24609951               30.82715010                0.98129662                0.26920456                0.34620833               -1.10527082                0.06398003                0.46475032               -0.59473670
               1.64248712                0.91413735               32.46555547                1.00000000               -0.34131361               -0.36692340                1.27425257               -0.05936907               -0.92950497                0.95166730
               2.63907399                0.73194501               32.36416609                1.00000000               -0.29560023               -0.28937564                1.02746723               -0.03924563               -1.20846658                0.10701236
               3.63657512                0.54944731               32.25721265                1.00000000               -0.19524009               -0.21177649                0.76664704               -0.03538746               -1.17958591               -0.21594443
               4.63516919                0.36713344               32.15649383                0.62440957                0.08626764               -0.15433579                0.51246377                0.18929685               -0.33356093               -0.82629637
               5.63830047                0.18994444               32.06662953                0.71892040                0.22059121               -0.07552618                0.23919509               -0.07395028                0.01994156                0.27077012
               6.63958101                0.01707608               31.97397398                0.80314564                0.12117938                0.01420234               -0.02540551               -0.03427493               -0.30154603                0.15701369
               7.64072406               -0.15449832               31.87778819                0.78146640                0.14716102                0.08958910               -0.29096606               -0.01536470               -0.53840231               -0.07539538
               8.64252423               -0.32532927               31.78034044                0.85833665                0.20378704                0.17514920               -0.57143864               -0.02509652               -0.81267751                0.10494128
               9.64479980               -0.49592481               31.67848453                1.00000000                0.26234085                0.25615635               -0.84972091               -0.02423497               -1.10586806                0.57323115
              10.64777105               -0.66670374               31.57492973                1.00000000                0.33594403                0.33916609               -1.12248676               -0.03038933               -1.07031781               -0.00426764
              11.65151868               -0.83760780               31.47374120                1.00000000                0.37476335                0.43153456               -1.38835898               -0.03417038               -0.95420349               -0.94688761
               1.82408578                1.91046812               32.42325421                1.00000000               -0.30592239               -0.35200410                1.14418256               -0.01907321               -0.13812374                1.29629474
               2.82102655                1.72905125               32.32159177                1.00000000               -0.27293737               -0.26908497                0.89790738                0.00238244               -0.15189430                0.15155687
               3.81862703                1.54732954               32.21961458                0.88845951               -0.21064820               -0.18797288                0.64850536                0.00816615                0.00968119               -0.55154098
               4.81681359                1.36559008               32.12114548                0.22916536               -0.30186909               -0.13279417                0.40222787                0.27978427                1.63947528               -1.24557755
               5.81258965                1.18918918               32.05163710                0.39532689               -0.26769744                0.01099965                0.15298896               -0.07170007                2.45013586                1.04548628
               6.81145964                1.01721810               31.96785120                0.50130022               -0.04082816                0.06034106               -0.10069551                0.04622099                1.52631241                0.46552669
               7.81177309                0.84639757               31.87940255                0.40757628                0.07634350                0.10756935               -0.35594141                0.09014090                1.43912841               -0.31235632
               8.81298651                0.67642222               31.79378480                0.51574761                0.17358011                0.20123501               -0.62529613                0.05245572                1.48598736                0.53759984
               9.81524469                0.50663675               31.70639770                1.00000000                0.26610689                0.25931716               -0.87372931                0.01938872                0.76870128                0.81879203
              10.81830865                0.33668792               31.60664598                1.00000000                0.34181755                0.33812608               -1.13612466                0.01092787                0.08666415                0.12054281
              11.82208104                0.16670754               31.50561525                1.00000000                0.37723898                0.44655009               -1.40040679                0.00843734                0.02441160               -1.10482791
               2.00493939                2.90709727               32.38784148                1.00000000               -0.26791815               -0.32707547                1.02372592               -0.01251464                0.05097949                1.64011824
               3.00226021                2.72656331               32.27988917                1.00000000               -0.23698894               -0.23225919                0.77449823                0.01175192                0.22441855                0.13129278
               4.00019962                2.54568785               32.17530554                0.58875077               -0.16774867               -0.14371736                0.52558811                0.01816988                0.73240302               -1.32825577
               4.99890524                2.36447755               32.07742586                0.00010000               -0.74805834               -0.10268066                0.25900717                0.40313801                4.70500010               -2.07228011
               5.98523845                2.19016443               32.05219825                0.00010000               -0.78041008                0.01368751                0.02209470                0.63814417                5.61892428               -1.20630994
               6.98329704                2.01828290               31.96796783                0.00010000               -0.09578467               -0.07068398               -0.18995902                0.47764572                2.32173074               -0.16443441
               7.98332276                1.84765306               31.87635747                0.00010000                0.00185632               -0.06585877               -0.40277728                0.34819683                3.51454543                0.69654308
               8.98333416                1.67869543               31.81598680                0.00010000                0.07995624               -0.01424618               -0.70996811                0.20337342                4.23786925                1.28508969
               9.98492188                1.50926153               31.73934304                0.49899609                0.22923240                0.24075151               -0.89260148               -0.04678894                2.31488778                1.71190859
              10.98791881                1.34005878               31.64088784                1.00000000                0.33631507                0.31914743               -1.13756249               -0.02054752                0.82250201                0.81227372
              11.99164818                1.17132320               31.53427253                1.00000000                0.37293693                0.47184571               -1.41569914               -0.00212217                0.42104169               -1.04918732
               2.18490341                3.90392661               32.35245739                1.00000000               -0.22323965               -0.30576145                0.90083722               -0.01246152                0.10492703                1.54251777
               3.18267101                3.72440607               32.23691342                1.00000000               -0.19136130               -0.19711981                0.64760124                0.00961108                0.14913923               -0.02470259
               4.18107618                3.54445520               32.12217346                0.35128294               -0.11356214               -0.09678364                0.40257673               -0.01922774                1.10033182               -1.68300001
               5.18039977                3.36353647               32.02565141                0.00010000               -0.47644985               -0.05916840                0.15731243                0.32554528                5.18750278               -2.75624917
               6.17154719                3.18946293               31.99249294                0.00010000               -0.84379241               -0.03939969               -0.04302614                0.81242781                7.92362590               -3.02601961
               7.16352392                3.01580442               31.94937344                0.00010000               -0.66113486               -0.10556648               -0.23581613                0.57768311                7.09688223               -0.74555917
               8.15832449                2.84508039               31.89795094                0.00010000               -0.40392036               -0.15630380               -0.44250611                0.38226633                6.62464090                1.51757454
               9.15544552                2.67613730               31.84426626                0.00010000               -0.26894638               -0.16274720               -0.64707250                0.33661073                6.28324822                1.98943803
              10.15294556                2.51145178               31.78506982                0.22091309                0.01952571                0.06191609               -0.83107412                0.02759658                4.08329864                3.19253754
              11.15583603                2.34307087               31.68632805                0.92759589                0.32820979                0.27956715               -1.09716332               -0.07578356                1.09713842                1.32254467
              12.15950976                2.17614446               31.56691149                1.00000000                0.36737286                0.47474621               -1.38480767               -0.01506912                0.07324653               -0.63883368
               2.36373125                4.90098204               32.31515426                1.00000000               -0.18073992               -0.27635202                0.76759918               -0.02101930                0.15991832                1.32263803
               3.36192385                4.72262091               32.19208790                0.83582062               -0.15232922               -0.15251920                0.51230735               -0.00412340                0.24338807               -0.27483892
               4.36068466                4.54375218               32.07062286                0.20198785               -0.07577164               -0.03732476                0.26921446               -0.07061965                1.27508397               -1.73191425
               5.36040842                4.36329419               31.96818950                0.00010000               -0.57328069                0.06495095                0.03615351                0.13670722                6.79511010               -2.78979805
               6.34921905                4.18937644               31.95695736                0.00010000               -1.05875911                0.08128294               -0.11111187                0.25705595               10.99914850               -1.34016424
               7.33923323                4.01617157               31.93750158                0.00010000               -0.92919229                0.09830268               -0.26957208                0.13626943               10.30469337               -0.09939757
               8.33063520                3.84452699               31.91094096                0.00010000               -0.77691204                0.02566735               -0.44016604                0.03269109                9.82328759                1.21658086
               9.32369499                3.67544049               31.88007972                0.00010000               -0.60474794               -0.02941382               -0.61288881                0.02202779                9.64095676                2.46063561
              10.31854024                3.51049985               31.84797744                0.18757391               -0.09922640               -0.14943594               -0.78262074               -0.02228430                5.42378301                3.89946202
              11.32171046                3.34565012               31.73068114                0.70727020                0.33296885                0.21731565               -1.00376088               -0.02621935                0.68532264                1.42710422
              12.32519962                3.18081812               31.60331659                1.00000000                0.34891574                0.47148682               -1.31594065               -0.04619455                0.18483448               -0.36424433
               2.54120528                5.89839957               32.27542192                1.00000000               -0.13868729               -0.23350123                0.62497133               -0.02661182                0.13131520                1.09357670
               3.53981841                5.72135569               32.14405231                0.67282738               -0.11073822               -0.09883489                0.35682088               -0.01483983                0.31855205               -0.55441614
               4.53899052                5.54370870               32.01635906                0.13209569               -0.11543769                0.02978900                0.10634257               -0.06448300                1.84365960               -2.07088227
               5.53750966                5.36483549               31.91550274                0.00010000               -0.75897982                0.22424956               -0.08919426               -0.12763934                8.99658238               -1.35463864
               6.52381092                5.19108859               31.93083383                0.00010000               -1.32054482                0.24756613               -0.15949776               -0.05744099               14.16481542               -0.40541152
               7.51109876                5.01777048               31.93205556                0.00010000               -1.20507645                0.23158222               -0.28868145               -0.22731351               13.21603366                0.46142576
               8.49970939                4.84559374               31.92664500                0.00010000               -1.05927755                0.16176031               -0.42791743               -0.33628070               12.83209884                1.44965515
               9.48991321                4.67554902               31.91802452                0.00010000               -0.87095755                0.03562868               -0.56804361               -0.36127185               12.75338863                2.54476886
              10.48229024                4.50846306               31.90860479                0.19061728               -0.24599191               -0.17973352               -0.71351147               -0.18323591                6.79475084                3.66985612
              11.48499337                4.34741718               31.77828435                0.62143071                0.29798124                0.16572006               -0.91086402                0.03315833                0.42449697                1.53580287
              12.48824987                4.18557419               31.64109760                1.00000000                0.32564962                0.46973910               -1.24302823               -0.02758224                0.08955718               -0.27681732
               2.71728678                6.89631202               32.23356740                1.00000000               -0.09688615               -0.18106685                0.47689982               -0.02578252                0.06083460                0.92764964
               3.71631792                6.72064422               32.09353819                0.57420929               -0.06857896               -0.04767351                0.20384313               -0.01529084                0.28097440               -0.71313924
               4.71591520                6.54434796               31.95784130                0.09222209               -0.29210875                0.08873853               -0.05611611               -0.01546017                3.71125691               -2.39703826
               5.71047575                6.36777918               31.88643038                0.00010000               -1.03899817                0.31230166               -0.07660070               -0.32485909               11.87443472                0.57827617
               6.69513524                6.19432776               31.91405448                0.00010000               -1.51469686                0.38790588               -0.18492891               -0.31138978               16.41049976                0.37025916
               7.68018181                6.02080321               31.93172296                0.00010000               -1.45020989                0.38244302               -0.29892341               -0.51391280               15.79095304                0.84467452
               8.66613104                5.84776220               31.94478728                0.00010000               -1.32907866                0.28467032               -0.40718046               -0.69736995               15.59838045                1.58404427
               9.65360024                5.67615306               31.95606927                0.00010000               -1.15618355                0.10326660               -0.50877826               -0.80829165               15.65391729                2.47422113
              10.64300737                5.50690518               31.96750352                0.21012177               -0.41688679               -0.11695363               -0.60181777               -0.44461830                8.10049653                3.44168930
              11.64526250                5.34896452               31.82502412                0.57638036                0.26632912                0.15943233               -0.85547287                0.04382861                0.23698828                1.42352065
              12.64833395                5.19021290               31.67891354                0.99532525                0.30714537                0.45830913               -1.20309443               -0.01336529                0.06405690               -0.31891435
               2.89202524                7.89477823               32.19052421                1.00000000               -0.05485846               -0.12572582                0.33001602               -0.02451888                0.02282153                0.85294930
               3.89147665                7.72040222               32.04221243                0.52854309               -0.02394421               -0.00356012                0.05429715               -0.00951873                0.17309016               -0.75254258
               4.89154635                7.54548347               31.89682981                0.06614803               -0.52219901                0.12794748               -0.21769752                0.03818285                6.38343211               -2.54455821
               5.88103267                7.37108152               31.87272281                0.00010000               -1.34936320                0.38559074               -0.04580311               -0.24954520               15.22259417                1.08158701
               6.86455909                7.19884670               31.90388091                0.00010000               -1.68233020                0.54000287               -0.21705786               -0.33912888               18.05989659                0.72178354
               7.84738607                7.02541934               31.93452289                0.00010000               -1.70734716                0.57723433               -0.30958511               -0.67786607               18.09038162                0.97815433
               8.83041215                6.85128715               31.96387014                0.00010000               -1.63908394                0.45578998               -0.38207562               -1.02782946               18.16478925                1.56534215
               9.81460439                6.67761436               31.99323041                0.00010000               -1.49128659                0.21889342               -0.44364828               -1.26094933               18.37697761                2.30252873
              10.80058641                6.50612399               32.02393030                0.24045693               -0.60210856               -0.04102487               -0.48584891               -0.73266432                9.35713619                3.12748663
              11.80256222                6.35060583               31.87025993                0.55518385                0.24496926                0.17331994               -0.81279590                0.02597663                0.08969812                1.25607496
              12.80548580                6.19474038               31.71537251                0.97600415                0.29235807                0.43970647               -1.17270100               -0.00213628                0.03931404               -0.45548583
               3.06554844                8.89379750               32.14714899                1.00000000               -0.01261344               -0.07176884                0.18534092               -0.02343940                0.00673093                0.84986170
               4.06542231                8.72057301               31.99079985                0.53105054                0.02255573                0.03691091               -0.09278660               -0.00352124                0.04532193               -0.74505433
               5.06599956                8.54690691               31.83513905                0.04406008               -0.66503480                0.15192176               -0.37815377                0.13645725                8.83478543               -2.40549660
               6.05212161                8.37549099               31.85455106                0.00010000               -1.59923558                0.54784216               -0.18678460                0.05236322               18.69130970                0.51435924
               7.03401484                8.20512782               31.89482761                0.00010000               -1.89687839                0.75443230               -0.28418589               -0.19093285               19.97057436                0.61878540
               8.01418404                8.03234790               31.93765707                0.00010000               -2.03177061                0.81969965               -0.33189565               -0.66253079               20.32315662                0.83361147
               8.99337943                7.85687799               31.98249749                0.00010000               -2.03198180                0.74835308               -0.34657890               -1.19859988               20.61913520                1.32885641
               9.97354441                7.68053093               32.02852287                0.02109058               -1.90084095                0.40793027               -0.37618526               -1.74167088               20.92921807                2.22131683
              10.95536261                7.50608468               32.07664466                0.27868854               -0.81893810                0.03050836               -0.40797327               -1.04230873               10.58548721                2.64815491
              11.95716565                7.35243092               31.91340306                0.55319041                0.23297589                0.19420428               -0.78432418               -0.00281463                0.01927582                1.05381957
              12.96002213                7.19900703               31.74993191                0.96451304                0.28564861                0.40881320               -1.15472824                0.00659800                0.02077813               -0.63694106
               3.23800543                9.89334286               32.10397965                1.00000000                0.02913954               -0.02178660                0.04305086               -0.02279626               -0.01565194                0.74771576
               4.23829682                9.72114043               31.93952937                0.55884901                0.06760464                0.07675607               -0.23758564               -0.00091903                0.07247508               -0.62838660
               5.23935752                9.54852191               31.77674996                0.00959450               -0.72188972                0.17446701               -0.52529517                0.33136446               10.96024691               -1.62777867
               6.22385903                9.38203836               31.83001295                0.00010000               -1.77369979                0.83246635               -0.39446304                0.27577651               21.87536521                0.10200939
               7.20388352                9.21393535               31.88327878                0.00010000               -2.07368759                0.94010105               -0.38406899               -0.03105717               22.10931649                0.31537194
               8.18238528                9.04181333               31.93840190                0.00010000               -2.28132025                1.02016418               -0.37481343               -0.41362315               22.54620325                0.47000242
               9.15825712                8.86625421               31.99782415                0.00010000               -2.59104961                1.05929223               -0.32178936               -0.95623043               23.25386920                0.78190547
              10.13056428                8.68577296               32.06478801                0.06479638               -2.52084356                0.94098491               -0.17966408               -1.67146506               23.31440362                1.68038991
              11.10784025                8.50673416               32.12337388                0.32348540               -1.04903541                0.10546152               -0.39068516               -1.36101571               11.64275033                1.63570791
              12.10958358                8.35448991               31.95432150                0.56439514                0.23126446                0.21816677               -0.78143091               -0.02686760                0.12847605                0.75991466
              13.11246554                8.20291664               31.78228001                0.95036532                0.28819614                0.37845262               -1.15671484                0.00884702               -0.00434244               -0.66999863
               3.40949736               10.89336177               32.05846501                1.00000000                0.07275125                0.00189134               -0.09641090                0.02383011                0.40952340                0.63643528
               4.41022488               10.72210814               31.89037033                0.81808747                0.11157765                0.09677019               -0.37874672                0.04452923                0.82745769               -0.51922263
               5.41172892               10.55039625               31.73053337                0.50117763               -0.90005880                0.18743409               -0.65955110                0.73874884               12.90457112               -1.01736008
               6.39222370               10.39214032               31.80391989                0.36814745               -1.90550912                1.01019571               -0.55125584                0.51314666               24.37783614               -0.03445915
               7.37361873               10.22392984               31.86882672                0.35789965               -1.93154895                0.99944897               -0.48844848                0.00406424               24.18734096                0.13338239
               8.35359272               10.05275118               31.93496028                0.37219987               -2.16617712                1.09378552               -0.44374902               -0.17255553               24.63805144                0.23497704
               9.33029519                9.87806384               32.00623769                0.40982518               -2.69787810                1.18096309               -0.34891419               -0.46622055               25.62487279                0.42678505
              10.29963516                9.69935063               32.09012735                0.55048642               -3.54349217                1.35776672               -0.07114232               -1.58640881               25.37955019                1.12228745
              11.25942535                9.50819391               32.15557662                0.68647955               -1.95946748                0.14597583               -0.43262999               -1.96930854               13.04476372                0.92806086
              12.26044581                9.35679426               31.99126609                0.79960447                0.19601352                0.23043453               -0.80656029                0.00533197                1.01845145                0.58111469
              13.26334562                9.20657609               31.81576333                0.97439630                0.28998093                0.36594471               -1.17448712                0.06619095                0.47981192               -0.59287330
               1.73573697                0.96667244               33.47828293                1.00000000               -0.34300773               -0.36710672                1.27282194               -0.05825235               -0.94393752                0.96412793
               2.73230689                0.77625059               33.37443760                1.00000000               -0.29944954               -0.28796380                1.02718489               -0.03833103               -1.23084442                0.11041677
               3.72974798                0.58545730               33.26488592                1.00000000               -0.20241008               -0.21181995                0.76904773               -0.03823712               -1.20524985               -0.21246062
               4.72825869                0.39467679               33.16165384                0.62547816                0.06015544               -0.15918780                0.51974103                0.14910914               -0.36747002               -0.83431281
               5.73095109                0.20807189               33.06901767                0.71764147                0.19736483               -0.07763823                0.23720221               -0.07162930               -0.01256156                0.27423292
               6.73220599                0.02515116               32.97375653                0.80245182                0.12181298                0.01067452               -0.01894807               -0.04010039               -0.31894582                0.16015539
               7.73338735               -0.15653298               32.87494938                0.78515948                0.15306829                0.08516522               -0.27672705               -0.02091897               -0.56018417               -0.07173471
               8.73526735               -0.33745985               32.77471989                0.86264430                0.21329783                0.16850630               -0.54841990               -0.03167745               -0.84199362                0.10492596
               9.73765330               -0.51795495               32.67008934                1.00000000                0.26863288                0.24846610               -0.82427177               -0.03217114               -1.13617282                0.57952147
              10.74064001               -0.69842945               32.56378171                1.00000000                0.33531040                0.33680357               -1.10321835               -0.02992065               -1.09749067               -0.00888907
              11.74435951               -0.87904022               32.45990850                1.00000000                0.37195009                0.43387153               -1.37485168               -0.02918282               -0.97915972               -0.97393176
               1.92557629                1.96300137               33.43466968                1.00000000               -0.30451381               -0.35339546                1.13991854               -0.01695710               -0.14292080                1.31293112
               2.92253115                1.77337096               33.33055678                1.00000000               -0.27118907               -0.26843980                0.89573515                0.00342006               -0.15889461                0.15783504
               3.92015251                1.58333910               33.22610427                0.90365645               -0.20443320               -0.18739070                0.64354399                0.00063556                0.00032246               -0.54599433
               4.91844249                1.39308491               33.12513844                0.23817226               -0.25774496               -0.14081834                0.38621069                0.22946590                1.63016709               -1.25780147
               5.91499761                1.20729550               33.05308621                0.40011654               -0.21675358                0.00388027                0.13380021               -0.06536136                2.45005099                1.02367532
               6.91410742                1.02525791               32.96682172                0.50590367               -0.02569717                0.05610686               -0.10967886                0.02797435                1.53081344                0.46201393
               7.91448367                0.84431867               32.87585837                0.41555050                0.07770732                0.11044951               -0.35601527                0.06838537                1.43658907               -0.30071648
               8.91566156                0.66422521               32.78754357                0.51809638                0.16663618                0.20013309               -0.62034956                0.02807525                1.48852662                0.52005392
               9.91781639                0.48452971               32.69763740                1.00000000                0.26109403                0.25658871               -0.87616141                0.00460927                0.77623007                0.82537933
              10.92088344                0.30493859               32.59524572                1.00000000                0.34310352                0.33963209               -1.14374258                0.01182400                0.08742506                0.11984059
              11.92467846                0.12529849               32.49154261                1.00000000                0.37950165                0.45688496               -1.41430708                0.01406737                0.02531882               -1.13629871
               2.11465866                2.95960453               33.39804123                1.00000000               -0.26210914               -0.33022423                1.01667658               -0.01146147                0.05110376                1.65973073
               3.11203757                2.77088180               33.28760303                1.00000000               -0.23059624               -0.23243287                0.76920321                0.00904946                0.22808370                0.14014597
               4.11004673                2.58170948               33.18061719                0.60325796               -0.15729812               -0.13805080                0.53089727               -0.00786631                0.72903250               -1.32498434
               5.10889160                2.39186043               33.08012177                0.00010000               -0.62879327               -0.10590562                0.26183384                0.32581840                4.68996334               -2.07509558
               6.09747087                2.20814949               33.05221932                0.00010000               -0.65746487                0.00176669               -0.01741700                0.48388382                5.64768891               -1.20199134
               7.09574231                2.02627330               32.96599025                0.00010000               -0.08415564               -0.06264066               -0.21208156                0.32657683                2.37904540               -0.14926054
               8.09578775                1.84567601               32.87227372                0.00010000               -0.00622441               -0.05051822               -0.42092761                0.21398182                3.52063051                0.72073929
               9.09561782                1.66654281               32.80882303                0.00010000                0.06221785               -0.00124409               -0.72003042                0.09713504                4.26511697                1.32122208
              10.09703211                1.48717683               32.73028309                0.48734119                0.22449486                0.22942526               -0.92408364               -0.09085276                2.38168096                1.76905461
              11.10010772                1.30836319               32.62936809                1.00000000                0.34444710                0.32388418               -1.17058318               -0.02782022                0.84751047                0.84072091
              12.10392105                1.13009747               32.51993117                1.00000000                0.38133382                0.49358330               -1.45759806               -0.00024253                0.43303766               -1.05605704
               2.30279252                3.95639689               33.36141797                1.00000000               -0.21853361               -0.30910290                0.89165811               -0.01434135                0.10979752                1.55513717
               3.30060719                3.76872230               33.24336304                1.00000000               -0.18879835               -0.19562979                0.64217136                0.00462993                0.15827616               -0.02108160
               4.29901656                3.58057808               33.12619412                0.35650957               -0.10441690               -0.08690310                0.40214704               -0.05477304                1.11189619               -1.68678240
               5.29851885                3.39096680               33.02720577                0.00010000               -0.43770720               -0.04178380                0.15368972                0.21661493                5.22024429               -2.75352123
               6.29026241                3.20733084               32.99201577                0.00010000               -0.77032070               -0.04241506               -0.05565715                0.57345056                7.98346607               -2.98113316
               7.28311243                3.02400509               32.94689646                0.00010000               -0.58843080               -0.10009891               -0.26237206                0.34556976                7.16004176               -0.69611952
               8.27849380                2.84330831               32.89338127                0.00010000               -0.35044930               -0.14900024               -0.47377128                0.17074412                6.68985586                1.56829976
               9.27610345                2.66420033               32.83761615                0.00010000               -0.21574231               -0.15678646               -0.68744076                0.16310420                6.36348765                2.08948081
              10.27417895                2.48911822               32.77668511                0.21392191                0.06514722                0.02653652               -0.84299077               -0.03880230                4.11607834                3.23927948
              11.27740639                2.31141627               32.67520980                0.89383405                0.35130494                0.27874972               -1.14235862               -0.07818463                1.12177269                1.40478677
              12.28120505                2.13517016               32.55290177                1.00000000                0.37986553                0.49656936               -1.43125992               -0.02080582                0.10324240               -0.58977572
               2.48972100                4.95342247               33.32277679                1.00000000               -0.17720370               -0.27871792                0.75704694               -0.02330889                0.16839624                1.32463512
               3.48794897                4.76696920               33.19717617                0.82833337               -0.15071182               -0.14817081                0.50540730               -0.00890362                0.25792650               -0.28572675
               4.48670677                4.57997142               33.07329688                0.20193940               -0.07389108               -0.02713725                0.26516827               -0.09582529                1.29846297               -1.75165007
               5.48647115                4.39102475               32.96851159                0.00010000               -0.54025916                0.08913085                0.02763253                0.02031718                6.85883404               -2.78201763
               6.47590159                4.20730119               32.95580460                0.00010000               -0.98974579                0.08294567               -0.12320819                0.07720807               11.10848721               -1.29212928
               7.46667623                4.02427132               32.93468205                0.00010000               -0.84470903                0.08507281               -0.29781011               -0.04669862               10.40781570               -0.03494409
               8.45900740                3.84269601               32.90634904                0.00010000               -0.68031195                0.01047293               -0.48342106               -0.14087169                9.92922275                1.29749852
               9.45306999                3.66340708               32.87371493                0.00010000               -0.49836415               -0.04780154               -0.66804581               -0.15245626                9.76584768                2.55570859
              10.44904012                3.48770756               32.83998613                0.18001956               -0.02889530               -0.18163933               -0.84358702               -0.09493988                5.55312386                3.96358745
              11.45249209                3.31393819               32.72060153                0.67466649                0.34785220                0.20974732               -1.01235926               -0.02257121                0.74538098                1.53032333
              12.45599717                3.14002886               32.59011787                1.00000000                0.35050800                0.48984901               -1.33191882               -0.05104652                0.19723639               -0.29084953
               2.67523288                5.95082253               33.28161063                1.00000000               -0.13527192               -0.23460005                0.61288312               -0.02816913                0.13174928                1.08730348
               3.67388016                5.76575888               33.14758205                0.66570872               -0.10941896               -0.09296859                0.34904674               -0.01923987                0.32773448               -0.57326490
               4.67304450                5.58003534               33.01740552                0.13023419               -0.11423698                0.04128109                0.10287272               -0.08874224                1.89016995               -2.10248370
               5.67159542                5.39274942               32.91464493                0.00010000               -0.72422512                0.22537645               -0.08054616               -0.25292653                9.12829424               -1.27142609
               6.65856000                5.20898975               32.92921445                0.00010000               -1.24058884                0.23540365               -0.16764805               -0.24681908               14.32973902               -0.33515123
               7.64678365                5.02570655               32.92903347                0.00010000               -1.10096976                0.20852238               -0.32036447               -0.39700737               13.35577957                0.53699919
               8.63654060                4.84351777               32.92214594                0.00010000               -0.93704372                0.13183832               -0.47851850               -0.49847499               12.98166945                1.54084666
               9.62804277                4.66324430               32.91207024                0.00010000               -0.73957814                0.00679157               -0.63320062               -0.53407622               12.91956382                2.65333923
              10.62174904                4.48548543               32.90117584                0.18236573               -0.17045535               -0.19518950               -0.78436162               -0.27124342                6.96131871                3.78691768
              11.62463366                4.31561122               32.76907510                0.59610124                0.31268637                0.16801069               -0.94552747                0.03204816                0.50116071                1.62449387
              12.62800277                4.14496714               32.62852090                0.99885355                0.33691051                0.49422329               -1.29176665               -0.02316060                0.09351030               -0.21876140
               2.85928491                6.94873047               33.23826747                1.00000000               -0.09335519               -0.18061279                0.46321164               -0.02674808                0.05982388                0.91881204
               3.85835136                6.76510983               33.09553364                0.56741061               -0.06717625               -0.04163835                0.19494906               -0.01923292                0.28649355               -0.72836275
               4.85794139                6.58079704               32.95726354                0.08930536               -0.29465794                0.10104785               -0.06008390               -0.05611579                3.85477566               -2.42602871
               5.85245820                6.39553228               32.88591484                0.00010000               -0.99666580                0.28298924               -0.02648136               -0.46195403               12.07672126                0.72646790
               6.83800807                6.21200926               32.91219161                0.00010000               -1.41250672                0.35936616               -0.19234460               -0.49604324               16.56041646                0.44497993
               7.82420807                6.02844177               32.92858260                0.00010000               -1.32539558                0.34720520               -0.33457436               -0.68133837               15.96289657                0.92274205
               8.81150016                5.84533277               32.94047541                0.00010000               -1.18936326                0.24484669               -0.46232394               -0.85573617               15.79566751                1.68084998
               9.80042080                5.66354291               32.95069086                0.00010000               -1.01259138                0.07070069               -0.57621632               -0.97602994               15.88000229                2.59527451
              10.79124833                5.48380377               32.96118196                0.20176867               -0.33847285               -0.12439239               -0.67498031               -0.52837719                8.27843975                3.59838896
              11.79365134                5.31729840               32.81629085                0.55548346                0.27868914                0.17459841               -0.89861484                0.05013148                0.29094921                1.50091889
              12.79682211                5.14991333               32.66666449                0.97410549                0.31707699                0.48913766               -1.25613769               -0.01037482                0.06625220               -0.26632585
               3.04193920                7.94721027               33.19374686                1.00000000               -0.05102689               -0.12342421                0.31460547               -0.02511073                0.02191758                0.84566073
               4.04142893                7.76492611               33.04270700                0.52259823               -0.02197300                0.00182706                0.04421321               -0.01190941                0.17379638               -0.76429292
               5.04149974                7.58205629               32.89462802                0.06303991               -0.51424038                0.13862172               -0.22415802               -0.02995285                6.61678376               -2.57136768
               6.03114412                7.39840920               32.87244283                0.00010000               -1.28850473                0.35241699               -0.01830590               -0.38429246               15.50186679                1.12681256
               7.01572964                7.21617707               32.90165697                0.00010000               -1.56553764                0.50566035               -0.23323266               -0.50399378               18.20267376                0.77074063
               7.99983337                7.03265066               32.93124726                0.00010000               -1.57024515                0.53563711               -0.35166866               -0.84037520               18.30281562                1.04761254
               8.98432474                6.84841470               32.95978920                0.00010000               -1.48910958                0.40835292               -0.44142644               -1.18441126               18.41376320                1.66657195
               9.97005118                6.66465831               32.98850209                0.00010000               -1.34493673                0.18215012               -0.50994263               -1.41535391               18.66566059                2.42585197
              10.95742601                6.48299759               33.01880823                0.23287694               -0.52622216               -0.03920189               -0.54573270               -0.80943387                9.53587714                3.27120766
              11.95952673                6.31910319               32.86192563                0.53651032                0.25697074                0.18880870               -0.85751188                0.03272168                0.10941193                1.32515984
              12.96256542                6.15474989               32.70340882                0.95862103                0.30386868                0.46826500               -1.22464750                0.00088038                0.04079230               -0.40603368
               3.22335101                8.94626199               33.14891570                1.00000000               -0.00838611               -0.06774232                0.16809768               -0.02375329                0.00590377                0.84472548
               4.22326715                8.76514637               32.98981873                0.52720271                0.02541159                0.04147418               -0.10388328               -0.00440749                0.04011199               -0.75386401
               5.22385924                8.58356948               32.83132055                0.04169305               -0.63077887                0.15854428               -0.38600437                0.05253354                9.06012567               -2.42258306
               6.21065157                8.40258062               32.85258928                0.00010000               -1.50862490                0.52833464               -0.21393084               -0.08875553               19.02451145                0.44423689
               7.19368674                8.22212247               32.89185253                0.00010000               -1.77443178                0.72097687               -0.31609538               -0.34120019               20.19219791                0.63331267
               8.17516294                8.03915451               32.93411353                0.00010000               -1.89412324                0.78093154               -0.38371743               -0.81310071               20.59795427                0.88445882
               9.15580428                7.85349983               32.97874260                0.00010000               -1.88160481                0.70459525               -0.41351696               -1.34978676               20.92449809                1.42495165
              10.13753084                7.66718591               33.02445332                0.02003267               -1.75947501                0.36593664               -0.44563528               -1.89013824               21.25472295                2.40402879
              11.12061478                7.48301973               33.07233114                0.27305932               -0.74886831                0.04002072               -0.45675401               -1.10794885               10.75466652                2.73884657
              12.12255347                7.32107458               32.90532492                0.53518108                0.24657673                0.20965134               -0.83288604                0.00119780                0.01532039                1.10208947
              13.12554631                7.15927863               32.73813026                0.94935672                0.29928398                0.43280703               -1.20821927                0.00932142                0.02029117               -0.60250279
               3.40369536                9.94585542               33.10431326                1.00000000                0.03379263               -0.01640064                0.02380558               -0.02298788               -0.01675954                0.74508922
               4.40403329                9.76575560               32.93709751                0.55641502                0.07104010                0.08076046               -0.24941321               -0.00129325                0.06774609               -0.63381137
               5.40511616                9.58522718               32.77147752                0.00922349               -0.66086341                0.17767588               -0.53073105                0.23821701               11.15205037               -1.63075959
               6.39081602                9.40897590               32.82589597                0.00010000               -1.63922080                0.79434735               -0.43364999                0.15451666               22.22874926                0.03918708
               7.37233175                9.23059661               32.87922664                0.00010000               -1.93110122                0.90460186               -0.43131413               -0.14075470               22.41986313                0.31294306
               8.35219399                9.04826929               32.93437247                0.00010000               -2.15170708                0.98989791               -0.43881064               -0.51513765               22.89174624                0.49610513
               9.32929760                8.86250661               32.99426863                0.00010000               -2.47327400                1.03691911               -0.40150847               -1.06936377               23.68693645                0.84365136
              10.30272851                8.67197704               33.06267220                0.06788163               -2.39596194                0.91415143               -0.26475962               -1.78213704               23.64420156                1.87812664
              11.28137837                8.48379800               33.11920380                0.32153617               -0.97183607                0.12095160               -0.44218905               -1.40410380               11.72065420                1.66005557
              12.28329179                8.32329621               32.94622440                0.54590439                0.24826898                0.23621675               -0.83800997               -0.02507352                0.12098427                0.77862790
              13.28634375                8.16340603               32.77042122                0.93635509                0.30519527                0.39983890               -1.21674691                0.01143944               -0.00291529               -0.65478271
               3.58309090               10.94593397               33.05739520                1.00000000                0.07786238                0.00785473               -0.11744495                0.02231528                0.40802786                0.63519162
               4.58386953               10.76676158               32.88652208                0.81755834                0.11561896                0.10059818               -0.39170208                0.04307539                0.82645019               -0.52246218
               5.58540328               10.58712300               32.72391291                0.50031140               -0.77485284                0.18958158               -0.66647342                0.61401142               13.09025046               -1.01429168
               6.56837247               10.41846756               32.79824377                0.36836651               -1.69125121                0.94916687               -0.58645187                0.41022100               24.74959417               -0.07218794
               7.55157826               10.24021451               32.86367973                0.35805612               -1.77111419                0.96178959               -0.54639998               -0.05110337               24.54867906                0.12824808
               8.53295019               10.05895247               32.93018100                0.37196894               -2.04345069                1.06831840               -0.52050736               -0.22319528               25.03294955                0.24821646
               9.51070925                9.87423821               33.00234529                0.40897417               -2.61767413                1.17316070               -0.44404096               -0.53301228               26.15599002                0.46500559
              10.48059671                9.68546894               33.08902935                0.55341593               -3.47478568                1.34918980               -0.17989965               -1.65315341               25.70906097                1.28155806
              11.44121353                9.48543876               33.15090131                0.68689948               -1.90763670                0.16407624               -0.50035534               -1.99998482               13.06140006                0.91880029
              12.44244397                9.32579891               32.98283865                0.79007537                0.21709663                0.25026980               -0.87785777                0.00705008                1.02945683                0.58380322
              13.44555547                9.16727541               32.80366036                0.96756621                0.31114937                0.38693749               -1.24714267                0.06882150                0.49468968               -0.58624674
               1.83129903                1.02064640               34.49101191                1.00000000               -0.34449270               -0.36779609                1.27394472               -0.05772860               -0.95689838                0.97418959
               2.82785410                0.82191498               34.38470979                1.00000000               -0.30225752               -0.28724607                1.02728339               -0.03825183               -1.24888891                0.11623046
               3.82525388                0.62276141               34.27259361                1.00000000               -0.20830314               -0.20830235                0.76917929               -0.04205534               -1.22225640               -0.21108901
               4.82368804                0.42347799               34.16688865                0.62692737                0.03463381               -0.15118662                0.51929236                0.10122492               -0.39842585               -0.85167912
               5.82594655                0.22729201               34.07137358                0.71481377                0.17911733               -0.08309851                0.23171530               -0.07037594               -0.04529023                0.28008587
               6.82727039                0.03414880               33.97359502                0.79809185                0.13052310                0.00758620               -0.01684421               -0.04881517               -0.32614514                0.16272216
               7.82855702               -0.15775101               33.87225365                0.78544400                0.16370062                0.08099100               -0.26596336               -0.02874554               -0.56639528               -0.06772625
               8.83054440               -0.34887811               33.76937204                0.86776019                0.22287543                0.15982755               -0.52140086               -0.04061319               -0.85261558                0.10571789
               9.83301453               -0.53943051               33.66199909                1.00000000                0.27288348                0.23810981               -0.79410906               -0.04130961               -1.15633442                0.58329968
              10.83600207               -0.72980954               33.55286537                1.00000000                0.33336830                0.33078858               -1.07782501               -0.03121873               -1.11925138               -0.01075209
              11.83968189               -0.92035464               33.44624417                1.00000000                0.36798235                0.43135406               -1.35537188               -0.02333577               -0.99806851               -0.99419145
               2.02945316                2.01696844               34.44605258                1.00000000               -0.30390860               -0.35514021                1.13803742               -0.01565053               -0.14741526                1.32731867
               3.02641408                1.81904252               34.33950647                1.00000000               -0.27006714               -0.26775020                0.89366733                0.00508846               -0.17050496                0.16537568
               4.02405182                1.62067839               34.23248546                0.91731671               -0.19895456               -0.18315478                0.63426448               -0.00343748               -0.02184290               -0.53094285
               5.02243499                1.42196612               34.12886969                0.24727770               -0.20722169               -0.12848385                0.36655061                0.15984891                1.61028174               -1.25432652
               6.01990739                1.22646103               34.05431311                0.40408092               -0.15656203               -0.00484833                0.11059018               -0.06821287                2.45489897                1.00362209
               7.01930375                1.03422466               33.96565762                0.50787158               -0.00621847                0.05370759               -0.12694779                0.00755185                1.54665957                0.46005844
               8.01978302                0.84305890               33.87228225                0.42031315                0.08371353                0.11479851               -0.36464640                0.04205333                1.44729217               -0.28967735
               9.02097802                0.65272016               33.78137781                0.51831483                0.16420627                0.19627035               -0.61572832               -0.00127891                1.49534493                0.50801691
              10.02306714                0.46295059               33.68887447                1.00000000                0.25869643                0.25127105               -0.87504456               -0.01129547                0.78231227                0.83027721
              11.02615195                0.27349834               33.58377113                1.00000000                0.34632454                0.33593291               -1.15056849                0.01135901                0.08799933                0.12254993
              12.02999363                0.08395890               33.47732911                1.00000000                0.38416888                0.45987660               -1.42684660                0.02109946                0.02673187               -1.16336679
               2.22683786                3.01354360               34.40817501                1.00000000               -0.25919379               -0.33373202                1.01163800               -0.01055854                0.04962450                1.67822849
               3.22424592                2.81655997               34.29527324                1.00000000               -0.22881668               -0.23156061                0.76545914                0.01005180                0.22958343                0.15040716
               4.22226153                2.61909832               34.18592348                0.61823060               -0.15717734               -0.13192637                0.52715350               -0.01160583                0.71275225               -1.30690264
               5.22110238                2.42090831               34.08266254                0.00010000               -0.49688866               -0.09449483                0.24549919                0.23223743                4.64016900               -2.03720018
               6.21232375                2.22719505               34.05184991                0.00010000               -0.51394119               -0.01030188               -0.05428912                0.29665405                5.66290199               -1.18385875
               7.21082355                2.03522295               33.96372620                0.00010000               -0.07105851               -0.05172165               -0.24411684                0.17027131                2.44437273               -0.12500055
               8.21090258                1.84454496               33.86793892                0.00010000               -0.00982094               -0.03439180               -0.45208682                0.07216188                3.53906604                0.74986520
               9.21062713                1.65504729               33.80158620                0.00010000                0.05539253                0.01574251               -0.73312959               -0.02583235                4.28381358                1.35362497
              10.21201043                1.46559491               33.72086137                0.45628958                0.22969012                0.17918701               -0.96219394               -0.17659196                2.44140580                1.85751027
              11.21522094                1.27690912               33.61747617                1.00000000                0.35861692                0.32174089               -1.21055759               -0.04245710                0.87272907                0.87447048
              12.21918277                1.08884289               33.50512057                1.00000000                0.39618370                0.51016724               -1.50216999                0.00322812                0.44005040               -1.05839071
               2.42320924                4.01029380               34.37029055                1.00000000               -0.21488410               -0.31307532                0.88428427               -0.01512172                0.11299558                1.56809278
               3.42106039                3.81441131               34.24975685                1.00000000               -0.18689326               -0.19363038                0.63689460                0.00312099                0.16590295               -0.01495489
               4.41947137                3.61803986               34.13021640                0.36066045               -0.10386955               -0.07952697                0.40133141               -0.06390566                1.11843005               -1.68598918
               5.41898300                3.42007622               34.02872520                0.00010000               -0.39727728               -0.03468146                0.15184891                0.10950689                5.22992028               -2.71885100
               6.41152582                3.22625499               33.99137980                0.00010000               -0.68118718               -0.04299383               -0.07686678                0.30042956                8.02491409               -2.91549093
               7.40535926                3.03319023               33.94412600                0.00010000               -0.50619553               -0.09436393               -0.29500155                0.10688106                7.21300174               -0.63613308
               8.40140191                2.84237106               33.88847551                0.00010000               -0.29739199               -0.14163343               -0.51202363               -0.04355132                6.75134152                1.62443187
               9.39941142                2.65303501               33.83051744                0.00010000               -0.18642161               -0.14733622               -0.73034813               -0.05445062                6.47122423                2.17971137
              10.39767348                2.46653433               33.76821000                0.20332287                0.13217013               -0.01570152               -0.93429088               -0.11980827                4.20296931                3.36278454
              11.40205482                2.27993316               33.66348088                0.83211840                0.42585846                0.27410852               -1.23800476               -0.05533382                1.13084606                1.53609309
              12.40619065                2.09416224               33.53828630                1.00000000                0.41358281                0.52695580               -1.52029808               -0.03064694                0.15034037               -0.50988778
               2.61830041                5.00728209               34.33029520                1.00000000               -0.17381308               -0.28194211                0.74770304               -0.02506236                0.17551719                1.32745829
               3.61656228                4.81268737               34.20219605                0.82102378               -0.14909577               -0.14391962                0.49876879               -0.01282477                0.27017411               -0.29455792
               4.61531850                4.61750778               34.07592623                0.20107133               -0.07424491               -0.01737457                0.26018806               -0.11065095                1.31600797               -1.76883608
               5.61507738                4.42021468               33.96874215                0.00010000               -0.50500793                0.09637465                0.02286487               -0.09445001                6.91672398               -2.75499346
               6.60521834                4.22633517               33.95449320                0.00010000               -0.91161409                0.08717766               -0.14205586               -0.11938359               11.20299518               -1.23150705
               7.59684510                4.03333567               33.93154538                0.00010000               -0.75157817                0.07098398               -0.33377084               -0.23496363               10.49205887                0.03617976
               8.59018677                3.84171229               33.90127254                0.00010000               -0.57351215               -0.00433781               -0.53690662               -0.31655025               10.01839776                1.37966576
               9.58537486                3.65210057               33.86671880                0.00010000               -0.37353274               -0.06975655               -0.74266787               -0.32841243                9.86647679                2.65671027
              10.58271612                3.46528088               33.83110570                0.17092894                0.05557422               -0.17643680               -0.94002534               -0.14355035                5.69522506                4.05754769
              11.58648634                3.28239129               33.71043396                0.63872296                0.36977760                0.21422910               -1.05565607               -0.01410880                0.84509204                1.67433014
              12.59011167                3.09938200               33.57667822                1.00000000                0.36253295                0.52450542               -1.40039312               -0.04903723                0.22185043               -0.18925356
               2.81189743                6.00465496               34.28767958                1.00000000               -0.13192203               -0.23650305                0.60160671               -0.02967895                0.13153962                1.08163558
               3.81057821                5.81153291               34.15103324                0.65766816               -0.10831973               -0.08676767                0.34120575               -0.02365751                0.33633010               -0.59087795
               4.80973104                5.61769237               34.01841651                0.12752665               -0.11558020                0.05485540                0.09899704               -0.11090889                1.94165576               -2.13154645
               5.80826661                5.42200372               33.91389182                0.00010000               -0.68569399                0.21479787               -0.06927459               -0.38445535                9.25021717               -1.15036740
               6.79601716                5.22799854               33.92748087                0.00010000               -1.14918709                0.22248336               -0.18225778               -0.44681666               14.46827599               -0.25417897
               7.78528287                5.03460991               33.92564827                0.00010000               -0.98555726                0.18542952               -0.36173700               -0.57016972               13.46903546                0.61823706
               8.77630601                4.84228431               33.91707463                0.00010000               -0.80041413                0.10118207               -0.54320686               -0.66103359               13.10635250                1.63890208
               9.76927458                4.65163988               33.90536051                0.00010000               -0.58971279               -0.02369354               -0.72020287               -0.70799199               13.06596561                2.77855386
              10.76451176                4.46300559               33.89291756                0.17314120               -0.08015322               -0.20201577               -0.88859483               -0.35810406                7.14757305                3.94055581
              11.76767152                4.28421774               33.75937380                0.57013776                0.33583559                0.18705430               -1.01064707                0.03796859                0.60326500                1.73623805
              12.77122847                4.10465235               33.61526227                0.97329645                0.35569496                0.53082326               -1.37128703               -0.01653682                0.09491865               -0.13685433
               3.00395092                7.00255203               34.24283163                1.00000000               -0.08992002               -0.18058702                0.45012318               -0.02770704                0.05841885                0.91016640
               4.00305172                6.81095201               34.09743717                0.55967303               -0.06607015               -0.03508243                0.18540830               -0.02269664                0.29169977               -0.74282607
               5.00262952                6.61860488               33.95663963                0.08581940               -0.29848093                0.11533700               -0.06588903               -0.10131078                4.02378993               -2.45556364
               5.99708210                6.42451064               33.88590075                0.00010000               -0.94768525                0.24698059                0.02099261               -0.60227992               12.27552448                0.88405354
               6.98367581                6.23078484               33.91020759                0.00010000               -1.29630782                0.33010292               -0.20901816               -0.68377013               16.66270925                0.52352550
               7.97115594                6.03704426               33.92503147                0.00010000               -1.18698401                0.31153725               -0.38167996               -0.85108081               16.10553536                1.00666251
               8.95993613                5.84373593               33.93554081                0.00010000               -1.03311044                0.20335473               -0.53303539               -1.01454998               15.96960597                1.78835857
               9.95049374                5.65162670               33.94454495                0.00010000               -0.84799771                0.03645253               -0.66524236               -1.14356935               16.09111044                2.73665584
              10.94297618                5.46124056               33.95400392                0.19240990               -0.24473910               -0.13033135               -0.77825494               -0.60628304                8.47474106                3.78805625
              11.94559895                5.28613237               33.80705182                0.53425284                0.29677721                0.19286030               -0.95281698                0.06181303                0.36790927                1.60753056
              12.94891172                5.10999847               33.65379079                0.95425456                0.33127679                0.52507867               -1.32067912               -0.00805041                0.07045936               -0.17655857
               3.19454332                8.00104322               34.19681632                1.00000000               -0.04718974               -0.12132066                0.29970508               -0.02571822                0.02077071                0.83814497
               4.19407142                7.81083126               34.04309669                0.51651598               -0.01985613                0.00766051                0.03319872               -0.01380650                0.17309002               -0.77516937
               5.19414620                7.61999911               33.89234665                0.05986294               -0.50151840                0.15004330               -0.23389484               -0.10429669                6.86020948               -2.59769595
               6.18404106                7.42694333               33.87235669                0.00010000               -1.21690353                0.32059776               -0.00965622               -0.52003696               15.77382083                1.13622750
               7.16980813                7.23460060               33.89921626                0.00010000               -1.43654501                0.47197812               -0.26022262               -0.67219645               18.30839909                0.81777431
               8.15531016                7.04084065               33.92748952                0.00010000               -1.41877747                0.49338032               -0.40689023               -1.00760417               18.48845999                1.12175802
               9.14143258                6.84635140               33.95504161                0.00010000               -1.32057948                0.35808321               -0.51687240               -1.34391252               18.64546360                1.77717917
              10.12889857                6.65236893               33.98303156                0.00010000               -1.17760781                0.14073512               -0.59471995               -1.56979237               18.95221106                2.56727905
              11.11788042                6.46039896               34.01301565                0.22407260               -0.43743469               -0.03872562               -0.62401982               -0.88429077                9.73242239                3.45088325
              12.12014987                6.28807495               33.85310969                0.51767525                0.27274214                0.20207858               -0.90832633                0.04144661                0.14256956                1.41466267
              13.12333527                6.11515392               33.69087956                0.94202321                0.31853931                0.49730547               -1.28208625                0.00317507                0.04249636               -0.33049307
               3.38386046                9.00012561               34.15051094                1.00000000               -0.00407608               -0.06390343                0.15132671               -0.02411805                0.00496363                0.83898922
               4.38381970                8.81110522               33.98872218                0.52332151                0.02855310                0.04647969               -0.11605323               -0.00519010                0.03357878               -0.76153805
               5.38443152                8.62160575               33.82741896                0.04104503               -0.58699145                0.16576264               -0.39570120               -0.03643804                9.26797223               -2.43632045
               6.37207987                8.43092259               33.85027245                0.00010000               -1.40484819                0.51121441               -0.25227522               -0.23687595               19.33439606                0.34992587
               7.35633456                8.24022440               33.88850570                0.00010000               -1.64134028                0.68832037               -0.35939571               -0.50072838               20.39557864                0.64348847
               8.33925306                8.04691187               33.92998273                0.00010000               -1.74024762                0.74136553               -0.45020610               -0.97293720               20.84921212                0.93783263
               9.32152960                7.85089760               33.97422715                0.00010000               -1.71013677                0.65865722               -0.50033687               -1.51034650               21.21816144                1.52583860
              10.30505033                7.65444140               34.01961017                0.01779145               -1.59726294                0.31952665               -0.53270926               -2.04084827               21.59269146                2.58810804
              11.28958434                7.46046605               34.06750958                0.26618085               -0.66887012                0.04830628               -0.51223654               -1.17233725               10.94191140                2.85391390
              12.29167292                7.29017394               33.89674534                0.51708578                0.26164644                0.22368971               -0.88427619                0.00572496                0.01433789                1.16307035
              13.29481727                7.11994458               33.72576752                0.93459235                0.31443490                0.45684847               -1.26491881                0.01097978                0.01972048               -0.55211998
               3.57210174                9.99976515               34.10445576                1.00000000                0.03857443               -0.01119428                0.00502648               -0.02324404               -0.01787231                0.74168526
               4.57248749                9.81176086               33.93454111                0.55422144                0.07491631                0.08522604               -0.26260460               -0.00171567                0.06240318               -0.63812085
               5.57360007                9.62331436               33.76613534                0.00885935               -0.59013002                0.18169414               -0.53957112                0.13937369               11.32170875               -1.63081322
               6.56068489                9.43716762               33.82133995                0.00010000               -1.48978937                0.75391778               -0.47825027                0.02107729               22.55001823               -0.01928939
               7.54380428                9.24836701               33.87465249                0.00010000               -1.77533357                0.86821161               -0.48898845               -0.25895586               22.70945164                0.30691825
               8.52517822                9.05566797               33.92962569                0.00010000               -2.00540817                0.95932931               -0.51885598               -0.62546849               23.21316202                0.52296918
               9.50369612                8.85952455               33.98979398                0.00010000               -2.33325344                1.01565223               -0.50732729               -1.19357322               24.10192156                0.90637811
              10.47851315                8.65875947               34.05949282                0.06993985               -2.24974918                0.89130413               -0.39788679               -1.89747168               24.00020328                2.06399713
              11.45870114                8.46136509               34.11453010                0.31861652               -0.88636523                0.13544192               -0.49214619               -1.44755066               11.82748086                1.69276694
              12.46078584                8.29254874               33.93756130                0.52755474                0.26562276                0.25339353               -0.89438500               -0.02356070                0.11220308                0.80318081
              13.46401359                8.12429089               33.75794507                0.92250122                0.32277482                0.42141473               -1.27918053                0.01315145               -0.00234760               -0.63169904
               3.75940415               10.99990173               34.05611611                1.00000000                0.08320149                0.01365821               -0.13811994                0.02104254                0.40589645                0.63311729
               4.76023617               10.81280974               33.88253629                0.81718303                0.12040407                0.10488860               -0.40621979                0.04176325                0.82365216               -0.52473234
               5.76181224               10.62523963               33.71720390                0.49947125               -0.63937022                0.19252714               -0.67675249                0.48077672               13.25633765               -1.00958788
               6.74744876               10.44600095               33.79219085                0.36855752               -1.45785732                0.88333319               -0.62768192                0.29383768               25.08660573               -0.09881091
               7.73265509               10.25758863               33.85789872                0.35820164               -1.59313044                0.92216224               -0.61497226               -0.11004391               24.87799735                0.12054518
               8.71558616               10.06609846               33.92455014                0.37176279               -1.90442252                1.04304918               -0.61458713               -0.27810559               25.39818357                0.26124227
               9.69456664                9.87121064               33.99735687                0.40811742               -2.51629029                1.16860953               -0.56988723               -0.60449671               26.65715062                0.50230762
              10.66526035                9.67226748               34.08652935                0.55587363               -3.38612931                1.35080188               -0.35873723               -1.72706735               26.06760377                1.42956652
              11.62684405                9.46317489               34.14556951                0.68690287               -1.84922228                0.18098003               -0.56417175               -2.03699179               13.11726451                0.91015846
              12.62827590                9.29524181               33.97370894                0.78071939                0.23759749                0.26930711               -0.94605300                0.00890546                1.04043759                0.58824189
              13.63159600                9.12837287               33.79082048                0.96074943                0.33200977                0.40819808               -1.32057059                0.07134708                0.50950681               -0.57581754
               1.92920325                1.07607490               35.50376182                1.00000000               -0.34558342               -0.36902572                1.27679824               -0.05761214               -0.96891420                0.98360637
               2.92574742                0.86898184               35.39498327                1.00000000               -0.30396317               -0.28668156                1.02723447               -0.03707837               -1.26664490                0.12291504
               3.92312399                0.66145182               35.28026951                1.00000000               -0.21186070               -0.20614565                0.76466909               -0.04219231               -1.24064566               -0.20937485
               4.92151021                0.45368112               35.17203969                0.62790782                0.01074617               -0.14566200                0.50941749                0.04816216               -0.42794617               -0.86803848
               5.92333891                0.24779454               35.07365198                0.71030640                0.16464045               -0.09029306                0.22031400               -0.07316181               -0.06749859                0.28470969
               6.92480302                0.04428039               34.97341964                0.79005680                0.14717528                0.00475045               -0.02423325               -0.06011684               -0.31994740                0.16531095
               7.92628242               -0.15794471               34.86963011                0.78039326                0.18332914                0.07845597               -0.26601887               -0.03918102               -0.55136422               -0.06359546
               8.92846960               -0.35935704               34.76429187                0.86677606                0.23754342                0.15284283               -0.50372047               -0.05408699               -0.84162724                0.10663230
               9.93103329               -0.56003972               34.65420716                1.00000000                0.27701542                0.23126974               -0.77155024               -0.05134564               -1.16192224                0.59122907
              10.93400991               -0.76045601               34.54222521                1.00000000                0.33036255                0.32347915               -1.05211964               -0.03482175               -1.12907561               -0.00714368
              11.93764054               -0.96109393               34.43280107                1.00000000                0.36306332                0.42486889               -1.33409950               -0.01813282               -1.00548587               -0.99878772
               2.13572020                2.07238464               35.45743043                1.00000000               -0.30320227               -0.35718876                1.13844752               -0.01439007               -0.15254381                1.34084470
               3.13268818                1.86611502               35.34843013                1.00000000               -0.26838853               -0.26711373                0.89114361                0.00695337               -0.18392675                0.17500202
               4.13035243                1.65939037               35.23878956                0.92975239               -0.19338529               -0.18056683                0.62688242               -0.00510179               -0.04689434               -0.51493482
               5.12882047                1.45222450               35.13246945                0.25505453               -0.15223842               -0.12101009                0.35503879                0.08797941                1.58570797               -1.25638538
               6.12730766                1.24689161               35.05529801                0.40649275               -0.08745002               -0.01944559                0.08586607               -0.07851361                2.45772932                0.98617541
               7.12707147                1.04432790               34.96428277                0.50692012                0.02008326                0.05122623               -0.15141122               -0.01570074                1.57248652                0.46105654
               8.12770932                0.84283985               34.86856545                0.42155004                0.09523828                0.12123789               -0.38400354                0.01350763                1.47612030               -0.27862068
               9.12897624                0.64217139               34.77522900                0.51259892                0.16799971                0.19163554               -0.62173168               -0.03324188                1.51897504                0.50179962
              10.13106932                0.44227298               34.68013651                1.00000000                0.26062806                0.25156139               -0.87597474               -0.02278235                0.79360334                0.83592728
              11.13418880                0.24277878               34.57223435                1.00000000                0.35139083                0.32994305               -1.15677966                0.00874852                0.08987214                0.13276779
              12.13809714                0.04315475               34.46300567                1.00000000                0.39083390                0.45332038               -1.43665201                0.02723379                0.02935287               -1.17082816
               2.34145470                3.06893113               35.41827399                1.00000000               -0.25739354               -0.33730448                1.00959423               -0.00917474                0.04830470                1.69584643
               3.33888076                2.86363956               35.30291222                1.00000000               -0.22711107               -0.23073171                0.76219095                0.01102901                0.23046769                0.16262757
               4.33691248                2.65784049               35.19116026                0.63420188               -0.15561062               -0.12674053                0.51918754               -0.01571345                0.69412781               -1.28527902
               5.33576855                2.45126091               35.08503176                0.00010000               -0.36236178               -0.08571650                0.22935657                0.13492631                4.58890803               -2.00870145
               6.32966524                2.24740563               35.05113354                0.00010000               -0.36138986               -0.02569372               -0.08800913                0.10481189                5.67036078               -1.15331222
               7.32854076                2.04530492               34.96110791                0.00010000               -0.04780829               -0.04323198               -0.28113214                0.01398555                2.51562783               -0.09027537
               8.32870908                1.84448005               34.86323198                0.00010000               -0.00845594               -0.01882629               -0.49163655               -0.07046939                3.57750269                0.78326171
               9.32837164                1.64447567               34.79416044                0.00010000                0.06305868                0.02452784               -0.76266482               -0.13356674                4.32415678                1.40047588
              10.32997025                1.44499151               34.71103921                0.43087430                0.24657315                0.19283037               -0.99650196               -0.20636208                2.49470811                1.89561061
              11.33330310                1.24614285               34.60515694                1.00000000                0.37315085                0.32007836               -1.25164486               -0.06304068                0.89662332                0.89573838
              12.33743327                1.04797247               34.48988777                1.00000000                0.41301685                0.51300001               -1.53887961                0.00815670                0.44173917               -1.05762629
               2.54611983                4.06563855               35.37910366                1.00000000               -0.21204373               -0.31742621                0.87991643               -0.01506950                0.11580357                1.58054443
               3.54399939                3.86150039               35.25610093                1.00000000               -0.18515135               -0.19189551                0.63204992                0.00288307                0.17448061               -0.00805339
               4.54241681                3.65685556               35.13422074                0.36399417               -0.10227699               -0.07229496                0.39797340               -0.07109349                1.12663510               -1.68253620
               5.54195386                3.45051017               35.03024275                0.00010000               -0.35284545               -0.02513244                0.14674100               -0.00038614                5.23559846               -2.69272906
               6.53535990                3.24637773               34.99047843                0.00010000               -0.58385496               -0.04178256               -0.10481960                0.02230543                8.05191583               -2.83300476
               7.53027676                3.04346326               34.94099643                0.00010000               -0.41153585               -0.09161349               -0.33455408               -0.13585461                7.26203464               -0.56703081
               8.52712918                2.84246333               34.88314079                0.00010000               -0.22416559               -0.13949236               -0.55916611               -0.26542272                6.81973934                1.68481492
               9.52579344                2.64266195               34.82300919                0.00010000               -0.09271399               -0.13887277               -0.78628723               -0.20695062                6.54628303                2.25397755
              10.52527490                2.44612958               34.75799930                0.18935026                0.20767865               -0.04202778               -1.10508368               -0.21111908                4.32179692                3.55626558
              11.52994702                2.24918035               34.65044970                0.75218699                0.46630620                0.26945122               -1.37595040               -0.10982607                1.17855132                1.71329592
              12.53460102                2.05341475               34.52249581                1.00000000                0.46540063                0.56476716               -1.64342483               -0.05093983                0.20169161               -0.41388323
               2.74942965                5.06258260               35.33773085                1.00000000               -0.17082221               -0.28598747                0.74090359               -0.02626883                0.18213616                1.32989601
               3.74772142                4.85980165               35.20715154                0.81423163               -0.14744091               -0.14000898                0.49237625               -0.01587869                0.28134002               -0.30231549
               4.74648083                4.65639459               35.07850064                0.19932814               -0.07413864               -0.00822742                0.25355413               -0.12205731                1.33425384               -1.78393393
               5.74623865                4.45075827               34.96896889                0.00010000               -0.46612829                0.10366516                0.01952548               -0.21215295                6.96781891               -2.72786487
               6.73715826                4.24656998               34.95296348                0.00010000               -0.82502911                0.09070241               -0.16637978               -0.32382254               11.27833722               -1.15941363
               7.72973807                4.04347265               34.92800663                0.00010000               -0.64781654                0.05609718               -0.37840695               -0.42929648               10.55912282                0.11203670
               8.72420193                3.84169020               34.89561091                0.00010000               -0.45858512               -0.02178931               -0.60136652               -0.49740972               10.08800379                1.45838099
               9.72056637                3.64169822               34.85886157                0.00010000               -0.24862316               -0.08363575               -0.83757710               -0.49067719                9.94686072                2.74635951
              10.71922947                3.44415095               34.82118562                0.16020276                0.16275206               -0.23656274               -1.05320752               -0.23770122                5.84259796                4.22035688
              11.72382141                3.25153187               34.69948841                0.60251679                0.43580946                0.22688823               -1.19605178               -0.02379500                0.95841590                1.91037488
              12.72794566                3.05926782               34.56211001                0.97567831                0.41242496                0.58513619               -1.56129414               -0.05024731                0.23539342               -0.03274663
               2.95115636                6.05991880               35.29364277                1.00000000               -0.12865210               -0.23927702                0.59224892               -0.03123109                0.13103611                1.07582046
               3.94986984                5.85870021               35.15440616                0.64945408               -0.10686560               -0.08058951                0.33300228               -0.02859294                0.34496958               -0.60770625
               4.94901904                5.65669101               35.01938546                0.12417043               -0.11672143                0.06805212                0.09346619               -0.13219815                2.00050783               -2.15810982
               5.94753541                5.45258347               34.91325944                0.00010000               -0.64249895                0.19951029               -0.05904190               -0.51685746                9.36596528               -1.00683011
               6.93616907                5.24819178               34.92556930                0.00010000               -1.04824043                0.20872047               -0.20346436               -0.65124976               14.57684856               -0.16580442
               7.92657060                5.04458520               34.92179873                0.00010000               -0.86068262                0.16305628               -0.41354881               -0.74583763               13.55335949                0.70304339
               8.91895541                4.84202754               34.91128180                0.00010000               -0.65257228                0.07213810               -0.62311790               -0.82095486               13.20104160                1.73921356
               9.91351915                4.64098923               34.89766618                0.00010000               -0.41340976               -0.05466170               -0.83143125               -0.87078399               13.17889016                2.91443514
              10.91068722                4.44139833               34.88340394                0.16297588                0.04175501               -0.23420747               -1.04465942               -0.41321569                7.34241587                4.11803929
              11.91435425                4.25371811               34.74886216                0.54373420                0.37184880                0.20906209               -1.09475001                0.05601999                0.73638991                1.88925307
              12.91812419                4.06511748               34.60109516                0.95029405                0.37699410                0.57485261               -1.45461359               -0.01967760                0.10294386                0.00068468
               3.15124222                7.05779706               35.24726993                1.00000000               -0.08648585               -0.18124725                0.43854720               -0.02884422                0.05654178                0.90154295
               4.15037736                6.85818986               35.09924181                0.55142651               -0.06443097               -0.02812474                0.17491740               -0.02754356                0.29645551               -0.75680657
               5.14995360                6.65775563               34.95594576                0.08210206               -0.29883177                0.13160148               -0.07519927               -0.15082544                4.21711234               -2.48476801
               6.14440073                6.45474847               34.88633469                0.00010000               -0.89110321                0.20892940                0.06009996               -0.73978591               12.46816236                1.03764720
               7.13213154                6.25074439               34.90801125                0.00010000               -1.17075850                0.30213320               -0.23505875               -0.87094827               16.71488280                0.60375420
               8.12098556                6.04673377               34.92094900                0.00010000               -1.03763679                0.27746800               -0.44134426               -1.02023976               16.21575619                1.09480637
               9.11137880                5.84313297               34.92981470                0.00010000               -0.86028293                0.16221993               -0.62155343               -1.16961124               16.11330999                1.90503319
              10.10377990                5.64060498               34.93738601                0.00010000               -0.65712639               -0.00252803               -0.78187311               -1.30319806               16.27415291                2.89856704
              11.09823627                5.43946680               34.94561686                0.18205444               -0.12786196               -0.14443714               -0.92215574               -0.67913848                8.69288004                4.01602963
              12.10122266                5.25571312               34.79723451                0.51279753                0.32585498                0.19924038               -1.01589140                0.07290148                0.47982313                1.74620588
              13.10475337                5.07076487               34.64025090                0.93584171                0.35307144                0.55229073               -1.38508795               -0.00725359                0.07399637               -0.04842689
               3.34979387                8.05629386               35.19974097                1.00000000               -0.04334765               -0.11973660                0.28602728               -0.02633562                0.01933516                0.83046139
               4.34936040                7.85813771               35.04337097                0.50995416               -0.01749737                0.01406669                0.02101857               -0.01587403                0.17060467               -0.78535921
               5.34944393                7.65932304               34.88995012                0.05661748               -0.48047317                0.16493764               -0.24735946               -0.18304164                7.10529515               -2.62228835
               6.33975093                7.45676206               34.87224970                0.00010000               -1.13395623                0.29237055               -0.02120812               -0.66182829               16.03318480                1.10919457
               7.32676480                7.25423445               34.89645252                0.00010000               -1.29868552                0.44058103               -0.29889758               -0.84354993               18.38190907                0.86169222
               8.31377722                7.05013456               34.92310946                0.00010000               -1.25364122                0.45206102               -0.47655964               -1.17611660               18.64492608                1.20014409
               9.30169198                6.84527194               34.94945175                0.00010000               -1.13279335                0.30656309               -0.61109316               -1.50173112               18.85560174                1.89672367
              10.29112136                6.64093867               34.97660770                0.00010000               -0.98478303                0.09409120               -0.70363850               -1.72200065               19.23149047                2.73060108
              11.28199632                6.43850959               35.00632784                0.21398313               -0.33035693               -0.04416214               -0.73022675               -0.95770985                9.95116601                3.67652707
              12.28451422                6.25770292               34.84375910                0.49861635                0.29396510                0.20856287               -0.96408138                0.05066672                0.19596225                1.52174267
              13.28787562                6.07616329               34.67776709                0.92629101                0.33614010                0.52029226               -1.33816294                0.00318667                0.04426544               -0.23428904
               3.54702781                9.05540233               35.15194224                1.00000000                0.00028997               -0.06049472                0.13554654               -0.02444584                0.00397660                0.83268892
               4.54703070                8.85847119               34.98749767                0.51922442                0.03203089                0.05206825               -0.12963516               -0.00532864                0.02604792               -0.76824352
               5.54766842                8.66105438               34.82340653                0.04024690               -0.53889761                0.17514712               -0.40902603               -0.12838703                9.45820962               -2.44639578
               6.53625275                8.46059588               34.84754378                0.00010000               -1.28901926                0.49548234               -0.29423433               -0.39750392               19.61787257                0.24131788
               7.52188804                8.25955601               34.88466461                0.00010000               -1.49135106                0.65537563               -0.41618411               -0.66753287               20.57970482                0.64992134
               8.50642573                8.05577499               34.92510941                0.00010000               -1.56739852                0.70133495               -0.53240274               -1.13766268               21.07501738                0.99467849
               9.49054007                7.84926423               34.96873586                0.00010000               -1.51617464                0.61162566               -0.60948853               -1.67556270               21.49954126                1.63000042
              10.47610224                7.64248681               35.01379914                0.01421185               -1.41111194                0.26995631               -0.64091572               -2.19027802               21.94832923                2.76081871
              11.46231783                7.43858356               35.06208640                0.25779445               -0.57599754                0.05419116               -0.58058391               -1.23696241               11.15438097                3.00392801
              12.46458229                7.25988437               34.88763940                0.49885422                0.27892664                0.23466578               -0.93874592                0.00969083                0.01921090                1.23626848
              13.46789636                7.08117071               34.71283189                0.92030991                0.33140736                0.47779023               -1.32193580                0.01131573                0.01917718               -0.49138672
               3.74316722               10.05508397               35.10441379                1.00000000                0.04345459               -0.00633544               -0.01293689               -0.02345532               -0.01895795                0.73747958
               4.74360177                9.85917908               34.93184542                0.55199511                0.07921364                0.09026868               -0.27734601               -0.00169546                0.05640943               -0.64136665
               5.74475150                9.66282598               34.76068610                0.00837637               -0.51512699                0.18698689               -0.55260417                0.03498400               11.47119229               -1.62776249
               6.73329923                9.46667170               34.81633096                0.00010000               -1.32582313                0.70968279               -0.52351501               -0.11635045               22.83918630               -0.07304284
               7.71823503                9.26734196               34.86944688                0.00010000               -1.59917418                0.82884743               -0.55784337               -0.38097816               22.97485112                0.29956351
               8.70131575                9.06416126               34.92399535                0.00010000               -1.83830640                0.92767167               -0.61542226               -0.74037608               23.50676504                0.55184583
               9.68146891                8.85750445               34.98412208                0.00010000               -2.16596417                0.99471844               -0.64079811               -1.32452431               24.48521695                0.96839510
              10.65799646                8.64633780               35.05471446                0.07057631               -2.08047025                0.87501996               -0.58580602               -2.01385715               24.40008790                2.21385795
              11.63985950                8.43959341               35.10936087                0.31432860               -0.79377918                0.14897755               -0.54265337               -1.49400756               11.99134820                1.74002120
              12.64212088                8.26239624               34.92833670                0.50930435                0.28348755                0.26920539               -0.95062371               -0.02274224                0.10239594                0.83423176
              13.64552925                8.08571910               34.74483761                0.90888568                0.34083727                0.44187680               -1.34262056                0.01359423               -0.00287509               -0.60505573
               3.93836848               11.05527562               35.05463280                1.00000000                0.08863054                0.01916548               -0.15808185                0.02022005                0.40320463                0.63015078
               4.93925478               10.86027657               34.87839769                0.81688478                0.12534994                0.10974916               -0.42226775                0.04122617                0.81937855               -0.52600463
               5.94087548               10.66479412               34.71037786                0.49858049               -0.49225087                0.19681405               -0.69084725                0.33804633               13.40174182               -1.00207588
               6.92940976               10.47478954               34.78569013                0.36873275               -1.20482770                0.81178336               -0.67603471                0.17799517               25.38769499               -0.11904779
               7.91677892               10.27613296               34.85138028                0.35834782               -1.39770243                0.87909960               -0.69382497               -0.16866698               25.17398358                0.11205383
               8.90145572               10.07432842               34.91788926                0.37153549               -1.74529395                1.01671664               -0.72599741               -0.33472097               25.72807424                0.27435029
               9.88187304                9.86915860               34.99094754                0.40725161               -2.38597885                1.16541440               -0.72743131               -0.67664732               27.10497572                0.53594987
              10.85373614                9.65998721               35.08185461                0.55759217               -3.27469011                1.36494090               -0.61565429               -1.80580675               26.47944617                1.54503855
              11.81637924                9.44156311               35.13961788                0.68626188               -1.78671914                0.19697006               -0.62532136               -2.08396239               13.25638792                0.90521991
              12.81800176                9.26526848               34.96391759                0.77147638                0.25716412                0.28722458               -1.00990342                0.01034460                1.05359388                0.59584198
              13.82152252                9.09000825               34.77724894                0.95398408                0.35207662                0.42891521               -1.39292061                0.07330385                0.52496826               -0.56434266
               2.02947785                1.13298131               36.51654788                1.00000000               -0.34643382               -0.37081428                1.28162066               -0.05767103               -0.98198699                0.99337007
               3.02601352                0.91747955               36.40525448                1.00000000               -0.30466556               -0.28659484                1.02731180               -0.03608399               -1.28670023                0.12984003
               4.02338454                0.70153382               36.28788699                1.00000000               -0.21334330               -0.20448840                0.75808390               -0.04208637               -1.26242356               -0.20832537
               5.02174665                0.48525769               36.17707700                0.62892201               -0.00839572               -0.14113463                0.49668758               -0.00258073               -0.45971088               -0.88466846
               6.02321663                0.26969413               36.07577986                0.70512813                0.15733268               -0.09911585                0.19937434               -0.07324233               -0.08260721                0.28685287
               7.02489330                0.05572878               35.97311035                0.77995521                0.17204390                0.00287509               -0.04633119               -0.07011190               -0.30074461                0.16675510
               8.02665751               -0.15689359               35.86693327                0.77170375                0.21207523                0.07782075               -0.28294889               -0.04725753               -0.51521176               -0.06005157
               9.02913481               -0.36861973               35.75929763                0.86057350                0.25926194                0.15073223               -0.50672229               -0.06338760               -0.80954117                0.10722829
              10.03184274               -0.57946464               35.64656809                1.00000000                0.28459191                0.23017170               -0.76419262               -0.05843576               -1.14789176                0.60553525
              11.03482665               -0.78997070               35.53182297                1.00000000                0.32888543                0.31926594               -1.03467554               -0.03839076               -1.12186019                0.00072707
              12.03842045               -1.00073961               35.41956218                1.00000000                0.35938077                0.41952390               -1.31851559               -0.01513358               -0.99956384               -0.98622433
               2.24440289                2.12927316               36.46882153                1.00000000               -0.30264757               -0.35970052                1.14095891               -0.01347330               -0.15851348                1.35467275
               3.24137642                1.91461361               36.35732934                1.00000000               -0.26641415               -0.26689149                0.88908237                0.00856303               -0.19888641                0.18530235
               4.23907461                1.69948894               36.24502310                0.94167401               -0.18678654               -0.17861370                0.61913089               -0.00636304               -0.07322099               -0.49924751
               5.23764069                1.48384634               36.13597047                0.26190352               -0.09129749               -0.11483555                0.34366739                0.01873222                1.55559410               -1.26083931
               6.23724866                1.26870297               36.05603043                0.40738966               -0.00773213               -0.03728725                0.05840303               -0.08253131                2.45637479                0.96795475
               7.23748604                1.05575753               35.96262940                0.50383248                0.05552626                0.04875031               -0.18290789               -0.03369948                1.60643907                0.46333674
               8.23835919                0.84388461               35.86460218                0.42057796                0.11502047                0.12642197               -0.41232857               -0.00636674                1.52163936               -0.26823876
               9.23978645                0.63288759               35.76894318                0.50802897                0.17873410                0.19481804               -0.63815916               -0.04396513                1.56298169                0.49357718
              10.24193387                0.42283708               35.67135498                1.00000000                0.26468854                0.25544866               -0.88302378               -0.03001390                0.81633863                0.84520875
              11.24508022                0.21322196               35.56063553                1.00000000                0.35520837                0.32896113               -1.16312214                0.00483699                0.09588038                0.14856465
              12.24903804                0.00345563               35.44859607                1.00000000                0.39578103                0.44699185               -1.44452695                0.03013803                0.03338984               -1.15395590
               2.45852750                3.12578730               36.42836690                1.00000000               -0.25584973               -0.34126665                1.01033293               -0.00816326                0.04694267                1.71347607
               3.45596900                2.91214172               36.31051706                1.00000000               -0.22514781               -0.23013468                0.75894036                0.01153774                0.23023032                0.17579770
               4.45402454                2.69796155               36.19630723                0.65093768               -0.15308719               -0.12200904                0.50968445               -0.01965536                0.67240869               -1.26033351
               5.45290726                2.48296098               36.08724967                0.00010000               -0.21848633               -0.07809177                0.21388573                0.03917175                4.52794674               -1.97696299
               6.44965482                2.26894838               36.05008973                0.00010000               -0.19347949               -0.04690064               -0.12369025               -0.08476947                5.67974364               -1.11221617
               7.44903767                2.05670378               35.95810356                0.00010000               -0.01273533               -0.04033184               -0.32088166               -0.14309949                2.59538893               -0.04975935
               8.44940011                1.84563485               35.85810619                0.00010000                0.01326859               -0.00980913               -0.53297482               -0.20012010                3.63053914                0.81569790
               9.44930304                1.63527663               35.78633290                0.00010000                0.07539904                0.02629179               -0.78993929               -0.21491940                4.38638603                1.44294146
              10.45090809                1.42564433               35.70093133                0.41986799                0.25008981                0.23380718               -1.01869511               -0.19665309                2.54335065                1.87182601
              11.45430484                1.21660853               35.59244328                1.00000000                0.38238994                0.33228219               -1.28656830               -0.06975006                0.91279081                0.88878080
              12.45855589                1.00820022               35.47434298                1.00000000                0.42510529                0.51033576               -1.56665603                0.01388098                0.44119634               -1.05660444
               2.67153077                4.12244783               36.38788888                1.00000000               -0.20978469               -0.32231959                0.87866607               -0.01497945                0.11868607                1.59241008
               3.66943292                3.91001091               36.26239785                1.00000000               -0.18342600               -0.19029518                0.62749051                0.00256034                0.18408489               -0.00048712
               4.66786225                3.69704876               36.13817587                0.36677934               -0.09978189               -0.06485819                0.39136893               -0.07823612                1.13414422               -1.67600398
               5.66743728                3.48228451               36.03166002                0.00010000               -0.30258909               -0.01601408                0.13374731               -0.11100652                5.22985368               -2.65879591
               6.66181047                3.26776496               35.98928341                0.00010000               -0.47498459               -0.04461742               -0.13650706               -0.26205465                8.06603476               -2.74131308
               7.65793759                3.05495089               35.93743492                0.00010000               -0.30132634               -0.09648407               -0.38027921               -0.38670342                7.30647963               -0.49297287
               8.65578394                2.84368843               35.87729219                0.00010000               -0.12295071               -0.14479700               -0.61457276               -0.49228351                6.88066595                1.74085951
               9.65547858                2.63341342               35.81479170                0.00010000                0.04424828               -0.14529319               -0.86241358               -0.33704461                6.56654440                2.32042597
              10.65666891                2.42751322               35.74610833                0.17359939                0.28253777               -0.06804807               -1.21957150               -0.27563335                4.34875525                3.65354951
              11.66112933                2.21986761               35.63596187                0.69503913                0.47316777                0.27889003               -1.47963598               -0.17127215                1.23179369                1.84596223
              12.66613226                2.01366234               35.50541780                1.00000000                0.50029278                0.59637502               -1.73069134               -0.06950393                0.23231869               -0.34433364
               2.88310174                5.11934090               36.34511327                1.00000000               -0.16824607               -0.29077757                0.73720512               -0.02747873                0.18879806                1.33136315
               3.88141928                4.90833582               36.21204358                0.80770874               -0.14577596               -0.13611946                0.48602223               -0.01872661                0.29223067               -0.30955571
               4.88018623                4.69666438               36.08099731                0.19679197               -0.07241790                0.00181494                0.24499041               -0.13347248                1.35312490               -1.79634508
               5.87997093                4.48264070               35.96913266                0.00010000               -0.42194423                0.11084009                0.00951798               -0.33217762                7.00938477               -2.68864043
               6.87174734                4.26805604               35.95116560                0.00010000               -0.72953999                0.09348634               -0.19680046               -0.53311141               11.33496518               -1.08015487
               7.86538013                4.05477410               35.92397724                0.00010000               -0.53277170                0.03887587               -0.43148339               -0.63085836               10.60688820                0.18916101
               8.86109191                3.84273891               35.88924521                0.00010000               -0.33213838               -0.04118227               -0.67765452               -0.68639422               10.13268336                1.52972942
               9.85873736                3.63237076               35.84996726                0.00010000               -0.10753331               -0.10046390               -0.94480908               -0.66019328               10.00819442                2.82038897
              10.85894124                3.42428337               35.81004155                0.14793218                0.29964579               -0.32890394               -1.21637891               -0.33446203                5.97053271                4.37567039
              11.86473027                3.22218633               35.68651292                0.56416772                0.53175520                0.21945504               -1.38677563               -0.02884423                1.02668805                2.20859831
              12.86957634                3.02012772               35.54545233                0.94756101                0.48460704                0.64314047               -1.72450059               -0.07140633                0.20815589                0.17501179
               3.09299136                6.11663228               36.29952456                1.00000000               -0.12564472               -0.24281078                0.58580130               -0.03256227                0.13027118                1.06920023
               4.09173491                5.90728852               36.15769329                0.63976706               -0.10517176               -0.07423733                0.32369793               -0.03307541                0.35407761               -0.62419711
               5.09088792                5.69708505               36.02028584                0.12022883               -0.11664163                0.08402386                0.08408842               -0.15472811                2.06697317               -2.18080289
               6.08940208                5.48450131               35.91271098                0.00010000               -0.59365443                0.18163085               -0.05280701               -0.65207181                9.47237933               -0.84031325
               7.07901483                5.26963468               35.92341158                0.00010000               -0.93822621                0.19603304               -0.23282311               -0.85805408               14.65379901               -0.07342193
               8.07063755                5.05572841               35.91737729                0.00010000               -0.72777201                0.14277815               -0.47608049               -0.92412039               13.60596433                0.78843417
               9.06445939                4.84286479               35.90461227                0.00010000               -0.49536542                0.04638688               -0.71789667               -0.98254256               13.25989538                1.83619919
              10.06073025                4.63140415               35.88873189                0.00010000               -0.21476468               -0.08571179               -0.96933292               -1.02461819               13.23688616                3.04467577
              11.06016410                4.42093514               35.87202437                0.15171028                0.19889256               -0.28230577               -1.26013401               -0.45516988                7.54054602                4.29348812
              12.06470810                4.22425671               35.73747880                0.51671092                0.43286204                0.19866090               -1.19700135                0.07105510                0.91262044                2.11848904
              13.06882134                4.02652515               35.58617000                0.92952281                0.41132445                0.61151375               -1.53689763               -0.03403020                0.11444037                0.21288835
               3.30113801                7.11448469               36.25160258                1.00000000               -0.08330086               -0.18260692                0.42936664               -0.02942861                0.05400324                0.89250722
               4.30030500                6.90685107               36.10093552                0.54179945               -0.06295662               -0.02101525                0.16324815               -0.03001896                0.30041695               -0.77047482
               5.29987888                6.69834486               35.95513564                0.07809522               -0.29625705                0.15037599               -0.08958909               -0.20461558                4.43253248               -2.51345633
               6.29437986                6.48627331               35.88710275                0.00010000               -0.82598579                0.17084113                0.08977191               -0.87839429               12.65033046                1.17994616
               7.28335916                6.27197670               35.90550641                0.00010000               -1.03561216                0.27732000               -0.27199775               -1.05359648               16.71709784                0.68193403
               8.27366762                6.05762967               35.91620458                0.00010000               -0.87969214                0.24773587               -0.51409671               -1.18690793               16.29032979                1.18458852
               9.26576532                5.84366664               35.92310974                0.00010000               -0.67464890                0.12499666               -0.72900534               -1.31930769               16.21755064                2.02676208
              10.26017464                5.63065653               35.92890748                0.00010000               -0.43900186               -0.04181593               -0.93026563               -1.45536716               16.40936861                3.07654780
              11.25698528                5.41863726               35.93556080                0.17055505                0.01933651               -0.17375928               -1.12117441               -0.74543729                8.92973652                4.29218213
              12.26056137                5.22615955               35.78673400                0.49095407                0.36867882                0.19241017               -1.08882600                0.08212532                0.63776950                1.90808268
              13.26435886                5.03235800               35.62608903                0.91882696                0.37974888                0.56810046               -1.44137594               -0.01099214                0.07531083                0.09614123
               3.50767001                8.11298014               36.20253687                1.00000000               -0.03956519               -0.11890600                0.27425470               -0.02663627                0.01767186                0.82225492
               4.50727436                7.90686822               36.04351706                0.50282143               -0.01483204                0.02074173                0.00756061               -0.01581024                0.16654858               -0.79505987
               5.50737337                7.70009257               35.88739946                0.05295539               -0.45360023                0.17985012               -0.26499025               -0.26396806                7.34639363               -2.64646097
               6.49820236                7.48791813               35.87193253                0.00010000               -1.03934085                0.26971888               -0.05212766               -0.80560565               16.28041171                1.04932923
               7.48658655                7.27518108               35.89323831                0.00010000               -1.14964537                0.41258876               -0.34978188               -1.01155728               18.42775707                0.89888391
               8.47520945                7.06068313               35.91795833                0.00010000               -1.07700882                0.41449418               -0.56122416               -1.34009079               18.76983880                1.28164582
               9.46504638                6.84536472               35.94281974                0.00010000               -0.92785796                0.25803134               -0.72586024               -1.65249582               19.03666254                2.02369460
              10.45665229                6.63056783               35.96895879                0.00010000               -0.76470205                0.04472396               -0.84240198               -1.87065183               19.49092271                2.92014342
              11.44975234                6.41745996               35.99841112                0.20248951               -0.20112137               -0.05628422               -0.87805165               -1.03082472               10.19406572                3.96183494
              12.45262986                6.22810491               35.83382807                0.47932960                0.32261275                0.20810867               -1.02568708                0.05887462                0.27934138                1.64370464
              13.45620459                6.03788716               35.66411630                0.91138471                0.35747302                0.53441665               -1.38974062                0.00107388                0.04611313               -0.13057448
               3.71282913                9.11210657               36.15322188                1.00000000                0.00472354               -0.05779813                0.12119080               -0.02459968                0.00303010                0.82550093
               4.71287636                8.90726591               35.98612948                0.51487328                0.03602372                0.05826451               -0.14495063               -0.00478472                0.01759508               -0.77418935
               5.71354960                8.70194186               35.81923844                0.03912649               -0.48485631                0.18476043               -0.42685466               -0.22166084                9.63363234               -2.45460743
               6.70317924                8.49166769               35.84438776                0.00010000               -1.15932896                0.48211361               -0.34543330               -0.56039558               19.88640625                0.12686450
               7.69036302                8.28022847               35.88018202                0.00010000               -1.32485353                0.62307628               -0.48498393               -0.83488916               20.74358041                0.65351979
               8.67668217                8.06591955               35.91933467                0.00010000               -1.37661610                0.66209544               -0.63037921               -1.29861705               21.27385659                1.05559550
               9.66283070                7.84882727               35.96203738                0.00010000               -1.30079006                0.56580226               -0.74132347               -1.83667874               21.76570729                1.73668054
              10.65066636                7.63155101               36.00679185                0.00905924               -1.19994988                0.22066630               -0.77339475               -2.33459356               22.32197968                2.91205549
              11.63883170                7.41751157               36.05589790                0.24761243               -0.46773529                0.05870403               -0.67042173               -1.30378786               11.39715482                3.20432180
              12.64131166                7.23032172               35.87797042                0.48049812                0.29920687                0.24251379               -0.99768091                0.01309637                0.03420354                1.31962168
              13.64481584                7.04304633               35.69932881                0.90647080                0.35041814                0.49427816               -1.37808093                0.00994518                0.01869923               -0.43147561
               3.91685934               10.11182418               36.10419702                1.00000000                0.04840367               -0.00199198               -0.03003097               -0.02359952               -0.01988370                0.73206757
               4.91734337                9.90803351               35.92899419                0.54978525                0.08395182                0.09596012               -0.29373775               -0.00170387                0.04981764               -0.64337856
               5.91853837                9.70378778               35.75508326                0.00766149               -0.43177688                0.19363627               -0.57065428               -0.07340404               11.60418536               -1.62264836
               6.90870783                9.49756040               35.81086965                0.00010000               -1.14507283                0.66169763               -0.57127207               -0.25620836               23.10103815               -0.12430653
               7.89563691                9.28764261               35.86349563                0.00010000               -1.40347629                0.78672106               -0.63766685               -0.50313767               23.21412263                0.29492003
               8.88063831                9.07392504               35.91731725                0.00010000               -1.64777849                0.89390514               -0.72756104               -0.85318133               23.76973573                0.58411690
               9.86268134                8.85668076               35.97697802                0.00010000               -1.96810966                0.97257275               -0.79899418               -1.45368899               24.82189745                1.02916031
              10.84127612                8.63498115               36.04777670                0.06933268               -1.88877389                0.86684798               -0.82402671               -2.12670779               24.85781446                2.30503792
              11.82490587                8.41863404               36.10367703                0.30815106               -0.69595428                0.16268525               -0.59767297               -1.54744197               12.23970009                1.81097742
              12.82735703                8.23295519               35.91854883                0.49103992                0.30242011                0.28375736               -1.00816984               -0.02281279                0.09211689                0.87249469
              13.83095427                8.04777272               35.73109266                0.89542734                0.35972398                0.46085068               -1.40726218                0.01259455               -0.00461256               -0.58165931
               4.11993847               11.11206673               36.05295447                1.00000000                0.09402059                0.02425507               -0.17688977                0.01975224                0.39948872                0.62583698
               5.12087868               10.90918511               35.87409093                0.81678510                0.13080750                0.11516032               -0.43993430                0.04092374                0.81315510               -0.52570792
               6.12255462               10.70581459               35.70338695                0.49760108               -0.33392194                0.20268048               -0.71056027                0.18745191               13.52740307               -0.99284636
               7.11420024               10.50490165               35.77867016                0.36889857               -0.93094928                0.73412401               -0.73148449                0.05665597               25.65285486               -0.13889172
               8.10393564               10.29596289               35.84402222                0.35849569               -1.18099286                0.83202830               -0.78278516               -0.22532733               25.43678186                0.10545751
               9.09058038               10.08379765               35.91003019                0.37131642               -1.56174186                0.98726165               -0.85279926               -0.39000084               26.01873039                0.28833329
              10.07270080                9.86827873               35.98280824                0.40634667               -2.22007242                1.15979607               -0.91100504               -0.74353865               27.47565150                0.56398236
              11.04617894                9.64888797               36.07421627                0.55826389               -3.13959862                1.39068125               -0.94234914               -1.88539035               26.96453453                1.60578345
              12.00990883                9.42076528               36.13306308                0.68463583               -1.72311092                0.21312404               -0.68716636               -2.14425885               13.52340654                0.90841822
              13.01171672                9.23599687               35.95351087                0.76231526                0.27619158                0.30416786               -1.07027426                0.01087214                1.07252164                0.60867381
              14.01543266                9.05226335               35.76296206                0.94724504                0.37159434                0.44906230               -1.46467945                0.07448705                0.54243528               -0.55608240
               2.13215032                1.19139500               37.52939423                1.00000000               -0.34760127               -0.37359236                1.28984503               -0.05821179               -0.99744976                1.00416514
               3.12867430                0.96742890               37.41552950                1.00000000               -0.30486590               -0.28704155                1.02855587               -0.03563904               -1.31077951                0.13697202
               4.12605300                0.74301309               37.29543119                1.00000000               -0.21255911               -0.20279151                0.74991613               -0.04201693               -1.28925082               -0.20771734
               5.12442312                0.51820080               37.18197344                0.63071646               -0.01997915               -0.13657606                0.48009250               -0.04894159               -0.49865024               -0.90114326
               6.12565342                0.29303045               37.07763946                0.70088196                0.16057941               -0.10896202                0.16476246               -0.06888936               -0.10098718                0.28573246
               7.12763471                0.06857740               36.97249302                0.77011213                0.20687454                0.00240295               -0.08751171               -0.07632073               -0.27456410                0.16518076
               8.12979091               -0.15448355               36.86397113                0.76263809                0.25046236                0.07857123               -0.31938236               -0.05030532               -0.46234008               -0.05927502
               9.13264396               -0.37650357               36.75415742                0.85370876                0.28796012                0.15112299               -0.52913096               -0.06705163               -0.75496817                0.10898557
              10.13555011               -0.59750280               36.63892330                1.00000000                0.29673264                0.23167079               -0.77037333               -0.06278873               -1.11147224                0.62182619
              11.13857861               -0.81806659               36.52153170                1.00000000                0.33103728                0.31963621               -1.03082847               -0.04049954               -1.09842421                0.01072399
              12.14217085               -1.03888620               36.40643075                1.00000000                0.35922445                0.41810397               -1.31399768               -0.01466041               -0.98216329               -0.96174765
               2.35553430                2.18765908               37.48024961                1.00000000               -0.30254264               -0.36308531                1.14658829               -0.01291303               -0.16579953                1.36938316
               3.35250887                1.96455849               37.36621178                1.00000000               -0.26437086               -0.26709472                0.88800821                0.00984122               -0.21621955                0.19604222
               4.35024688                1.74098517               37.25117217                0.95342017               -0.17919230               -0.17660178                0.60967235               -0.00742020               -0.10160156               -0.48386156
               5.34892503                1.51683504               37.13934280                0.26859573               -0.02353277               -0.10843493                0.32825420               -0.04612381                1.51863818               -1.26646073
               6.34977623                1.29194083               37.05646608                0.40772488                0.08517393               -0.05610607                0.02476407               -0.07404023                2.44773970                0.94429380
               7.35062850                1.06860143               36.96062461                0.49997778                0.10260549                0.04634076               -0.22271920               -0.04206515                1.64502242                0.46229445
               8.35182833                0.84630216               36.86031888                0.41987025                0.14272810                0.12937752               -0.44686456               -0.01470763                1.58151264               -0.26261938
               9.35348307                0.62500766               36.76246582                0.50799639                0.19376995                0.19947722               -0.65607495               -0.04289994                1.62193956                0.48873068
              10.35570373                0.40481391               36.66247603                1.00000000                0.26911244                0.25887418               -0.89260574               -0.03505560                0.84713068                0.85539170
              11.35886531                0.18512977               36.54897190                1.00000000                0.35700647                0.33293587               -1.16944593                0.00247968                0.10508461                0.16301041
              12.36284386               -0.03470516               36.43411514                1.00000000                0.39785485                0.44524276               -1.45092280                0.03085336                0.03881141               -1.12406853
               2.57809324                3.18413330               37.43848065                1.00000000               -0.25482023               -0.34593488                1.01424798               -0.00756297                0.04500291                1.73182993
               3.57554504                2.96208701               37.31809102                1.00000000               -0.22325979               -0.22971828                0.75622587                0.01164935                0.22828507                0.18977124
               4.57362804                2.73948105               37.20135395                0.66760804               -0.15000228               -0.11698854                0.49888440               -0.02321348                0.64857475               -1.23368221
               5.57254499                2.51603210               37.08930947                0.00010000               -0.06109075               -0.06918934                0.19657121               -0.05271800                4.45718320               -1.94598144
               6.57240623                2.29190833               37.04865974                0.00010000               -0.00564564               -0.07326145               -0.16613382               -0.26992103                5.68205428               -1.07085756
               7.57243208                2.06950421               36.95469028                0.00010000                0.03421448               -0.04356547               -0.36396135               -0.30176342                2.67922630               -0.01383595
               8.57309052                1.84810400               36.85257249                0.00010000                0.04210678               -0.00803303               -0.56971627               -0.32304268                3.69785295                0.83830064
               9.57327421                1.62748598               36.77836165                0.00010000                0.08181862                0.02142200               -0.79305962               -0.28020935                4.44061176                1.44967529
              10.57472689                1.40767468               36.69066531                0.41754002                0.24365296                0.26382274               -1.02926524               -0.17588762                2.57474715                1.82821498
              11.57814727                1.18859213               36.57942558                1.00000000                0.38654515                0.34500865               -1.30691355               -0.06239626                0.91660063                0.86896107
              12.58245779                0.97001865               36.45855465                1.00000000                0.43105201                0.50619440               -1.58157116                0.01723653                0.43770872               -1.04441841
               2.79947561                4.18074038               37.39667698                1.00000000               -0.20815096               -0.32795583                0.88080465               -0.01503781                0.12144027                1.60438883
               3.79739410                3.95996412               37.26865074                1.00000000               -0.18190479               -0.18859561                0.62329072                0.00209931                0.19381912                0.00753211
               4.79583752                3.73864540               37.14204812                0.36861093               -0.09753566               -0.05616677                0.38148080               -0.08433336                1.14034756               -1.66734450
               5.79544339                3.51545126               37.03291770                0.00010000               -0.24659103               -0.00488014                0.11489632               -0.22283703                5.21637059               -2.62253211
               6.79090570                3.29047560               36.98774829                0.00010000               -0.35229120               -0.05348135               -0.17376291               -0.55571879                8.06835869               -2.64366122
               7.78839757                3.06773012               36.93339084                0.00010000               -0.17599908               -0.10953616               -0.43117419               -0.64849739                7.34158911               -0.42236623
               8.78738571                2.84614150               36.87084934                0.00010000               -0.00446854               -0.15696430               -0.67486337               -0.72594775                6.92263432                1.78314866
               9.78830820                2.62543610               36.80576092                0.00010000                0.18470588               -0.16600841               -0.93875595               -0.46957178                6.56236597                2.34886813
              10.79107983                2.41009036               36.73360787                0.15841171                0.34826112               -0.09631832               -1.23116458               -0.30192923                4.31122612                3.60995585
              11.79527342                2.19202995               36.62085698                0.65581001                0.46278553                0.27973944               -1.51067389               -0.19372611                1.25759248                1.90415839
              12.80033554                1.97541873               36.48788199                1.00000000                0.50621254                0.59985997               -1.74938941               -0.07251385                0.24640949               -0.28925245
               3.01934500                5.17757418               37.35247495                1.00000000               -0.16629974               -0.29634392                0.73681448               -0.02847252                0.19555713                1.33249373
               4.01768200                4.95831510               37.21687199                0.79813708               -0.14453781               -0.13198991                0.47995547               -0.02102265                0.30379998               -0.31761796
               5.01645424                4.73835772               37.08340045                0.19325014               -0.07119752                0.01456076                0.23470223               -0.14386473                1.37303418               -1.80964090
               6.01625805                4.51593450               36.96915925                0.00010000               -0.37206269                0.11779298               -0.00836964               -0.45525805                7.04366074               -2.63777180
               7.00901299                4.29083870               36.94902747                0.00010000               -0.62309106                0.09534669               -0.23431427               -0.74739894               11.37437638               -0.99657153
               8.00379623                4.06731349               36.91937696                0.00010000               -0.40737074                0.01982095               -0.49218227               -0.83911781               10.63320072                0.26290024
               9.00086557                3.84496471               36.88205782                0.00010000               -0.19311574               -0.06272515               -0.76295442               -0.88673327               10.14956769                1.58882429
               9.99993392                3.62416581               36.83996539                0.00010000                0.06144443               -0.12467890               -1.05817603               -0.83399081               10.00773696                2.86617633
              11.00209446                3.40574832               36.79685805                0.13487437                0.45052344               -0.41707614               -1.42767381               -0.41537487                6.05608758                4.44118944
              12.00894438                3.19418692               36.67175290                0.52899148                0.60677457                0.19184369               -1.51790304               -0.02724230                1.09359908                2.47142211
              13.01422995                2.98201585               36.52762000                0.92664120                0.52855702                0.66599119               -1.79611594               -0.08235374                0.17388383                0.37550599
               3.23742433                6.17481350               37.30535879                1.00000000               -0.12342145               -0.24696391                0.58259897               -0.03334727                0.12856475                1.06191789
               4.23619011                5.95732432               37.16088012                0.62787805               -0.10417547               -0.06792531                0.31354822               -0.03531246                0.36397826               -0.64169025
               5.23534082                5.73893662               37.02106723                0.11568976               -0.11664342                0.10075789                0.07037221               -0.17672179                2.14563582               -2.20806398
               6.23385725                5.51780711               36.91220330                0.00010000               -0.53810444                0.15956703               -0.05237098               -0.78877856                9.57584553               -0.65379857
               7.22457873                5.29238253               36.92091283                0.00010000               -0.81840232                0.18588211               -0.27120356               -1.06609532               14.69961607                0.02046980
               8.21748920                5.06812654               36.91227712                0.00010000               -0.58900010                0.12655106               -0.54857797               -1.10514686               13.62620869                0.87085818
               9.21279873                4.84488700               36.89692386                0.00010000               -0.33222118                0.02480120               -0.82529997               -1.15113342               13.27492601                1.92422751
              10.21084478                4.62294253               36.87827953                0.00010000               -0.00237496               -0.11283846               -1.13013391               -1.17779340               13.21605188                3.15421100
              11.21275123                4.40174884               36.85820126                0.13942658                0.38081293               -0.34123066               -1.52712719               -0.50828387                7.73228432                4.46760315
              12.21846103                4.19586682               36.72492213                0.48963053                0.51396839                0.16692920               -1.31142943                0.07475759                1.12846919                2.40195062
              13.22303060                3.98873855               36.57035721                0.91129995                0.45695624                0.63627698               -1.61208934               -0.04684842                0.10728897                0.45294461
               3.45365641                7.17263490               37.25585727                1.00000000               -0.08037721               -0.18469215                0.42303993               -0.02970161                0.05109144                0.88256797
               4.45285264                6.95695659               37.10250677                0.53163973               -0.06096969               -0.01408876                0.15054780               -0.03116863                0.30374389               -0.78408605
               5.45243702                6.74037287               36.95415398                0.07357475               -0.29080377                0.16771990               -0.11003285               -0.26076197                4.67164026               -2.54702232
               6.44703656                6.51912584               36.88813013                0.00010000               -0.75326780                0.13282591                0.10922096               -1.00767271               12.82621045                1.30311414
               7.43737166                6.29455634               36.90257130                0.00010000               -0.89238665                0.25769917               -0.32070959               -1.22829572               16.67022877                0.75732305
               8.42918883                6.06984451               36.91066707                0.00010000               -0.71723728                0.22554265               -0.59938706               -1.34961216               16.32775370                1.27289741
               9.42302692                5.84546074               36.91523460                0.00010000               -0.48363125                0.09655967               -0.85418322               -1.46547145               16.27262032                2.14821759
              10.41951621                5.62190904               36.91878070                0.00010000               -0.20112117               -0.07426770               -1.10992914               -1.60166855               16.47041665                3.26411311
              11.41900449                5.39892370               36.92319337                0.15798021                0.19668091               -0.21698258               -1.38716275               -0.80632099                9.18197250                4.62232113
              12.42344982                5.19752550               36.77545799                0.46891302                0.42725166                0.17368822               -1.16937226                0.08762579                0.85867298                2.09922046
              13.42754953                4.99474139               36.61142339                0.90321815                0.40997017                0.57867374               -1.48876495               -0.01887004                0.07518218                0.25127608
               3.66818692                8.17111966               37.20522606                1.00000000               -0.03581492               -0.11913557                0.26476612               -0.02687172                0.01601938                0.81302762
               4.66782877                7.95704255               37.04352218                0.49546333               -0.01152946                0.02768465               -0.00713702               -0.01576229                0.16132071               -0.80442531
               5.66795633                7.74229101               36.88465032                0.05086274               -0.41542227                0.19527832               -0.28672132               -0.34665719                7.57765500               -2.67198154
               6.65952032                7.52046363               36.87120715                0.00010000               -0.93310907                0.25351079               -0.09978095               -0.93768810               16.51035084                0.95376614
               7.64929415                7.29753652               36.88945688                0.00010000               -0.99638800                0.39063707               -0.41288917               -1.16925844               18.44935861                0.93146680
               8.63959256                7.07263739               36.91188498                0.00010000               -0.89346899                0.38417357               -0.66049138               -1.49298265               18.85988863                1.36433980
               9.63142477                6.84681819               36.93493455                0.00010000               -0.71220626                0.21894139               -0.86125732               -1.79050497               19.17892594                2.15559421
              10.62534844                6.62145717               36.95975966                0.00010000               -0.52082092                0.00004805               -1.01509123               -2.01219492               19.70942749                3.13871366
              11.62100835                6.39740919               36.98876680                0.18952281               -0.04762893               -0.07598109               -1.08531273               -1.10193646               10.46165392                4.32884150
              12.62439586                6.19934058               36.82324536                0.45985581                0.36065315                0.20152721               -1.09401169                0.06442343                0.40826280                1.77753651
              13.62822141                6.00031202               36.64997228                0.89736509                0.38255529                0.54117236               -1.43688340               -0.00265318                0.04693781               -0.03611964
               3.88127320                9.17025219               37.15436605                1.00000000                0.00928404               -0.05634702                0.10851931               -0.02477531                0.00191251                0.81700172
               4.88136604                8.95751028               36.98459866                0.51050165                0.04047960                0.06537514               -0.16216075               -0.00453152                0.00844930               -0.77927365
               5.88208279                8.74427844               36.81486944                0.03762320               -0.41643695                0.19667431               -0.44916741               -0.31554059                9.78988163               -2.46109327
               6.87303730                8.52419606               36.84063511                0.00010000               -1.01350272                0.47197726               -0.40860572               -0.72610279               20.12808099                0.01440865
               7.86181274                8.30236908               36.87496493                0.00010000               -1.14948971                0.59318208               -0.56418144               -0.99461683               20.88712698                0.65442227
               8.85004751                8.07752798               36.91250183                0.00010000               -1.17078515                0.62553448               -0.74339761               -1.44470081               21.44098753                1.12061268
               9.83839703                7.84983956               36.95390939                0.00010000               -1.06830975                0.52493052               -0.89374008               -1.97976729               22.01111723                1.84644149
              10.82868131                7.62191000               36.99833124                0.00218437               -0.96573407                0.17784837               -0.93306393               -2.46650900               22.70662357                3.03962112
              11.81908235                7.39740408               37.04867797                0.23546469               -0.34229283                0.06192968               -0.79390016               -1.37404659               11.67383527                3.47800556
              12.82183545                7.20155604               36.86768578                0.46194510                0.32356146                0.24825511               -1.06321039                0.01562432                0.06711239                1.41147277
              13.82555358                7.00556484               36.68527027                0.89312329                0.37181268                0.50703154               -1.43457638                0.00727553                0.01874648               -0.38479090
               4.09317522               10.16999272               37.10381317                0.99758492                0.05366631                0.00126348               -0.04650884               -0.02366020               -0.01980876                0.72603519
               5.09371189                9.95835005               36.92597066                0.54756295                0.08922594                0.10293151               -0.31253605               -0.00244280                0.04298080               -0.64409181
               6.09495974                9.74622450               36.74927301                0.00664052               -0.34021320                0.20256787               -0.59409556               -0.18426755               11.72272631               -1.61561210
               7.08690762                9.52990318               36.80490552                0.00010000               -0.94449284                0.61073130               -0.62597355               -0.40150242               23.33463221               -0.16885780
               8.07606989                9.30940016               36.85669354                0.00010000               -1.18397780                0.74099143               -0.72815868               -0.62066543               23.42475163                0.29159351
               9.06322807                9.08514808               36.90944413                0.00010000               -1.43112430                0.85706124               -0.85362205               -0.95432792               23.99957890                0.62075619
              10.04744740                8.85731680               36.96814220                0.00010000               -1.73871636                0.94691202               -0.97487454               -1.56654895               25.10078964                1.09078338
              11.02845374                8.62501414               37.03823393                0.06564868               -1.67830131                0.86568698               -1.09112889               -2.22891710               25.38147112                2.32399883
              12.01388137                8.39864778               37.09740741                0.29948873               -0.59530774                0.17776473               -0.66373517               -1.61190174               12.59220965                1.91885270
              13.01654759                8.20430569               36.90817330                0.47274504                0.32339794                0.29809170               -1.07017548               -0.02386858                0.08299606                0.91857014
              14.02034933                8.01045266               36.71669236                0.88217780                0.38017473                0.47914798               -1.47540110                0.01045967               -0.00761381               -0.57018209
               4.30408533               11.17027746               37.05109500                1.00000000                0.10000720                0.02847404               -0.19522883                0.02015586                0.39583183                0.62195562
               5.30508540               10.95956891               36.86959900                0.81652001                0.13794922                0.12188620               -0.46122111                0.03996825                0.80557556               -0.52384165
               6.30684431               10.74832980               36.69616665                0.49646627               -0.16269039                0.21052972               -0.73669260                0.03054547               13.63416078               -0.98205105
               7.30183159               10.53641068               36.77106044                0.36901367               -0.63448937                0.65075057               -0.79468412               -0.06464732               25.88443942               -0.16044043
               8.29415453               10.31718891               36.83572458                0.35862701               -0.93936438                0.77887542               -0.88193158               -0.27860991               25.66658200                0.10076509
               9.28304431               10.09466921               36.90083327                0.37109762               -1.34772667                0.95211274               -0.99230283               -0.43893166               26.26901032                0.30364396
              10.26719999                9.86877780               36.97272744                0.40545158               -2.01361590                1.14610041               -1.10887363               -0.79701400               27.75306239                0.58702893
              11.24277199                9.63922374               37.06300763                0.55748968               -2.98236114                1.42096020               -1.30445374               -1.95909673               27.53755239                1.59274546
              12.20755277                9.40095937               37.12587455                0.68159373               -1.66093908                0.23115950               -0.75649301               -2.21815360               13.95329259                0.92650473
              13.20955321                9.20751788               36.94251211                0.75321245                0.29580329                0.32121927               -1.13058742                0.00998325                1.10202878                0.62904899
              14.21346884                9.01514780               36.74795535                0.94049293                0.39156296                0.46951437               -1.53873087                0.07494226                0.56320812               -0.55670751
               2.23725832                1.25135386               38.54234478                1.00000000               -0.34973497               -0.37794461                1.30367195               -0.05951597               -1.01607117                1.01640109
               3.23376097                1.01885445               38.42582559                1.00000000               -0.30513670               -0.28815199                1.03208744               -0.03596877               -1.34007426                0.14443603
               4.23115559                0.78589750               38.30288531                1.00000000               -0.20978013               -0.20085610                0.74025299               -0.04232021               -1.32277576               -0.20741169
               5.22956537                0.55249611               38.18667885                0.63376557               -0.02391412               -0.13150086                0.45810721               -0.09167935               -0.55098082               -0.91801965
               6.23067730                0.31775555               38.07907511                0.69848103                0.17524909               -0.11869798                0.11424283               -0.06191016               -0.13454917                0.28149570
               7.23307035                0.08276922               37.97136012                0.76204316                0.25344976                0.00369432               -0.14972247               -0.08017229               -0.24872380                0.15922713
               8.23574630               -0.15077458               37.86054562                0.75461001                0.30064609                0.08054536               -0.37533925               -0.05110900               -0.39521561               -0.06253215
               9.23908327               -0.38305681               37.74871501                0.84811054                0.32463647                0.15147901               -0.56449510               -0.06946848               -0.67622381                0.11168785
              10.24223903               -0.61413358               37.63116062                1.00000000                0.31337192                0.23364852               -0.78654269               -0.06585389               -1.05418930                0.63497823
              11.24535071               -0.84463663               37.51120640                1.00000000                0.33700199                0.32249229               -1.03973890               -0.04127692               -1.06278629                0.02024716
              12.24897907               -1.07534333               37.39328222                1.00000000                0.36283582                0.41936831               -1.32079597               -0.01579661               -0.95629584               -0.93196306
               2.46916257                2.24757441               38.49175329                1.00000000               -0.30331079               -0.36786677                1.15709879               -0.01272402               -0.17487522                1.38543840
               3.46612946                2.01597293               38.37508951                1.00000000               -0.26255075               -0.26781309                0.88848976                0.01074779               -0.23678512                0.20726976
               4.46391156                1.78388894               38.25721655                0.96573960               -0.17049566               -0.17427736                0.59779744               -0.00849123               -0.13304514               -0.46843256
               5.46271955                1.55118110               38.14253555                0.27572558                0.05050460               -0.10148277                0.30646318               -0.10702979                1.47412949               -1.27273007
               6.46492165                1.31656857               38.05652571                0.40843880                0.19070720               -0.07532679               -0.01839507               -0.05685715                2.42943551                0.91226162
               7.46653369                1.08280616               37.95817502                0.49649700                0.16132893                0.04458056               -0.27362354               -0.04493007                1.68606767                0.45364735
               8.46814823                0.85003087               37.85566489                0.42018006                0.17671965                0.13224875               -0.48852369               -0.02043448                1.65679891               -0.26306054
               9.47006809                0.61845798               37.75582168                0.51032340                0.21110865                0.20159255               -0.67307746               -0.04443919                1.69431633                0.48929337
              10.47237040                0.38820291               37.65350286                1.00000000                0.27373653                0.26051890               -0.90046530               -0.03848021                0.88219014                0.86211059
              11.47554282                0.15858829               37.53724662                1.00000000                0.35787002                0.33696500               -1.17409008                0.00221199                0.11560551                0.17415496
              12.47952780               -0.07114964               37.41957761                1.00000000                0.39849823                0.44441658               -1.45445499                0.02984833                0.04514411               -1.08861010
               2.70020681                3.24399652               38.44865186                1.00000000               -0.25454065               -0.35165527                1.02258961               -0.00735912                0.04194956                1.75161675
               3.69766140                3.01349819               38.32564157                1.00000000               -0.22146071               -0.22961677                0.75437635                0.01120655                0.22438180                0.20458487
               4.69577759                2.78241195               38.20628492                0.68439970               -0.14581301               -0.11167865                0.48583481               -0.02705244                0.62339729               -1.20585453
               5.69474514                2.55046645               38.09118109                0.00010000                0.10687532               -0.05985050                0.17443376               -0.14089790                4.37663866               -1.91665743
               6.69791510                2.31624902               38.04676705                0.00010000                0.19821537               -0.10222865               -0.21685660               -0.45113860                5.66953360               -1.03753330
               7.69870945                2.08366083               37.95082433                0.00010000                0.08853484               -0.04946411               -0.41288109               -0.46219926                2.76653914                0.00851459
               8.69968579                1.85187040               37.84671186                0.00010000                0.06565037               -0.00824025               -0.60449031               -0.44837322                3.78381652                0.84130123
               9.70002245                1.62097504               37.77047171                0.00010000                0.08266570                0.01645339               -0.78647394               -0.34471555                4.49252951                1.41468538
              10.70133911                1.39107680               37.68034603                0.41465483                0.23625245                0.26583453               -1.02852114               -0.17227024                2.58932405                1.80190279
              11.70474750                1.16210267               37.56630500                1.00000000                0.38563992                0.35175791               -1.30781276               -0.05337748                0.91256786                0.84723635
              12.70905191                0.93354500               37.44271155                1.00000000                0.43044045                0.49807953               -1.57749382                0.01836576                0.43190613               -1.02205788
               2.93001206                4.24054131               38.40550497                1.00000000               -0.20738962               -0.33437771                0.88710962               -0.01547091                0.12373232                1.61708000
               3.92793816                4.01138059               38.27486366                1.00000000               -0.18049090               -0.18720540                0.61965465                0.00112205                0.20317816                0.01633643
               4.92640224                3.78165537               38.14580548                0.36972929               -0.09368177               -0.04797463                0.36822567               -0.09072248                1.14515868               -1.65659208
               5.92606453                3.54998409               38.03395795                0.00010000               -0.18488718                0.00666061                0.08872288               -0.33296911                5.19641905               -2.58649105
               6.92270450                3.31452400               37.98580815                0.00010000               -0.21980995               -0.06444760               -0.21890338               -0.85325762                8.06146458               -2.54303056
               7.92166833                3.08181688               37.92881143                0.00010000               -0.04189720               -0.12575012               -0.48824802               -0.91767928                7.36792289               -0.36211550
               8.92186655                2.84986607               37.86379492                0.00010000                0.11495206               -0.17147649               -0.73653238               -0.96103994                6.94953368                1.79895898
               9.92396737                2.61878704               37.79601658                0.00010000                0.29654043               -0.18996784               -0.99941500               -0.61385261                6.58451269                2.31391904
              10.92779736                2.39351960               37.72148503                0.14432915                0.40198472               -0.12815162               -1.19065612               -0.31136089                4.27957811                3.45534556
              11.93200706                2.16562345               37.60574839                0.62630333                0.46065407                0.27234759               -1.49494009               -0.18074261                1.24181777                1.91799539
              12.93701044                1.93881195               37.47043001                1.00000000                0.50033795                0.58088087               -1.72727123               -0.06775452                0.25380582               -0.23950051
               3.15821881                5.23730897               38.35984956                1.00000000               -0.16490325               -0.30264933                0.74027193               -0.03009231                0.20303602                1.33366111
               4.15656978                5.00975408               38.22164269                0.78806266               -0.14295833               -0.12803286                0.47400639               -0.02443150                0.31679427               -0.32638178
               5.15535965                4.78145246               38.08569135                0.18930261               -0.06763286                0.02574404                0.22105314               -0.15395945                1.39295328               -1.82339049
               6.15521712                4.55059966               37.96896527                0.00010000               -0.31712459                0.12351843               -0.03510660               -0.57417695                7.06940435               -2.57316282
               7.14901715                4.31496006               37.94647932                0.00010000               -0.51016663                0.09881279               -0.27945768               -0.96125019               11.39950565               -0.91086066
               8.14501379                4.08114583               37.91413359                0.00010000               -0.27611618                0.00192956               -0.55964967               -1.05184147               10.63979136                0.32957444
               9.14349483                3.84844087               37.87398612                0.00010000               -0.04609595               -0.08467540               -0.85210444               -1.09405939               10.13885234                1.62786284
              10.14409187                3.61717568               37.82880374                0.00010000                0.23903270               -0.15569921               -1.17122877               -1.00602886                9.93107552                2.86996967
              11.14827548                3.38851377               37.78148807                0.12188863                0.58742159               -0.47838582               -1.61762855               -0.46281200                6.10972700                4.34411519
              12.15584030                3.16754962               37.65615486                0.49942540                0.65221697                0.14835911               -1.55518674               -0.01183393                1.20457719                2.67141381
              13.16131982                2.94516262               37.50953001                0.91109865                0.54795209                0.64843547               -1.78782554               -0.08437370                0.15162368                0.55676355
               3.38451999                6.23448832               38.31117654                1.00000000               -0.12139506               -0.25200938                0.58280052               -0.03473737                0.12631056                1.05434086
               4.38330604                6.00881994               38.16396425                0.61507695               -0.10212624               -0.06133928                0.30283223               -0.04023444                0.37500215               -0.66033248
               5.38247747                5.78217025               38.02169328                0.11066923               -0.11163283                0.11844314                0.05103740               -0.20184022                2.23663479               -2.24062097
               6.38107338                5.55245446               37.91166356                0.00010000               -0.47720680                0.13660404               -0.05800368               -0.92001804                9.67655536               -0.44760886
               7.37293333                5.31650025               37.91798751                0.00010000               -0.69613436                0.18095220               -0.31770461               -1.26946694               14.71606816                0.11314269
               8.36715070                5.08185547               37.90640573                0.00010000               -0.44889092                0.11669666               -0.62917640               -1.28910467               13.61568117                0.94685770
               9.36395551                4.84817256               37.88810627                0.00010000               -0.16884038                0.00897245               -0.94071581               -1.32865757               13.24336968                1.99723765
              10.36377389                4.61567306               37.86612921                0.00010000                0.21058348               -0.13585106               -1.30078646               -1.33441762               13.09862414                3.23231241
              11.36816718                4.38395188               37.84148183                0.12664687                0.56738216               -0.39978171               -1.81397448               -0.57052355                7.92225607                4.61067944
              12.37512153                4.16859063               37.71125021                0.46403307                0.59648928                0.11355524               -1.39490020                0.07466407                1.40778054                2.68498375
              13.38009697                3.95178066               37.55392821                0.89575090                0.49754349                0.63029128               -1.64753740               -0.05040350                0.08787084                0.68631208
               3.60886083                7.23226878               38.26006338                1.00000000               -0.07776678               -0.18782065                0.41965156               -0.03024076                0.04790685                0.87186202
               4.60808316                7.00852729               38.10394647                0.52164733               -0.05862559               -0.00660548                0.13715653               -0.03384912                0.30562287               -0.79732981
               5.60768832                6.78382132               37.95293498                0.06858250               -0.27982053                0.18836202               -0.13579190               -0.32157542                4.93170420               -2.58255349
               6.60248675                6.55333174               37.88928717                0.00010000               -0.67307590                0.10170083                0.11158775               -1.13563950               12.99791333                1.40465605
               7.59422680                6.31857911               37.89909222                0.00010000               -0.74636815                0.24582633               -0.37982459               -1.39447067               16.57926100                0.82716286
               8.58755939                6.08347976               37.90421684                0.00010000               -0.55613561                0.21398459               -0.69508273               -1.50899655               16.32885043                1.35574906
               9.58310409                5.84862031               37.90602607                0.00010000               -0.29675965                0.08146250               -0.99273036               -1.61131979               16.27251502                2.26278405
              10.58162420                5.61445866               37.90670890                0.00010000                0.04216757               -0.09407511               -1.31351517               -1.74337446               16.43238940                3.44992932
              11.58394744                5.38051813               37.90781755                0.14459558                0.39403070               -0.26998482               -1.71519952               -0.86527021                9.45410374                4.99477344
              12.58950481                5.16982073               37.76334655                0.44710924                0.49921330                0.14186088               -1.24637192                0.08592108                1.16578269                2.30967813
              13.59393171                4.95776845               37.59631373                0.88897387                0.44268959                0.57686137               -1.52556187               -0.02560082                0.06919101                0.40205908
               3.83139815                8.23073191               38.20783219                1.00000000               -0.03216347               -0.12046449                0.25770724               -0.02734101                0.01455724                0.80277347
               4.83107652                8.00868783               38.04337432                0.48830973               -0.00783221                0.03523335               -0.02312488               -0.01678095                0.15554688               -0.81300620
               5.83124151                7.78593749               37.88166504                0.04863326               -0.37368535                0.21379912               -0.31216555               -0.42884479                7.79597387               -2.69344913
               6.82360281                7.55448847               37.86993691                0.00010000               -0.81728024                0.24628759               -0.16080251               -1.06810502               16.72306531                0.82648205
               7.81489590                7.32141678               37.88498053                0.00010000               -0.83366249                0.37505768               -0.48859075               -1.31706322               18.45067024                0.95862987
               8.80692956                7.08613516               37.90474850                0.00010000               -0.70728421                0.36464440               -0.77225848               -1.63084491               18.91372657                1.44465583
               9.80075022                6.84980181               37.92559460                0.00010000               -0.49604894                0.19640652               -1.01491230               -1.91120338               19.27270143                2.28774574
              10.79700858                6.61379156               37.94865696                0.00010000               -0.26252531               -0.02947520               -1.22236698               -2.14217843               19.85938482                3.38360092
              11.79549971                6.37855219               37.97670486                0.17525950                0.12905306               -0.10435306               -1.36938109               -1.16786398               10.75842597                4.79428488
              12.79958964                6.17142785               37.81194783                0.44035789                0.40948980                0.19012548               -1.16655733                0.06612458                0.60883059                1.91898885
              13.80368951                5.96331788               37.63537863                0.88414355                0.40998657                0.54309925               -1.48127062               -0.00649241                0.04632988                0.03776477
               4.05240217                9.22985949               38.15539226                1.00000000                0.01397928               -0.05579873                0.09757787               -0.02525146                0.00053412                0.80714519
               5.05254196                9.00923196               37.98288627                0.50591547                0.04543024                0.07317516               -0.18131460               -0.00477756               -0.00100493               -0.78346293
               6.05331078                8.78809730               37.81025510                0.03568401               -0.34483031                0.21204184               -0.47615657               -0.40789648                9.92813641               -2.46389781
               7.04564536                8.55825750               37.83621565                0.00010000               -0.85359636                0.46347225               -0.47384023               -0.88199507               20.33860977               -0.09342280
               8.03623885                8.32608026               37.86889839                0.00010000               -0.95439478                0.56490266               -0.65570476               -1.13937061               21.00773703                0.65245734
               9.02655746                8.09077265               37.90446672                0.00010000               -0.95076113                0.59367756               -0.86974068               -1.56400750               21.57317186                1.18752549
              10.01722363                7.85254845               37.94416258                0.00010000               -0.82636045                0.49382848               -1.06259468               -2.08731856               22.22682142                1.95905086
              11.01003025                7.61386916               37.98813057                0.00010000               -0.71348787                0.14965952               -1.12299447               -2.57428140               23.08676993                3.15383259
              12.00295387                7.37843107               38.04001990                0.22122749               -0.19843237                0.06311616               -0.96875545               -1.44674701               11.98798895                3.85450792
              13.00606161                7.17362324               37.85670622                0.44332978                0.35339617                0.25362083               -1.13718328                0.01708607                0.13144992                1.50902955
              14.01002179                6.96863043               37.67063728                0.88023931                0.39601866                0.51830562               -1.49490351                0.00443777                0.01940909               -0.36309170
               4.27214818               10.22961593               38.10326685                0.99305996                0.05949679                0.00413428               -0.06237098               -0.02421284               -0.01848799                0.71983858
               5.27274315               10.01015133               37.92274346                0.54492859                0.09549291                0.11098207               -0.33478634               -0.00305159                0.03659091               -0.64468106
               6.27405804                9.79017832               37.74320135                0.00525513               -0.23815995                0.21444865               -0.62362454               -0.29638959               11.82782902               -1.60673470
               7.26797995                9.56375792               37.79835017                0.00010000               -0.72323514                0.55627451               -0.68973544               -0.53888717               23.54040212               -0.20738530
               8.25959334                9.33271483               37.84893245                0.00010000               -0.93993629                0.69179249               -0.82913519               -0.72468015               23.60491343                0.28863975
               9.24918122                9.09800871               37.90024480                0.00010000               -1.18429993                0.81598002               -0.99226743               -1.03180928               24.19422072                0.66094792
              10.23590734                8.85967838               37.95748053                0.00010000               -1.47704507                0.91501903               -1.16014939               -1.64299488               25.31970194                1.15610063
              11.21964032                8.61678475               38.02595412                0.05909916               -1.45483239                0.86631643               -1.34935746               -2.30556268               25.96499696                2.27766350
              12.20681069                8.37981451               38.09040233                0.28788938               -0.49541600                0.19650127               -0.75094257               -1.68840748               13.05028886                2.08059983
              13.20973200                8.17650027               37.89714532                0.45445774                0.34765884                0.31385000               -1.14100244               -0.02578154                0.07844038                0.97306908
              14.21376387                7.97368400               37.70158464                0.86911074                0.40318641                0.49863894               -1.55103659                0.00779943               -0.01178730               -0.57802717
               4.49084712               11.22994218               38.04904990                1.00000000                0.10714217                0.03262443               -0.21457547                0.02083633                0.39261409                0.61955594
               5.49191854               11.01145160               37.86486651                0.81622760                0.14646382                0.13002719               -0.48794264                0.03974426                0.79859510               -0.52283194
               6.49377640               10.79238628               37.68865310                0.49518685                0.02062815                0.22079544               -0.77017797               -0.13159514               13.72451774               -0.97008686
               7.49233110               10.56938299               37.76277647                0.36913407               -0.31409720                0.56250678               -0.86639919               -0.18839298               26.08299022               -0.18335530
               8.48749445               10.33991611               37.82638359                0.35876663               -0.66866864                0.72012765               -0.99148321               -0.32442542               25.86297330                0.09753100
               9.47895773               10.10709225               37.89018413                0.37085806               -1.09533784                0.90835350               -1.14263013               -0.47571362               26.47976123                0.32026005
              10.46558769                9.87084883               37.96063077                0.40454020               -1.75874299                1.11704449               -1.30893281               -0.82680257               27.93840542                0.60912783
              11.44378287                9.63119548               38.04812719                0.55491673               -2.80587468                1.44107359               -1.63700409               -2.01013152               28.19377575                1.50081682
              12.40947020                9.38236110               38.11793322                0.67682720               -1.60531909                0.25465894               -0.84344786               -2.29881136               14.55311851                0.96660564
              13.41167649                9.17990024               37.93089912                0.74410630                0.31700613                0.33999686               -1.19647553                0.00655426                1.14851419                0.65956091
              14.41581032                8.97860321               37.73218745                0.93380485                0.41338342                0.49192158               -1.62010183                0.07494326                0.58841419               -0.57067525
               2.34486726                1.31290599               39.55546767                1.00000000               -0.35349769               -0.38452261                1.32554812               -0.06190930               -1.03809539                1.03017451
               3.34133229                1.07178980               39.43617125                1.00000000               -0.30615160               -0.29018933                1.03903253               -0.03741823               -1.37489540                0.15238425
               4.33874423                0.83020238               39.31023625                1.00000000               -0.20592865               -0.19854651                0.72957224               -0.04357003               -1.36375365               -0.20732769
               5.33721371                0.58812700               39.19113558                0.63805388               -0.02315339               -0.12487989                0.43039803               -0.13368709               -0.62126992               -0.93537555
               6.33828116                0.34375915               39.07992432                0.69828122                0.19880028               -0.12650391                0.04758063               -0.05531161               -0.19289620                0.27513884
               7.34118972                0.09813214               38.96949857                0.75602722                0.31252696                0.00780198               -0.23335767               -0.08449719               -0.22846482                0.14862844
               8.34453170               -0.14597272               38.85646435                0.74731263                0.36573828                0.08474308               -0.45144595               -0.05216929               -0.31236417               -0.07109516
               9.34850448               -0.38848314               38.74286752                0.84300278                0.37216137                0.15199775               -0.61078992               -0.07305731               -0.57093758                0.11299802
              10.35197493               -0.62948773               38.62319245                1.00000000                0.33483979                0.23584373               -0.81104703               -0.06817929               -0.97808592                0.64417937
              11.35520128               -0.86974207               38.50073692                1.00000000                0.34591845                0.32563401               -1.05740081               -0.04128574               -1.01782313                0.02896207
              12.35889330               -1.11011624               38.38001484                1.00000000                0.36920188                0.42095458               -1.33549513               -0.01827180               -0.92407005               -0.89882611
               2.58536437                2.30906077               39.50339158                1.00000000               -0.30544538               -0.37460204                1.17472126               -0.01300962               -0.18599535                1.40294501
               3.58230991                2.06888791               39.38398157                1.00000000               -0.26122174               -0.26926237                0.89132305                0.01117324               -0.26132224                0.21910255
               4.58013993                1.82821691               39.26312812                0.97919589               -0.16057287               -0.17136744                0.58295336               -0.00987340               -0.16869356               -0.45256494
               5.57909845                1.58687820               39.14547206                0.28368164                0.12927712               -0.09252175                0.27685927               -0.16704414                1.42133054               -1.27889282
               6.58272547                1.34249411               39.05609817                0.41022102                0.30561144               -0.09419631               -0.07394306               -0.03977683                2.40115806                0.87243075
               7.58521068                1.09821016               38.95515214                0.49398018                0.22960891                0.04529722               -0.33993558               -0.04955355                1.73013302                0.43645211
               8.58731765                0.85487471               38.85054840                0.42093060                0.21603650                0.13863545               -0.54344288               -0.02927807                1.75259841               -0.27228698
               9.58953141                0.61303683               38.74900427                0.51234469                0.23024736                0.20339626               -0.69424805               -0.05089224                1.78627829                0.48888814
              10.59192260                0.37287071               38.64446673                1.00000000                0.27856320                0.26091479               -0.90508109               -0.04087093                0.92349019                0.86428079
              11.59510268                0.13351427               38.52549010                1.00000000                0.35810763                0.33885717               -1.17513058                0.00272110                0.12753913                0.18321654
              12.59908475               -0.10590669               38.40502604                1.00000000                0.39820742                0.44206678               -1.45313225                0.02737932                0.05231202               -1.04915220
               2.82495280                3.30541395               39.45893244                1.00000000               -0.25531901               -0.35882455                1.03720139               -0.00751482                0.03738604                1.77307470
               3.82239961                3.06640455               39.33317855                1.00000000               -0.21981637               -0.22990830                0.75371204                0.01041581                0.21787398                0.22056736
               4.82055647                2.82677503               39.21107065                0.70078741               -0.14019886               -0.10548914                0.46867871               -0.03107573                0.59658814               -1.17627676
               5.81959563                2.58627656               39.09279815                0.00010000                0.27985956               -0.04704700                0.14319715               -0.23145758                4.28778563               -1.88938721
               6.82615366                2.34187522               39.04432260                0.00010000                0.41112109               -0.12956935               -0.27834460               -0.63412225                5.64421365               -1.01417533
               7.82781805                2.09903809               38.94643265                0.00010000                0.14829036               -0.05158092               -0.47403720               -0.62583361                2.86192621                0.01402788
               8.82911947                1.85679999               38.84048268                0.00010000                0.08362930               -0.00141426               -0.65279303               -0.57998581                3.89746206                0.81914299
               9.82949064                1.61558478               38.76263217                0.00010000                0.07803025                0.01728081               -0.78845935               -0.41462480                4.56448121                1.34463044
              10.83068007                1.37573057               38.67009488                0.40932668                0.22712328                0.25922598               -1.01495904               -0.17663623                2.59945788                1.78319063
              11.83403310                1.13703508               38.55326932                1.00000000                0.38013712                0.35128620               -1.29179034               -0.04716759                0.90532450                0.82860176
              12.83828282                0.89872510               38.42700478                1.00000000                0.42497124                0.48584743               -1.55606582                0.01718579                0.42590368               -0.99103372
               3.06323288                4.30188428               39.41441917                1.00000000               -0.20757213               -0.34190612                0.89872884               -0.01612017                0.12558754                1.63089021
               4.06115715                4.06428974               39.28104383                1.00000000               -0.17932346               -0.18588394                0.61658229               -0.00003300                0.21207338                0.02619985
               5.05964641                3.82610713               39.14941264                0.36916812               -0.08940237               -0.03864592                0.35082846               -0.09591125                1.14804285               -1.64355382
               6.05936911                3.58593726               39.03469216                0.00010000               -0.11824515                0.02445364                0.05221075               -0.44709309                5.17310176               -2.55274004
               7.05728150                3.33990272               38.98337022                0.00010000               -0.07999281               -0.07165514               -0.27458597               -1.15387985                8.05060878               -2.44022895
               8.05776925                3.09717854               38.92362588                0.00010000                0.09448686               -0.13637055               -0.55470981               -1.18945486                7.39268490               -0.31502228
               9.05917124                2.85484642               38.85611869                0.00010000                0.22695427               -0.17946835               -0.80114441               -1.19715450                6.97982901                1.78397547
              10.06230834                2.61338245               38.78577262                0.00010000                0.38841706               -0.20661031               -1.04648681               -0.76141792                6.65166794                2.21234912
              11.06693958                2.37805523               38.70979474                0.13094051                0.44282302               -0.15483706               -1.14424472               -0.32923225                4.29279393                3.22159528
              12.07116480                2.14054000               38.59095818                0.59955083                0.45544222                0.25391520               -1.45380473               -0.16420454                1.20957911                1.91895444
              13.07604843                1.90381026               38.45333656                0.99658436                0.48836294                0.54639131               -1.68219382               -0.06150873                0.25600746               -0.18380840
               3.29981947                5.29857583               39.36728039                1.00000000               -0.16433753               -0.30988862                0.74838885               -0.03178382                0.21080970                1.33506551
               4.29817610                5.06268687               39.22635211                0.77626373               -0.14143723               -0.12379250                0.46785669               -0.02787289                0.33076690               -0.33542420
               5.29699073                4.82600211               39.08782152                0.18483917               -0.06589617                0.03867186                0.20263818               -0.15967173                1.41182150               -1.83675037
               6.29685817                4.58676563               38.96845712                0.00010000               -0.25779745                0.12978889               -0.07173776               -0.69174875                7.09276742               -2.49728357
               7.29183478                4.34044212               38.94343832                0.00010000               -0.38864577                0.10648794               -0.33360952               -1.17892721               11.41616421               -0.82099477
               8.28908526                4.09631068               38.90818397                0.00010000               -0.14311532               -0.00990524               -0.63378605               -1.26583444               10.63398236                0.38810085
               9.28897247                3.85321062               38.86501573                0.00010000                0.09841081               -0.10273135               -0.94154591               -1.30433462               10.11051739                1.64251428
              10.29105347                3.61145258               38.81654082                0.00010000                0.39827058               -0.18494177               -1.27199917               -1.17217132                9.80673445                2.81677254
              11.29693788                3.37263383               38.76450548                0.10926259                0.69702560               -0.52111390               -1.74709267               -0.51017138                6.18240155                4.08056564
              12.30499399                3.14211338               38.64064917                0.47338616                0.67871199                0.09174044               -1.52087188                0.00122802                1.38451501                2.81217566
              13.31051212                2.90965292               38.49186349                0.89722704                0.55181375                0.59354102               -1.72890952               -0.07686675                0.14010151                0.71686010
               3.53437512                6.29568651               39.31701480                1.00000000               -0.12016998               -0.25796678                0.58711160               -0.03581728                0.12303905                1.04634075
               4.53317342                6.06181389               39.16693677                0.60262753               -0.10004543               -0.05434729                0.29125396               -0.04442730                0.38522555               -0.67873629
               5.53237421                5.82688057               39.02208798                0.10506056               -0.10396492                0.13739685                0.02364375               -0.22705885                2.33955952               -2.27132542
               6.53109412                5.58853304               38.91104322                0.00010000               -0.41081461                0.10899873               -0.06736284               -1.04343318                9.76934826               -0.22440115
               7.52415792                5.34203248               38.91455874                0.00010000               -0.57050273                0.18322333               -0.37296891               -1.46800828               14.70431868                0.20410934
               8.51968406                5.09698044               38.89969359                0.00010000               -0.31076348                0.11530256               -0.71579182               -1.47469782               13.58081388                1.01485248
               9.51794265                4.85279180               38.87810955                0.00010000               -0.01211815                0.00087359               -1.05769924               -1.51420685               13.17331630                2.05029117
              10.51944170                4.60968362               38.85226380                0.00010000                0.40663516               -0.15363505               -1.46418951               -1.49198998               12.89484995                3.26730853
              11.52607535                4.36763295               38.82192177                0.11388063                0.73642790               -0.45188442               -2.06619886               -0.63988882                8.14082191                4.66434177
              12.53417026                4.14237481               38.69702413                0.44024435                0.66783269                0.04540297               -1.41913737                0.06617180                1.77989884                2.92018132
              13.53943200                3.91568108               38.53740646                0.88179877                0.52617444                0.58396157               -1.63399608               -0.04502970                0.06872169                0.88533340
               3.76684836                7.29341650               39.26425030                1.00000000               -0.07548691               -0.19201305                0.41937614               -0.03072302                0.04473464                0.86057690
               4.76609349                7.06159993               39.10524990                0.51175950               -0.05589773                0.00143714                0.12318760               -0.03665055                0.30622462               -0.80930265
               5.76573040                6.82875005               38.95143814                0.06371603               -0.26279487                0.21106771               -0.16426180               -0.38576555                5.20615369               -2.61447005
               6.76083759                6.58894561               38.89036189                0.00010000               -0.58515977                0.07658810                0.09291163               -1.25357178               13.16547907                1.48278879
               7.75402721                6.34410659               38.89497480                0.00010000               -0.60028013                0.24352301               -0.44748090               -1.54954162               16.45327311                0.88744596
               8.74883199                6.09861673               38.89676541                0.00010000               -0.40210250                0.21500954               -0.79794623               -1.66547701               16.29884895                1.42960373
               9.74598516                5.85322809               38.89537999                0.00010000               -0.12297351                0.08224014               -1.13742860               -1.76045829               16.22003651                2.36262712
              10.74637252                5.60837988               38.89251040                0.00010000                0.27318795               -0.09880482               -1.52630090               -1.88238919               16.28306800                3.61601178
              11.75144892                5.36359614               38.88888938                0.13077265                0.59483884               -0.32702090               -2.07454193               -0.92738950                9.76639662                5.36275629
              12.75826930                5.14302144               38.75053055                0.42594106                0.57750354                0.09929448               -1.30143665                0.07322279                1.59336891                2.50760803
              13.76299899                4.92133215               38.58091215                0.87578083                0.47296921                0.55313469               -1.54438449               -0.02620820                0.05871686                0.52716726
               3.99739380                8.29184624               39.21038020                1.00000000               -0.02869407               -0.12280296                0.25319972               -0.02798544                0.01323369                0.79186293
               4.99710686                8.06184263               39.04305969                0.48081213               -0.00402905                0.04359779               -0.04066814               -0.01773532                0.14997489               -0.82053245
               5.99731322                7.83110192               38.87840701                0.04589735               -0.32203567                0.23570648               -0.34225959               -0.50960500                7.99970138               -2.70967717
               6.99066614                7.59006480               38.86799110                0.00010000               -0.69086248                0.24843647               -0.23834402               -1.19351856               16.92815119                0.67851873
               7.98349597                7.34690294               38.87968507                0.00010000               -0.67065600                0.36798574               -0.57288566               -1.45474857               18.43830048                0.97612369
               8.97725302                7.10128063               38.89643981                0.00010000               -0.52628163                0.35827285               -0.89273620               -1.75257887               18.93359130                1.51695431
               9.97297033                6.85443660               38.91463630                0.00010000               -0.29135759                0.19532790               -1.18124888               -2.01443308               19.31165224                2.41255349
              10.97142587                6.60770752               38.93531232                0.00010000               -0.00421681               -0.03451917               -1.45871129               -2.25785981               19.91087020                3.64158518
              11.97288600                6.36109253               38.96137918                0.16001022                0.32364142               -0.13996833               -1.74203991               -1.22646277               11.09763219                5.35519714
              12.97789870                6.14436069               38.79991421                0.42104313                0.47002064                0.17588551               -1.23768194                0.06145066                0.91990767                2.05564186
              13.98228641                5.92674377               38.62034687                0.87163077                0.43877105                0.53824216               -1.52552101               -0.00766008                0.04392791                0.08017071
               4.22629587                9.29096044               39.15631761                1.00000000                0.01872324               -0.05571935                0.08842449               -0.02593388               -0.00074009                0.79611673
               5.22648311                9.06247188               38.98097236                0.50108471                0.05101321                0.08167766               -0.20264241               -0.00469551               -0.01005474               -0.78678276
               6.22731614                8.83346418               38.80534631                0.03318862               -0.26584545                0.22949396               -0.50890078               -0.49805730               10.05479137               -2.46308446
               7.22116620                8.59391434               38.83115831                0.00010000               -0.67998671                0.45649232               -0.53963081               -1.03397282               20.52907437               -0.19532761
               8.21371640                8.35146630               38.86185084                0.00010000               -0.74597201                0.53924059               -0.75743007               -1.26772972               21.10340977                0.64700608
               9.20624676                8.10578218               38.89510701                0.00010000               -0.72233982                0.56844968               -1.00610911               -1.65101354               21.67007637                1.25024848
              10.19926961                7.85713465               38.93265749                0.00010000               -0.58436844                0.47670124               -1.24236549               -2.14654518               22.40088631                2.07067230
              11.19455939                7.60768949               38.97587135                0.00010000               -0.45015608                0.14316351               -1.34628075               -2.64659334               23.43559466                3.27825025
              12.19026649                7.36079677               39.02930286                0.20508614               -0.03561585                0.06269610               -1.21955531               -1.51701922               12.34615610                4.36434000
              13.19384707                7.14653915               38.84494212                0.42477581                0.39065753                0.26067352               -1.22011539                0.01678041                0.25236541                1.60675079
              14.19807964                6.93209700               38.65537220                0.86784335                0.42325651                0.52990879               -1.56405517                0.00321156                0.02113500               -0.37430072
               4.45385223               10.29073186               39.10256575                0.98856124                0.06569776                0.00710212               -0.07711368               -0.02514186               -0.01653626                0.71233788
               5.45450921               10.06347619               38.91927493                0.54211543                0.10286926                0.11971499               -0.36039626               -0.00345337                0.03052707               -0.64509796
               6.45590961                9.83569180               38.73680052                0.00346334               -0.12623231                0.22801857               -0.65981468               -0.40864867               11.91988882               -1.59568063
               7.45198456                9.59919464               38.79111081                0.00010000               -0.48180439                0.49883208               -0.76202042               -0.67046658               23.71788097               -0.24459989
               8.44627353                9.35768776               38.84011083                0.00010000               -0.67100766                0.63854767               -0.93905019               -0.81275446               23.75346381                0.28601751
               9.43856441                9.11264962               38.88959878                0.00010000               -0.90707018                0.77067848               -1.14146936               -1.07857678               24.35094522                0.70077646
              10.42813212                8.86397062               38.94493921                0.00010000               -1.18662626                0.87626173               -1.34864061               -1.66617007               25.48806562                1.22501574
              11.41483188                8.61057079               39.01124678                0.04931664               -1.22180833                0.86022229               -1.56313295               -2.34192539               26.58273096                2.20512843
              12.40369596                8.36234645               39.08238856                0.27306060               -0.39489001                0.22164645               -0.87482889               -1.77099484               13.59110049                2.31843264
              13.40693408                8.14957417               38.88535325                0.43621002                0.37694946                0.33311732               -1.22558404               -0.02911575                0.08630950                1.03530462
              14.41123494                7.93734195               38.68567163                0.85633672                0.43008635                0.52158422               -1.64016828                0.00581952               -0.01620785               -0.61030745
               4.68030438               11.29110248               39.04680349                1.00000000                0.11497157                0.03706220               -0.23460860                0.02158554                0.38847571                0.61597265
               5.68145410               11.06486618               38.85984015                0.81578835                0.15601627                0.13899969               -0.51879500                0.04059250                0.79076247               -0.52242920
               6.68342471               10.83802455               38.68076310                0.49369771                0.21534067                0.23327484               -0.81163314               -0.29725084               13.79923522               -0.95658273
               7.68576091               10.60389098               38.75373246                0.36922123                0.02908143                0.46963363               -0.94612458               -0.31172955               26.25015051               -0.20649645
               8.68400633               10.36423726               38.81589492                0.35889238               -0.36842778                0.65495012               -1.11000618               -0.36148040               26.02420616                0.09433361
               9.67839235               10.12119575               38.87798067                0.37062375               -0.79906472                0.85461301               -1.30215535               -0.49607391               26.65044814                0.33736786
              10.66802504                9.87465988               38.94654878                0.40362071               -1.45236524                1.06892600               -1.50536961               -0.82579897               28.05661766                0.63561653
              11.64934505                9.62489394               39.03026754                0.55022834               -2.60909135                1.43231485               -1.86922739               -2.02019234               28.90065187                1.35956864
              12.61584321                9.36522970               39.10900559                0.67000868               -1.55378922                0.28832461               -0.96176812               -2.36989632               15.28653802                1.03760487
              13.61826926                9.15320150               38.91858259                0.73502452                0.34086264                0.36273306               -1.27548375               -0.00153254                1.21989731                0.70217688
              14.62266047                8.94252868               38.71555332                0.92716231                0.43912011                0.51867363               -1.71663733                0.07527075                0.61833290               -0.60094626
               2.45508926                1.37610952               40.56885574                1.00000000               -0.35947677               -0.39409795                1.35791038               -0.06545942               -1.06354201                1.04560655
               3.45149449                1.12628149               40.44660624                1.00000000               -0.30865386               -0.29338148                1.05044996               -0.03991732               -1.41485496                0.16084705
               4.44891618                0.87596719               40.31747676                1.00000000               -0.20212954               -0.19639566                0.71783058               -0.04519150               -1.41171649               -0.20753629
               5.44745190                0.62511564               40.19528681                0.64335701               -0.02298924               -0.11749591                0.39461465               -0.18040773               -0.71289921               -0.95296462
               6.44845639                0.37091062               40.08002672                0.70018182                0.22545637               -0.12917171               -0.03519100               -0.05321510               -0.28270921                0.26770087
               7.45196103                0.11443466               39.96669296                0.75193399                0.38368349                0.01664646               -0.33902242               -0.09125043               -0.21660084                0.13317661
               8.45613006               -0.14036459               39.85151670                0.74015547                0.44876963                0.09313942               -0.55034579               -0.05345081               -0.21041822               -0.08689372
               9.46093642               -0.39307035               39.73649921                0.83684862                0.43389257                0.15414403               -0.67046571               -0.07780705               -0.43471639                0.10997382
              10.46480792               -0.64379855               39.61493968                1.00000000                0.36177227                0.23846361               -0.84292425               -0.07002474               -0.88237833                0.65192598
              11.46817186               -0.89356376               39.49005839                1.00000000                0.35669584                0.32839775               -1.08012447               -0.04094225               -0.96421908                0.03739973
              12.47194183               -1.14334225               39.36657232                1.00000000                0.37699693                0.42196193               -1.35418010               -0.02181530               -0.88639813               -0.86223929
               2.70426269                2.37216854               40.51524772                1.00000000               -0.30962116               -0.38395477                1.20181092               -0.01343400               -0.19926991                1.42195387
               3.70116648                2.12334768               40.39291597                1.00000000               -0.26077501               -0.27171105                0.89760888                0.01104382               -0.28994084                0.23114030
               4.69904719                1.87400324               40.26887562                0.99453062               -0.14951857               -0.16826453                0.56532952               -0.01167090               -0.20831284               -0.43562247
               5.69817611                1.62394068               40.14807274                0.29294932                0.21087720               -0.08285123                0.24153915               -0.22936685                1.35964400               -1.28188409
               6.70326474                1.36961890               40.05504685                0.41371173                0.42550087               -0.11085797               -0.14453905               -0.03155451                2.36214909                0.82547081
               7.70668613                1.11460112               39.95137630                0.49280629                0.30416620                0.05164928               -0.42706411               -0.06126132                1.77817395                0.41004675
               8.70934806                0.86056680               39.84479603                0.42143126                0.25945996                0.15237785               -0.61983050               -0.04122879                1.87592960               -0.29604869
               9.71187532                0.60847109               39.74193672                0.51214380                0.25031564                0.20848257               -0.72625004               -0.06086290                1.90914310                0.48019441
              10.71435437                0.35858609               39.63540124                1.00000000                0.28294839                0.26055719               -0.90644809               -0.04338338                0.97699019                0.86399256
              11.71753429                0.10972022               39.51374400                1.00000000                0.35738999                0.33851915               -1.17177230                0.00317580                0.14151547                0.19191899
              12.72150217               -0.13912263               39.39051497                1.00000000                0.39678790                0.43780268               -1.44606528                0.02357666                0.06066431               -1.00495890
               2.95246231                3.36843043               40.46939588                1.00000000               -0.25816346               -0.36786902                1.06005682               -0.00772540                0.03093326                1.79583257
               3.94988067                3.12084727               40.34071581                1.00000000               -0.21862729               -0.23083258                0.75548180                0.00955820                0.20792983                0.23719507
               4.94808976                2.87260190               40.21565850                0.71899961               -0.13158870               -0.09849072                0.44418483               -0.03605372                0.56573930               -1.14315710
               5.94724890                2.62345861               40.09404503                0.00010000                0.45375524               -0.03351817                0.09701005               -0.32577889                4.18830022               -1.85761791
               6.95716486                2.36869346               40.04120016                0.00010000                0.62695001               -0.15075968               -0.35604915               -0.82363808                5.61009604               -0.99970454
               7.95978790                2.11546764               39.94134358                0.00010000                0.21353273               -0.04180014               -0.55921783               -0.79615294                2.96839662                0.00433205
               8.96143552                1.86268297               39.83365600                0.00010000                0.09559880                0.02228613               -0.73139430               -0.71999997                4.04955326                0.77293052
               9.96169987                1.61109930               39.75470252                0.00010000                0.06277997                0.03271452               -0.80773409               -0.49105091                4.67959345                1.24108758
              10.96269112                1.36141260               39.66004685                0.40145739                0.21221136                0.24774117               -0.98812104               -0.18896858                2.62004919                1.76448914
              11.96594410                1.11320663               39.54046920                1.00000000                0.37039742                0.34512367               -1.26196215               -0.04381290                0.89652884                0.81278688
              12.97009907                0.86541380               39.41159024                1.00000000                0.41549666                0.46998489               -1.52012389                0.01430075                0.42002144               -0.95307583
               3.19927449                4.36481116               40.42347955                1.00000000               -0.20883255               -0.35078888                0.91715345               -0.01655111                0.12664240                1.64526645
               4.19718617                4.11873103               40.28719531                1.00000000               -0.17798594               -0.18473066                0.61397310               -0.00072095                0.21997996                0.03716487
               5.19571477                3.87203342               40.15282205                0.36804317               -0.08085964               -0.02798950                0.32890247               -0.10296977                1.14762529               -1.62695404
               6.19556897                3.62327032               40.03500216                0.00010000               -0.04659135                0.04221555                0.00449780               -0.56114704                5.14599446               -2.51548657
               7.19478295                3.36660371               39.98031643                0.00010000                0.06022926               -0.06709034               -0.34411240               -1.45282383                8.04015834               -2.33373069
               8.19677356                3.11376512               39.91771724                0.00010000                0.22667264               -0.13137548               -0.63625359               -1.46315277                7.42501236               -0.27660559
               9.19931640                2.86101253               39.84777203                0.00010000                0.32755575               -0.16913361               -0.87520513               -1.43634621                7.02922369                1.74689341
              10.20332467                2.60912538               39.77508685                0.00010000                0.45756382               -0.20396751               -1.09119391               -0.92173339                6.77753198                2.05849679
              11.20846768                2.36354091               39.69860014                0.11777741                0.46660771               -0.17072707               -1.08771980               -0.36893185                4.34678894                2.90615789
              12.21265683                2.11662269               39.57667230                0.57277067                0.44530770                0.22602810               -1.39533104               -0.15176777                1.17108658                1.91813885
              13.21737383                1.87027707               39.43678614                0.98041193                0.47170012                0.50080609               -1.61890909               -0.05485545                0.25382171               -0.12247564
               3.44429155                5.36141465               40.37481734                1.00000000               -0.16475631               -0.31829691                0.76184527               -0.03308161                0.21879375                1.33679428
               4.44264399                5.11715266               40.23099982                0.76172316               -0.14002403               -0.11918013                0.46168577               -0.03106627                0.34596741               -0.34501372
               5.44149107                4.87204211               40.08974412                0.17951191               -0.05941603                0.05468439                0.17772041               -0.17011528                1.43058970               -1.85329079
               6.44145567                4.62430293               39.96753051                0.00010000               -0.19387436                0.13956743               -0.11940206               -0.81349257                7.11977766               -2.40571373
               7.43761359                4.36735165               39.93980713                0.00010000               -0.26698236                0.12211235               -0.39784481               -1.39382041               11.43211857               -0.72481013
               8.43611602                4.11284013               39.90145787                0.00010000               -0.01326276               -0.00970190               -0.71639423               -1.48043754               10.62689282                0.44223733
               9.43734833                3.85930029               39.85515520                0.00010000                0.23103969               -0.10991989               -1.03061668               -1.51424721               10.08406965                1.63583490
              10.44073682                3.60701995               39.80336376                0.00010000                0.52334184               -0.20378641               -1.35197103               -1.33841226                9.67621462                2.70868337
              11.44781517                3.35799806               39.74654622                0.09704484                0.77178869               -0.53430493               -1.82017018               -0.57685754                6.31532357                3.66822020
              12.45617259                3.11772719               39.62573742                0.44865814                0.69390207                0.02450904               -1.44839793                0.00049294                1.63369996                2.91268170
              13.46169321                2.87542993               39.47495182                0.88301761                0.55206187                0.50807983               -1.64293884               -0.06308094                0.13427326                0.85559069
               3.68713684                6.35844522               40.32291877                1.00000000               -0.11994636               -0.26498665                0.59573053               -0.03654171                0.11838185                1.03786936
               4.68593738                6.11634742               40.16978933                0.59082489               -0.09873201               -0.04671688                0.27949403               -0.04711463                0.39374904               -0.69705153
               5.68516220                5.87312711               40.02216616                0.09869486               -0.09738969                0.15853885               -0.00912900               -0.25387119                2.46128416               -2.30473213
               6.68398958                5.62606166               39.91031630                0.00010000               -0.33964345                0.08683592               -0.08125420               -1.16385759                9.86355570                0.00871795
               7.67836933                5.36904595               39.91052814                0.00010000               -0.43867086                0.19250242               -0.43862618               -1.66077159               14.67041677                0.29701682
               8.67521617                5.11357108               39.89208990                0.00010000               -0.17588482                0.12427458               -0.80714586               -1.66083321               13.53487142                1.07673579
               9.67485164                4.85881413               39.86695229                0.00010000                0.13212499                0.00229063               -1.17037267               -1.70549617               13.08470660                2.08297065
              10.67785867                4.60504965               39.83684542                0.00010000                0.56858264               -0.16447880               -1.60379937               -1.64599813               12.64653761                3.24916761
              11.68622329                4.35285482               39.80015785                0.10135362                0.86880760               -0.48411044               -2.23708229               -0.72483632                8.42645327                4.58659180
              12.69523482                4.11711287               39.68286746                0.41759128                0.72417231               -0.03221940               -1.39031484                0.03803395                2.25180298                3.09204401
              13.70070673                3.88043866               39.52124829                0.86821126                0.54719164                0.49707293               -1.58289851               -0.03493899                0.05469112                1.03611508
               3.92775632                7.35611492               40.26845090                1.00000000               -0.07365083               -0.19716862                0.42259985               -0.03130861                0.04202195                0.84842815
               4.92701981                7.11621832               40.10641022                0.50179879               -0.05284560                0.01036447                0.10799844               -0.03950969                0.30752532               -0.81962661
               5.92669941                6.87521289               39.94964975                0.06007787               -0.23800688                0.23543351               -0.19700578               -0.45183788                5.48816463               -2.64020637
               6.92225967                6.62603964               39.89114540                0.00010000               -0.49053341                0.06003803                0.05526628               -1.35565006               13.32347959                1.53072428
               7.91688874                6.37120170               39.89014260                0.00010000               -0.45642445                0.25086326               -0.52479453               -1.69350743               16.30639207                0.94282241
               8.91313119                6.11532562               39.88825792                0.00010000               -0.25644526                0.22807840               -0.90405190               -1.82108037               16.24936470                1.49381986
               9.91175983                5.85934611               39.88327750                0.00010000                0.03224909                0.09806235               -1.27963221               -1.91680663               16.13029857                2.44163876
              10.91377617                5.60373038               39.87618288                0.00010000                0.47476923               -0.08936741               -1.72877178               -2.02029124               16.03710680                3.74176788
              11.92125522                5.34831585               39.86632671                0.11693380                0.77866266               -0.38060837               -2.40750033               -1.00102038               10.15174238                5.64416547
              12.92934942                5.11708280               39.73731782                0.40547844                0.65438149                0.05081240               -1.32535051                0.04204130                2.16701089                2.66151913
              13.93434285                4.88537138               39.56542604                0.86309910                0.49934291                0.50112913               -1.54519917               -0.02134052                0.04803026                0.60425986
               4.16630386                8.35450185               40.21289618                1.00000000               -0.02546494               -0.12593195                0.25140592               -0.02863665                0.01197612                0.78046148
               5.16604921                8.11655471               40.04256096                0.47297653                0.00001306                0.05313680               -0.06024457               -0.01868538                0.14477877               -0.82691370
               6.16630412                7.87783578               39.87481985                0.04246556               -0.25807189                0.26146069               -0.37859419               -0.58855181                8.18440229               -2.72193410
               7.16088777                7.62726243               39.86517003                0.00010000               -0.55454582                0.25957948               -0.32543028               -1.31549612               17.11319688                0.51910310
               8.15521320                7.37406322               39.87352281                0.00010000               -0.51188095                0.36964578               -0.66310473               -1.58300883               18.42104513                0.98309076
               9.15065015                7.11813265               39.88689377                0.00010000               -0.35512263                0.36465096               -1.01674110               -1.86333473               18.92539535                1.57715373
              10.14811075                6.86077538               39.90196962                0.00010000               -0.10835263                0.21564358               -1.35139383               -2.10765834               19.29851825                2.52124338
              11.14848310                6.60326230               39.91948273                0.00010000                0.23698525               -0.01153395               -1.71011599               -2.36060569               19.83842110                3.88813083
              12.15285046                6.34524265               39.94186406                0.14412853                0.52685039               -0.18036775               -2.19600734               -1.27910859               11.50450852                5.97118619
              13.15902011                6.11812912               39.78719419                0.40213063                0.54261492                0.16182073               -1.30166658                0.04543775                1.39348611                2.16717217
              14.16370275                5.89046125               39.60486821                0.85961916                0.46826469                0.52241360               -1.57291430               -0.00471371                0.04092810                0.07800576
               4.40307786                9.35359628               40.15716075                1.00000000                0.02343115               -0.05625230                0.08107425               -0.02676038               -0.00170407                0.78397550
               5.40331218                9.11728106               39.97883342                0.49569262                0.05713979                0.09134371               -0.22622562               -0.00422299               -0.01844014               -0.78883448
               6.40422066                8.88044210               39.80007708                0.03003243               -0.17949314                0.25060706               -0.54860141               -0.58670019               10.17344710               -2.45825604
               7.39972231                8.63123123               39.82542303                0.00010000               -0.49311588                0.45146719               -0.61174853               -1.18540025               20.70153758               -0.28543245
               8.39435834                8.37859462               39.85374979                0.00010000               -0.52849885                0.51639444               -0.86403938               -1.38255767               21.17571271                0.63325454
               9.38915234                8.12261864               39.88434454                0.00010000               -0.49406653                0.55089694               -1.14684688               -1.71070199               21.73409842                1.30151936
              10.38447701                7.86365898               39.91931527                0.00010000               -0.35277773                0.47560159               -1.42669273               -2.16045232               22.52234970                2.17352875
              11.38209678                7.60349970               39.96120496                0.00010000               -0.18353910                0.16144113               -1.60307499               -2.67939971               23.71549931                3.43873794
              12.38080623                7.34470849               40.01562879                0.18733127                0.14713977                0.06188906               -1.57991259               -1.57523543               12.76140947                5.03239097
              13.38503958                7.12031921               39.83230391                0.40641559                0.43890484                0.27183791               -1.31180346                0.01330905                0.47193304                1.69447114
              14.38958433                6.89581966               39.63935618                0.85589892                0.45447500                0.54177406               -1.64921516                0.00505396                0.02471483               -0.42448302
               4.63839909               10.35337681               40.10172457                0.98423671                0.07198316                0.00949330               -0.08995248               -0.02624854               -0.01441289                0.70286787
               5.63911892               10.11838159               39.91553554                0.53880023                0.11104242                0.12957673               -0.38912040               -0.00334345                0.02492704               -0.64430717
               6.64061994                9.88284792               39.73000505                0.00114760               -0.00458344                0.24436840               -0.70360538               -0.52208453               12.00072189               -1.58111941
               7.63902725                9.63629177               39.78310977                0.00010000               -0.22226492                0.43892618               -0.84117485               -0.79884162               23.87090199               -0.28208227
               8.63617464                9.38439111               39.83015145                0.00010000               -0.38277517                0.58200025               -1.05413038               -0.88845794               23.87133100                0.28101364
               9.63137175                9.12915059               39.87741542                0.00010000               -0.60769951                0.72285944               -1.29626350               -1.09716053               24.46807817                0.73363812
              10.62402065                8.87028741               39.93050772                0.00010000               -0.87630799                0.83415184               -1.53766279               -1.63516491               25.62335915                1.29190062
              11.61384559                8.60649113               39.99469146                0.03620118               -0.97472108                0.84228170               -1.73149211               -2.32823305               27.19356719                2.17401390
              12.60452623                8.34648043               40.07290575                0.25502696               -0.28352328                0.25853210               -1.05915296               -1.84227825               14.17679292                2.65960683
              13.60817513                8.12356588               39.87263364                0.41820702                0.41383602                0.35829358               -1.32871932               -0.03482826                0.12290491                1.10183245
              14.61280295                7.90129673               39.66878127                0.84391303                0.46278246                0.55006280               -1.75130174                0.00564517               -0.01937261               -0.66943451
               4.87254333               11.35378614               40.04435772                1.00000000                0.12308611                0.04093376               -0.25393162                0.02306857                0.38279194                0.60996584
               5.87377419               11.11987259               39.85449061                0.81506584                0.16627289                0.14910040               -0.55331675                0.04269311                0.78108635               -0.52080653
               6.87586879               10.88532947               39.67242044                0.49201091                0.42140516                0.24815501               -0.86118840               -0.46825705               13.85956726               -0.94034237
               7.88220229               10.64000976               39.74385398                0.36929152                0.39307899                0.37179875               -1.03174134               -0.43723868               26.38993756               -0.22952760
               8.88373037               10.39023462               39.80418347                0.35901010               -0.04447334                0.58435124               -1.23313297               -0.39112381               26.15074896                0.08990766
               9.88131283               10.13707583               39.86414102                0.37040161               -0.46485969                0.79252450               -1.46648314               -0.50052279               26.77824638                0.35241630
              10.87443317                9.88034201               39.93052338                0.40268447               -1.09868644                1.00546079               -1.70009521               -0.79527293               28.14980742                0.66844240
              11.85933910                9.62034533               40.01074264                0.54320641               -2.37736310                1.38542034               -1.98316734               -1.97379336               29.60151392                1.24330845
              12.82688591                9.34987913               40.09869786                0.66095303               -1.49061929                0.33987060               -1.13036514               -2.40704413               16.08157312                1.15105103
              13.82952671                9.12748509               39.90538944                0.72605506                0.36748120                0.39192054               -1.37507137               -0.01775252                1.32717146                0.75642364
              14.83423553                8.90682091               39.69785470                0.92066161                0.47088227                0.55241842               -1.83784532                0.07684106                0.65188689               -0.64837114
               2.56809541                1.44103417               41.58262588                1.00000000               -0.36812441               -0.40744679                1.40328050               -0.06998238               -1.09267512                1.06285421
               3.56441417                1.18238729               41.45718025                1.00000000               -0.31330387               -0.29861502                1.06776146               -0.04210945               -1.46056561                0.16964920
               4.56182934                0.92325393               41.32459286                1.00000000               -0.20042015               -0.19312056                0.70428143               -0.04581595               -1.46935416               -0.21015372
               5.56040577                0.66349584               41.19902788                0.64952700               -0.03042573               -0.10135511                0.34778062               -0.23761778               -0.82874005               -0.96849142
               6.56122082                0.39907290               41.07922050                0.70408172                0.24809746               -0.12428208               -0.13309071               -0.05893556               -0.40448383                0.25828672
               7.56536772                0.13142899               40.96271812                0.74971507                0.46481336                0.03314826               -0.46682358               -0.10138081               -0.21520265                0.11261053
               8.57051709               -0.13426925               40.84545743                0.73284067                0.55097317                0.10836822               -0.67501866               -0.05350927               -0.08662906               -0.11237088
               9.57638718               -0.39715867               40.72945821                0.82819956                0.51255485                0.15960898               -0.74706170               -0.08296646               -0.26123270                0.09947504
              10.58076819               -0.65737234               40.60633397                1.00000000                0.39485373                0.24157290               -0.88065843               -0.07163852               -0.76366471                0.66164707
              11.58428425               -0.91636530               40.47913443                1.00000000                0.36846412                0.33071469               -1.10565328               -0.04019817               -0.90214413                0.04619694
              12.58813747               -1.17524632               40.35293123                1.00000000                0.38532142                0.42225293               -1.37455425               -0.02623709               -0.84396086               -0.82207867
               2.82604247                2.43695970               41.52742780                1.00000000               -0.31592723               -0.39676970                1.24076670               -0.01404648               -0.21428125                1.44232431
               3.82288320                2.17940114               41.40193375                1.00000000               -0.26127827               -0.27590903                0.90827193                0.01222223               -0.32220327                0.24361471
               4.82081690                1.92132272               41.27443471                1.00000000               -0.13815470               -0.16442392                0.54769445               -0.01030764               -0.24908367               -0.42296134
               5.82012010                1.66248229               41.15030285                0.30404612                0.29239936               -0.06505307                0.20310885               -0.30392203                1.28960898               -1.29223810
               6.82666489                1.39783008               41.05320739                0.41964305                0.54524412               -0.12306746               -0.23361323               -0.04428024                2.30680618                0.76990982
               7.83102498                1.13176048               40.94661085                0.49343232                0.38054707                0.06774007               -0.54068780               -0.08266107                1.82915607                0.37166304
               8.83427583                0.86681443               40.83815179                0.42135471                0.30420378                0.17759192               -0.72582145               -0.05442771                2.03421743               -0.34162016
               9.83710906                0.60443742               40.73447927                0.50826605                0.26896420                0.22075403               -0.77509500               -0.07332804                2.07807665                0.45634598
              10.83965512                0.34504339               40.62633777                1.00000000                0.28551010                0.25968951               -0.90443758               -0.04746890                1.05113589                0.86437088
              11.84281926                0.08694184               40.50205466                1.00000000                0.35504973                0.33639103               -1.16344671                0.00344287                0.15769115                0.20105616
              12.84675611               -0.17102379               40.37610473                1.00000000                0.39368481                0.43193641               -1.43284216                0.01862182                0.07011819               -0.95579557
               3.08293160                3.43309878               41.48013358                1.00000000               -0.26360117               -0.37957744                1.09293471               -0.00837980                0.02404710                1.81924618
               4.08029559                3.17686911               41.34828819                1.00000000               -0.21947844               -0.23260556                0.76054956                0.00988635                0.19345269                0.25356833
               5.07854204                2.91996545               41.21995435                0.73806456               -0.12378129               -0.09201482                0.41384455               -0.03495884                0.52936322               -1.10884245
               6.07781997                2.66219478               41.09473835                0.00010000                0.62574975               -0.01701213                0.03741865               -0.43396893                4.08260798               -1.83279247
               7.09105703                2.39661156               41.03720162                0.00010000                0.84550887               -0.16044690               -0.45814159               -1.03531393                5.56751519               -0.99127754
               8.09473014                2.13278380               40.93524830                0.00010000                0.28472834               -0.01141654               -0.68207958               -0.97700281                3.08343981               -0.01603437
               9.09675160                1.86928259               40.82585479                0.00010000                0.09807587                0.07353289               -0.85501846               -0.87085582                4.25128902                0.70814929
              10.09669166                1.60725641               40.74647749                0.00010000                0.02813912                0.07268672               -0.85318176               -0.57696647                4.86569049                1.10733738
              11.09731438                1.34782145               40.65033246                0.39096366                0.18643141                0.23178119               -0.94819715               -0.21295495                2.66734372                1.74395074
              12.10042029                1.09036252               40.52803008                1.00000000                0.35633924                0.33463519               -1.21987249               -0.04238848                0.88573690                0.79821797
              13.10444116                0.83339241               40.39660230                1.00000000                0.40208748                0.45114713               -1.47109065                0.01004348                0.41392860               -0.90959274
               3.33833420                4.42936815               41.43276224                1.00000000               -0.21199530               -0.36131425                0.94363027               -0.01697326                0.12669842                1.65904612
               4.33621425                4.17474903               41.29332329                1.00000000               -0.17710716               -0.18382685                0.61227289               -0.00063265                0.22800163                0.04820949
               5.33479206                3.91948243               41.15599069                0.36669937               -0.07098142               -0.01866300                0.30095177               -0.10385957                1.14467396               -1.60558581
               6.33479462                3.66214205               41.03478211                0.00010000                0.02887689                0.05712206               -0.05526889               -0.67452678                5.11134465               -2.47058079
               7.33536960                3.39462115               40.97648798                0.00010000                0.20096366               -0.04386712               -0.43300831               -1.75585711                8.02946044               -2.21605989
               8.33881389                3.13153215               40.91090081                0.00010000                0.35082549               -0.10005171               -0.74063614               -1.73955786                7.47149450               -0.23425050
               9.34238611                2.86828509               40.83861459                0.00010000                0.41084878               -0.12677634               -0.96851506               -1.68223089                7.11191308                1.70756921
              10.34703087                2.60589115               40.76394874                0.00010000                0.49518999               -0.16943676               -1.14061149               -1.10554950                6.97879958                1.87320828
              11.35228991                2.34967902               40.68804035                0.10462500                0.46848322               -0.16904663               -1.01620552               -0.43501468                4.44657137                2.51609713
              12.35640053                2.09363455               40.56305156                0.54484077                0.43036421                0.19046680               -1.32056740               -0.14188852                1.12765260                1.91418220
              13.36089719                1.83799916               40.42095838                0.96148145                0.44966564                0.44550842               -1.53720430               -0.04715793                0.24746989               -0.05938983
               3.59183038                5.42587249               41.38251729                1.00000000               -0.16617182               -0.32789109                0.78151748               -0.03461976                0.22712519                1.33746586
               4.59016867                5.17319257               41.23558583                0.74925934               -0.13792781               -0.11432885                0.45487213               -0.03467655                0.36109714               -0.35390015
               5.58907183                4.91959219               41.09137592                0.17317122               -0.04889760                0.06989321                0.14343078               -0.17872442                1.44833036               -1.86827625
               6.58919071                4.66333722               40.96606908                0.00010000               -0.12610188                0.14752281               -0.17927260               -0.93246723                7.14372196               -2.28276606
               7.58654979                4.39573421               40.93548142                0.00010000               -0.14578365                0.15080990               -0.47535939               -1.60656998               11.45275494               -0.61951095
               8.58627504                4.13078276               40.89385609                0.00010000                0.10990933                0.00914807               -0.81109076               -1.69218499               10.63012377                0.50199042
               9.58874798                3.86674706               40.84440340                0.00010000                0.34558538               -0.09780919               -1.12200041               -1.72099689               10.08291062                1.62068263
              10.59318675                3.60386767               40.78950140                0.00010000                0.60613559               -0.20216529               -1.41084023               -1.50852608                9.57558941                2.56009219
              11.60087069                3.34444052               40.72810207                0.08512273                0.80378151               -0.50473602               -1.84455622               -0.67016744                6.52821223                3.14527557
              12.60926238                3.09417185               40.61168121                0.42400042                0.69490497               -0.04996279               -1.35252997               -0.02112967                1.94420404                2.97912292
              13.61476879                2.84230258               40.45900471                0.86750024                0.55064094                0.39650024               -1.53634653               -0.04357840                0.12931094                0.96645643
               3.84300164                6.42281033               41.32892941                1.00000000               -0.12006217               -0.27324205                0.60882011               -0.03779952                0.11349630                1.02862600
               4.84180102                6.17246245               41.17252665                0.57829689               -0.09643579               -0.03784036                0.26744710               -0.05267794                0.40188657               -0.71459705
               5.84107292                5.92088029               41.02190540                0.09156841               -0.08988816                0.18500187               -0.04551510               -0.28416301                2.60237063               -2.33506337
               6.84000325                5.66509250               40.90941814                0.00010000               -0.26401336                0.06845716               -0.10206872               -1.28096678                9.96721936                0.25279877
               7.83579266                5.39763734               40.90578622                0.00010000               -0.30229557                0.21170736               -0.51574564               -1.84423265               14.62485942                0.39253336
               8.83395734                5.13171511               40.88355068                0.00010000               -0.04556985                0.14532435               -0.90318145               -1.84495446               13.49533402                1.14046006
               9.83488126                4.86632891               40.85470210                0.00010000                0.26047740                0.01482345               -1.27552801               -1.89745383               13.00546377                2.10226590
              10.83916689                4.60184784               40.82018781                0.00010000                0.68505575               -0.16448770               -1.70820940               -1.79329578               12.41203850                3.17783027
              11.84858237                4.33958429               40.77718012                0.08916619                0.94744943               -0.48336426               -2.30263196               -0.83672057                8.80642272                4.37412806
              12.85811588                4.09263529               40.66921783                0.39545513                0.75908961               -0.11233822               -1.32602456               -0.02036650                2.80279462                3.19669783
              13.86376417                3.84592916               40.50574849                0.85421129                0.56482871                0.37474247               -1.50846097               -0.02189500                0.04436905                1.12247902
               4.09177015                7.42040765               41.27270230                1.00000000               -0.07250015               -0.20323551                0.42966563               -0.03208181                0.03922967                0.83581290
               5.09104515                7.17243577               41.10740987                0.49109968               -0.05058152                0.02093551                0.09085184               -0.04188355                0.30913863               -0.82855308
               6.09075852                6.92329223               40.94749803                0.05559085               -0.21154099                0.26778072               -0.23794949               -0.52050688                5.77629980               -2.66119837
               7.08681433                6.66470636               40.89146721                0.00010000               -0.38579921                0.05383639               -0.01381112               -1.45500037               13.50087497                1.55636390
               8.08304253                6.39996836               40.88447891                0.00010000               -0.30649699                0.26601140               -0.60790480               -1.83083227               16.15885034                0.99767871
               9.08068439                6.13368925               40.87868437                0.00010000               -0.11881843                0.25109894               -1.01031130               -1.97840239               16.20052916                1.55341704
              10.08066616                5.86704353               40.86978734                0.00010000                0.16905297                0.12473946               -1.41164504               -2.08204267               16.02956781                2.50045765
              11.08406545                5.60057792               40.85793496                0.00010000                0.63413322               -0.06998912               -1.90059172               -2.15686688               15.74310422                3.81164144
              12.09334883                5.33477324               40.84073937                0.10331038                0.92223681               -0.41850613               -2.64623202               -1.09852463               10.64342039                5.74878518
              13.10251018                5.09192509               40.72402354                0.38556385                0.71971596                0.00413778               -1.32321963               -0.01637058                2.88116431                2.75092043
              14.10774315                4.84979743               40.55000817                0.85051976                0.52329661                0.42222936               -1.53723632               -0.01312742                0.03961319                0.61030857
               4.33830377                8.41874562               41.21540832                1.00000000               -0.02250001               -0.12980465                0.25263947               -0.02913000                0.01056279                0.76854399
               5.33807877                8.17288116               41.04185480                0.46443366                0.00442103                0.06424222               -0.08244068               -0.01784431                0.14009570               -0.83153710
               6.33839219                7.92623591               40.87083512                0.03817524               -0.19258263                0.29108105               -0.42249312               -0.66374914                8.35671167               -2.72950904
               7.33422711                7.66616923               40.86148249                0.00010000               -0.40995312                0.27797949               -0.40840077               -1.42842123               17.28805964                0.35330628
               8.33019313                7.40295757               40.86642297                0.00010000               -0.34564965                0.37671982               -0.76012088               -1.70827635               18.40967639                0.98727297
               9.32731412                7.13673709               40.87610498                0.00010000               -0.19206943                0.38008396               -1.13845836               -1.97275062               18.90627224                1.62616312
              10.32635174                6.86882370               40.88760842                0.00010000                0.04928641                0.25117969               -1.51471828               -2.20495051               19.24967647                2.60892723
              11.32829985                6.60044806               40.90111000                0.00010000                0.44564858                0.03388028               -1.95573851               -2.45595606               19.63649011                4.09412374
              12.33526471                6.33121417               40.91745904                0.12811874                0.72322109               -0.21851661               -2.68062890               -1.33415600               12.01570983                6.54489118
              13.34276427                6.09271805               40.77388088                0.38368695                0.62461128                0.15320192               -1.35831711                0.01038710                2.07774576                2.23348092
              14.34775693                5.85437375               40.58888858                0.84791705                0.49926626                0.49484220               -1.63159820                0.00188260                0.03953090                0.01512619
               4.58291646                9.41781156               41.15793910                0.99776930                0.02815135               -0.05766894                0.07561138               -0.02718104               -0.00149413                0.77150820
               5.58319798                9.17372061               40.97644785                0.48939624                0.06395029                0.10258416               -0.25257083               -0.00246044               -0.02579358               -0.78951909
               6.58419547                8.92911385               40.79437428                0.02608385               -0.08368691                0.27450725               -0.59667549               -0.67485110               10.28627770               -2.44991719
               7.58152424                8.67026595               40.81892334                0.00010000               -0.29431580                0.44764069               -0.69269149               -1.32910025               20.86466310               -0.36578955
               8.57830915                8.40750276               40.84457005                0.00010000               -0.30804943                0.49583905               -0.97062690               -1.48868291               21.23619758                0.61380811
               9.57536325                8.14129093               40.87217007                0.00010000               -0.27264857                0.53944054               -1.28481611               -1.75900249               21.77704290                1.33839142
              10.57285618                7.87206713               40.90412364                0.00010000               -0.14036991                0.48884156               -1.60873307               -2.15319419               22.59080969                2.26035968
              11.57255585                7.60125552               40.94380985                0.00010000                0.07697716                0.20326593               -1.88466642               -2.68294408               23.88039863                3.64174551
              12.57439572                7.33040290               40.99770461                0.16841419                0.35012491                0.06276763               -2.08513426               -1.61207323               13.25628241                5.85796298
              13.57955835                7.09498913               40.81870605                0.38854759                0.50368372                0.29036158               -1.41231866                0.00218771                0.85695874                1.75832169
              14.58446940                6.85969427               40.62238790                0.84434462                0.49110494                0.55404918               -1.75990765                0.01027896                0.03120314               -0.51998353
               4.82594204               10.41759224               41.10076670                0.97950791                0.07852293                0.01119680               -0.10050880               -0.02704034               -0.01260673                0.69262869
               5.82672727               10.17493285               40.91149253                0.53450145                0.12038934                0.14096477               -0.42227435               -0.00255295                0.01973128               -0.64300972
               6.82834982                9.93172605               40.72272841                0.00010000                0.12644684                0.26365383               -0.75665396               -0.63767945               12.07483175               -1.56442452
               7.82925620                9.67512205               40.77428731                0.00010000                0.05223352                0.37730212               -0.92505967               -0.92896512               24.00903768               -0.31787012
               8.82939449                9.41287435               40.81902823                0.00010000               -0.08432502                0.52343084               -1.16865921               -0.95855142               23.96778177                0.27288175
               9.82756970                9.14752590               40.86367351                0.00010000               -0.30356176                0.67509692               -1.44830286               -1.10098491               24.55285234                0.75505160
              10.82332326                8.87860053               40.91418596                0.00010000               -0.56322553                0.79651436               -1.72577304               -1.57245648               25.74359476                1.34846306
              11.81630519                8.60451338               40.97661694                0.01985423               -0.70168100                0.82011109               -1.90397692               -2.27430050               27.75830358                2.24474197
              12.80928964                8.33246952               41.06120550                0.23395207               -0.13942687                0.31318001               -1.34284539               -1.87779742               14.78320833                3.13977713
              13.81351665                8.09852528               40.85877886                0.40064916                0.46312900                0.39146143               -1.45373425               -0.04586442                0.22023538                1.16609931
              14.81855222                7.86545473               40.65064560                0.83189549                0.50355647                0.58600671               -1.89479688                0.00786008               -0.01917927               -0.75542696
               5.06769444               11.41803549               41.04172486                0.99980693                0.13186625                0.04432506               -0.27223466                0.02568222                0.37634939                0.60245441
               6.06901311               11.17653991               40.84877381                0.81403804                0.17791178                0.16070599               -0.59302193                0.04615577                0.77126747               -0.51871154
               7.07125268               10.93438693               40.66353933                0.49005965                0.63917631                0.26608749               -0.92061293               -0.64610988               13.91248167               -0.92200824
               8.08179663               10.67781200               40.73309763                0.36933948                0.77407955                0.26899510               -1.11997437               -0.56673459               26.51319015               -0.25140054
               9.08673427               10.41797137               40.79123226                0.35913963                0.29103702                0.50970208               -1.35448884               -0.41697881               26.25162386                0.08352985
              10.08761737               10.15479287               40.84865101                0.37016901               -0.11573516                0.72669688               -1.62710274               -0.49393084               26.86715026                0.36286895
              11.08441957                9.88799741               40.91254688                0.40171279               -0.72082649                0.93968849               -1.89454363               -0.74712520               28.25823130                0.70349586
              12.07320084                9.61765774               40.99060420                0.53391569               -2.07958462                1.31443643               -2.05938531               -1.87698029               30.24503093                1.23551126
              13.04282788                9.33666650               41.08639829                0.64980736               -1.37724956                0.41969783               -1.37762348               -2.38814575               16.87839964                1.32574113
              14.04565585                9.10281836               40.89108117                0.71736531                0.39699086                0.42930770               -1.50144390               -0.04868488                1.49011964                0.81957765
              15.05076769                8.87141441               40.67879641                0.91430690                0.51118400                0.59596767               -1.99476291                0.08115266                0.68740223               -0.71090810
               2.68412701                1.50776276               42.59692135                1.00000000               -0.38108158               -0.42554281                1.46461477               -0.07571169               -1.12462556                1.08156522
               3.68031620                1.24016748               42.46796147                1.00000000               -0.32227729               -0.30554453                1.09266193               -0.04418680               -1.51227307                0.17733635
               4.67768147                0.97208041               42.33156239                1.00000000               -0.20333709               -0.18978873                0.69051985               -0.04708510               -1.53831956               -0.21187674
               5.67624946                0.70319587               42.20224242                0.65649980               -0.05024972               -0.08104257                0.29275600               -0.30427712               -0.96706697               -0.97596054
               6.67667647                0.42810256               42.07736490                0.70990493                0.25852917               -0.10665896               -0.24190047               -0.07308583               -0.55511980                0.24515150
               7.68142004                0.14890140               41.95735649                0.74935328                0.54904617                0.06028033               -0.61363024               -0.11468375               -0.22785490                0.08680833
               8.68765740               -0.12800073               41.83801633                0.72530447                0.67075953                0.13377674               -0.82689832               -0.05055930                0.05866232               -0.15059799
               9.69483523               -0.40112297               41.72155798                0.81626890                0.61005025                0.17017012               -0.84343204               -0.08705871               -0.04297741                0.07775171
              10.69985840               -0.67057321               41.59732651                1.00000000                0.43482414                0.24482172               -0.92126568               -0.07353476               -0.61645220                0.67637053
              11.70353171               -0.93848027               41.46794532                1.00000000                0.38053017                0.33259675               -1.13255160               -0.03893647               -0.83258582                0.05567460
              12.70746901               -1.20613082               41.33908124                1.00000000                0.39372924                0.42212080               -1.39640815               -0.03151619               -0.79822761               -0.77895756
               2.95096518                2.50350733               42.54006305                1.00000000               -0.32496715               -0.41409243                1.29395043               -0.01417901               -0.23121239                1.46323604
               3.94771550                2.23711203               42.41108141                1.00000000               -0.26343782               -0.28191937                0.92451086                0.01439746               -0.35568129                0.25584636
               4.94569642                1.97018252               42.27982951                1.00000000               -0.12599485               -0.16056645                0.53001953               -0.00905954               -0.28736296               -0.41590897
               5.94519561                1.70238545               42.15213492                0.31767950                0.36982156               -0.04361873                0.15496494               -0.38711118                1.20804849               -1.31341330
               6.95309285                1.42703597               42.05037459                0.42876937                0.65646204               -0.12576200               -0.34401388               -0.07762488                2.22660821                0.70346686
               7.95832485                1.14950421               41.94056255                0.49642479                0.45355703                0.09777976               -0.68606355               -0.11577267                1.88012188                0.31747589
               8.96216399                0.87333704               41.83027960                0.42063689                0.34630171                0.21919418               -0.87035347               -0.06753839                2.23525126               -0.41716968
               9.96525088                0.60057873               41.72643482                0.49950261                0.28188565                0.24497772               -0.84683125               -0.08806238                2.31298155                0.40848598
              10.96780170                0.33187501               41.61731249                1.00000000                0.28351351                0.25811193               -0.89732291               -0.05530154                1.15716646                0.86826319
              11.97092115                0.06484569               41.49047507                1.00000000                0.35013411                0.33271770               -1.14924699                0.00363354                0.17554581                0.21062411
              12.97480439               -0.20190961               41.36185812                1.00000000                0.38832339                0.42495578               -1.41379259                0.01267914                0.07995732               -0.90220737
               3.21663403                3.49948091               42.49125458                1.00000000               -0.27050708               -0.39494816                1.13734133               -0.00912270                0.01692087                1.84195750
               4.21392896                3.23452909               42.35592681                1.00000000               -0.22035816               -0.23572304                0.76862516                0.00952111                0.17603758                0.26952592
               5.21222686                2.96886908               42.22393539                0.75624376               -0.11375878               -0.08411972                0.38168086               -0.03762889                0.49130769               -1.07877922
               6.21165378                2.70232350               42.09479341                0.00010000                0.78891774                0.00712620               -0.02958552               -0.55893936                3.96975613               -1.82699197
               7.22800522                2.42558732               42.03203733                0.00010000                1.05748710               -0.15166320               -0.59147320               -1.26529474                5.50508052               -0.98315314
               8.23280352                2.15085700               41.92770199                0.00010000                0.36134443                0.04840567               -0.85526779               -1.17260899                3.20028166               -0.03874870
               9.23523211                1.87638316               41.81655563                0.00010000                0.08662448                0.16391328               -1.04061800               -1.03688369                4.51419767                0.63499325
              10.23453601                1.60377658               41.73763889                0.00010000               -0.03733508                0.14934552               -0.94142735               -0.67850501                5.16069807                0.94995035
              11.23448541                1.33458903               41.64108290                0.37759173                0.14264951                0.21091191               -0.89384991               -0.25539619                2.76245178                1.72088929
              12.23738900                1.06817408               41.51607175                1.00000000                0.33738942                0.32047567               -1.16543698               -0.04250177                0.87136923                0.78307351
              13.24123319                0.80236830               41.38216842                1.00000000                0.38441916                0.42982338               -1.40972919                0.00468186                0.40685398               -0.86161716
               3.48068636                4.49560837               42.44235215                1.00000000               -0.21686018               -0.37420572                0.97891221               -0.01793148                0.12621184                1.67108160
               4.47851776                4.23239757               42.29944077                1.00000000               -0.17684617               -0.18288955                0.61175947               -0.00149460                0.23611980                0.05857867
               5.47714943                3.96850013               42.15884109                0.36407007               -0.06095898               -0.00536013                0.26391712               -0.10610151                1.14029563               -1.58212808
               6.47729858                3.70252797               42.03389679                0.00010000                0.10520113                0.08440391               -0.13122049               -0.79632922                5.07442325               -2.42703155
               7.47925346                3.42400271               41.97165626                0.00010000                0.33891305                0.00379339               -0.54640560               -2.05895974                8.02005313               -2.07579722
               8.48407684                3.15047232               41.90290451                0.00010000                0.46266381               -0.03134623               -0.87609182               -2.01972034                7.53712635               -0.16677705
               9.48850673                2.87661530               41.82840173                0.00010000                0.46990342               -0.03783576               -1.09235572               -1.93887774                7.24133169                1.69559120
              10.49347491                2.60356564               41.75227462                0.00010000                0.48947738               -0.08969288               -1.20395953               -1.32540684                7.27859043                1.68534432
              11.49829628                2.33609325               41.67827603                0.09138157                0.44084716               -0.14126193               -0.92814286               -0.52981170                4.60242037                2.06071487
              12.50229185                2.07125521               41.55026095                0.51479110                0.41066529                0.14846473               -1.22900658               -0.13206795                1.07843844                1.90323461
              13.50650959                1.80668686               41.40604205                0.93945229                0.42177378                0.38003225               -1.43664308               -0.03687354                0.23731217                0.00191867
               3.74269699                5.49199680               42.39044769                1.00000000               -0.16896816               -0.33878127                0.80798230               -0.03625255                0.23478693                1.33602256
               4.74100730                5.23087130               42.24009726                0.73666599               -0.13612753               -0.10830652                0.44694620               -0.03767741                0.37469650               -0.36168391
               5.73997443                4.96876188               42.09261273                0.16559607               -0.03913453                0.09018056                0.09989278               -0.18455178                1.46583115               -1.87801642
               6.74022461                4.70401158               41.96394506                0.00010000               -0.05463792                0.15957664               -0.25584026               -1.04720566                7.17261541               -2.13163471
               7.73888168                4.42566319               41.93029994                0.00010000               -0.02140457                0.19482091               -0.57103551               -1.81504898               11.48536319               -0.49444416
               8.73979652                4.15023007               41.88523606                0.00010000                0.22397781                0.05398370               -0.92233030               -1.89533102               10.65553023                0.58451855
               9.74336123                3.87562644               41.83271519                0.00010000                0.43767050               -0.05699023               -1.22110837               -1.92151516               10.12915845                1.61889986
              10.74854993                3.60198272               41.77514695                0.00010000                0.64191851               -0.16964724               -1.45468859               -1.68580730                9.53865985                2.39582192
              11.75619960                3.33176379               41.70965509                0.07348081                0.78020501               -0.41965860               -1.81697794               -0.79069542                6.83100223                2.55453446
              12.76415403                3.07114338               41.59868682                0.39850716                0.67164085               -0.12753549               -1.23711756               -0.06821764                2.30162229                3.00989656
              13.76963242                2.80996894               41.44422489                0.85016853                0.54783878                0.25989661               -1.41086262               -0.01628265                0.12371821                1.03891842
               4.00221230                6.48883274               42.33509518                1.00000000               -0.12131703               -0.28222660                0.62704441               -0.03869089                0.10838794                1.01814456
               5.00099913                6.23023144               42.17513827                0.56467965               -0.09470867               -0.02760945                0.25377978               -0.05647272                0.41039233               -0.73017104
               6.00031812                5.97030374               42.02125585                0.08598022               -0.07729884                0.21486582               -0.08950371               -0.31591556                2.76493380               -2.35802482
               6.99945315                5.70571950               41.90827493                0.00010000               -0.17920704                0.05454946               -0.13292487               -1.36664674               10.08128902                0.48974747
               7.99673398                5.42789913               41.90021322                0.00010000               -0.16230900                0.24276635               -0.60709480               -2.01003006               14.57603915                0.50521714
               8.99620697                5.15155199               41.87402627                0.00010000                0.07948987                0.18047921               -1.00486819               -2.01934063               13.47957222                1.22000195
               9.99832378                4.87547550               41.84144173                0.00010000                0.37072191                0.04112460               -1.37331622               -2.08199641               12.96504074                2.12344173
              11.00362141                4.60017269               41.80268123                0.00010000                0.74989709               -0.14708537               -1.77399823               -1.93195659               12.25025328                3.06589292
              12.01332172                4.32770008               41.75410521                0.07746175                0.95504686               -0.43755763               -2.26123422               -0.98163755                9.28800974                4.05731360
              13.02272234                4.06870450               41.65634697                0.37337398                0.76055375               -0.18526096               -1.24169031               -0.11327011                3.39534762                3.23145570
              14.02853280                3.81188479               41.49107907                0.83945272                0.58104515                0.22342594               -1.42420966               -0.00529839                0.03575907                1.12346999
               4.25912577                7.48635226               42.27704421                1.00000000               -0.07189131               -0.20984061                0.44085779               -0.03282148                0.03607615                0.82316398
               5.25840685                7.23031911               42.10822726                0.47931634               -0.04788518                0.03272726                0.07136286               -0.04339365                0.31042440               -0.83580555
               6.25816806                6.97305919               41.94489076                0.05011211               -0.15552821                0.30328052               -0.28768739               -0.58620069                6.05590175               -2.67977522
               7.25529629                6.70510257               41.89086918                0.00010000               -0.26597378                0.05764600               -0.11444412               -1.54663547               13.68262154                1.56740310
               8.25284859                6.43051852               41.87798451                0.00010000               -0.17314750                0.29092060               -0.69454534               -1.96063248               16.03650571                1.05830361
               9.25183334                6.15383966               41.86805169                0.00010000                0.01260086                0.28091075               -1.11563370               -2.13432042               16.17029621                1.62038535
              10.25310060                5.87644893               41.85504460                0.00010000                0.29264429                0.15710621               -1.52878888               -2.25115760               15.95150277                2.54926428
              11.25768622                5.59904102               41.83817105                0.00010000                0.74672220               -0.04514041               -2.02604333               -2.28477050               15.47362708                3.82228419
              12.26803505                5.32301264               41.81340207                0.09024055                1.00088452               -0.42624206               -2.73765369               -1.22654074               11.25518831                5.61612256
              13.27770391                5.06743816               41.71085343                0.36614728                0.75654084               -0.02941316               -1.30750319               -0.10760228                3.69267295                2.76421551
              14.28316586                4.81443746               41.53468131                0.83783800                0.54619504                0.32496242               -1.53598171               -0.00281052                0.03484219                0.52015508
               4.51362217                8.48463593               42.21794897                1.00000000               -0.01978477               -0.13421014                0.25725999               -0.02975895                0.00877080                0.75636516
               5.51342432                8.23088599               42.04091214                0.45477426                0.00942423                0.07669157               -0.10767791               -0.01561552                0.13608762               -0.83400478
               6.51381065                7.97636935               41.86636998                0.03297877               -0.11816036                0.32456387               -0.47581623               -0.73554489                8.52792987               -2.73413648
               7.51106112                7.70687242               41.85700202                0.00010000               -0.25132065                0.30040283               -0.49515827               -1.55641480               17.47812329                0.20090221
               8.50878424                7.43371754               41.85832039                0.00010000               -0.17354837                0.38735026               -0.86055639               -1.83576225               18.41707882                0.99295913
               9.50759015                7.15717021               41.86412461                0.00010000               -0.03424867                0.39891430               -1.25410888               -2.08968246               18.90154428                1.67325785
              10.50809927                6.87861762               41.87167525                0.00010000                0.18860707                0.29198529               -1.66212310               -2.31737502               19.19468440                2.67945573
              11.51136229                6.59926989               41.88036796                0.00010000                0.61472492                0.08933240               -2.17315788               -2.55024143               19.33986696                4.23801468
              12.52039377                6.31917523               41.88825148                0.11244136                0.88915933               -0.24456781               -3.09276555               -1.40765068               12.66731236                6.92618423
              13.52914548                6.06811623               41.76002785                0.36594249                0.70421026                0.15747549               -1.41355693               -0.04998225                2.98383659                2.24053762
              14.53447797                5.81838404               41.57223625                0.83644664                0.53324960                0.46127547               -1.71494592                0.01072183                0.04168099               -0.12601403
               4.76603047                9.48366806               42.15867298                0.99270550                0.03306527               -0.05961585                0.07273918               -0.02785479                0.00045578                0.75979601
               5.76636112                9.23185294               41.97378200                0.48215249                0.07201288                0.11547223               -0.28318950                0.00049637               -0.03193858               -0.78958898
               6.76747073                8.97955047               41.78814357                0.02132305                0.02293390                0.30125163               -0.65443137               -0.76155937               10.39645284               -2.43905828
               7.76681980                8.71111062               41.81156920                0.00010000               -0.08175848                0.44438236               -0.78163972               -1.47189351               21.03107495               -0.43818057
               8.76583556                8.43826552               41.83433725                0.00010000               -0.08400974                0.47344989               -1.07401679               -1.59664215               21.30727147                0.59811710
               9.76513961                8.16181794               41.85864821                0.00010000               -0.05910660                0.53002393               -1.41376060               -1.81479834               21.82203734                1.36649007
              10.76465343                7.88228864               41.88714061                0.00010000                0.04920894                0.51079024               -1.78168115               -2.15702141               22.62531426                2.33109714
              11.76612378                7.60082766               41.92351163                0.00010000                0.31911296                0.26608688               -2.17080391               -2.67687640               23.88606612                3.85741714
              12.77103568                7.31812128               41.97392611                0.14899267                0.56858398                0.07035272               -2.73670720               -1.63026476               13.86683871                6.77382775
              13.77749546                7.07058767               41.80405754                0.37139518                0.59045028                0.31982559               -1.52332986               -0.02320233                1.49502633                1.78530800
              14.78284469                6.82366297               41.60415802                0.83318370                0.53492266                0.56978166               -1.90800086                0.01792709                0.04174747               -0.66733971
               5.01669531               10.48344361               42.09971440                0.97485463                0.08565302                0.01254250               -0.10933508               -0.02772064               -0.01220817                0.68272452
               6.01755184               10.23319543               41.90709005                0.52910491                0.13132394                0.15414225               -0.46097985               -0.00126392                0.01545021               -0.64216532
               7.01932179                9.98239438               41.71487197                0.00010000                0.26781767                0.28585022               -0.81969169               -0.75557446               12.14938430               -1.54596421
               8.02290819                9.71576007               41.76460857                0.00010000                0.34111454                0.31252413               -1.01169901               -1.06272384               24.14901207               -0.34708931
               9.02614408                9.44318654               41.80677827                0.00010000                0.21814376                0.46158173               -1.27733641               -1.03077357               24.06407599                0.26454456
              10.02727107                9.16777069               41.84844936                0.00010000               -0.00974795                0.62801391               -1.58915027               -1.10757532               24.62865447                0.76738954
              11.02594912                8.88883343               41.89599226                0.00010000               -0.26394764                0.77007248               -1.91089501               -1.50939411               25.85999570                1.39299517
              12.02199212                8.60459162               41.95661192                0.00079990               -0.39603248                0.81266868               -2.14381916               -2.19933101               28.25378862                2.41392154
              13.01802847                8.32058229               42.04604884                0.21063110                0.05738130                0.39435498               -1.78410220               -1.85688142               15.43134324                3.78867572
              14.02313974                8.07451275               41.84355895                0.38395982                0.53287156                0.43421840               -1.60132315               -0.06835479                0.43908136                1.21845254
              15.02868590                7.82977967               41.63088534                0.82031781                0.55461601                0.63190735               -2.08239922                0.01211262               -0.01301089               -0.86796068
               5.26597242               11.48391891               42.03891303                0.99770412                0.14126577                0.04752982               -0.28932351                0.02939854                0.36982993                0.59334298
               6.26738507               11.23493579               41.84263017                0.81221856                0.19110908                0.17403559               -0.63829079                0.05075178                0.76255724               -0.51613128
               7.26979460               10.98526748               41.65400818                0.48783411                0.86940460                0.28730942               -0.99129686               -0.83145308               13.96700070               -0.90266253
               8.28477317               10.71736111               41.72145449                0.36937034                1.17074364                0.16010337               -1.20872751               -0.70201848               26.63875992               -0.27031186
               9.29320947               10.44749716               41.77709369                0.35924622                0.62840212                0.43106200               -1.46866625               -0.44260493               26.34904185                0.07608095
              10.29734121               10.17437822               41.83159897                0.36994934                0.22175679                0.66075348               -1.77513038               -0.48333948               26.94118089                0.36786090
              11.29764461                9.89769009               41.89263250                0.40074102               -0.34764527                0.88566584               -2.08588382               -0.69531043               28.39782812                0.73505746
              12.29038830                9.61708104               41.96955494                0.52254694               -1.68338369                1.24894148               -2.22494228               -1.74446635               30.82715179                1.35278110
              13.26397693                9.32600838               42.07114539                0.63692540               -1.17286598                0.54260942               -1.74508223               -2.29560388               17.68610647                1.58967654
              14.26693098                9.07927203               41.87536057                0.70911704                0.42880782                0.47592875               -1.65704107               -0.10623891                1.74692814                0.88412262
              15.27255309                8.83630112               41.65795944                0.90820810                0.56221055                0.65214463               -2.19830912                0.08962737                0.72357211               -0.78641832
               2.80352266                1.57638207               43.61191817                1.00000000               -0.39949827               -0.44908762                1.54469649               -0.08290618               -1.15706360                1.09959252
               3.79952767                1.29969415               43.47903349                1.00000000               -0.33703288               -0.31414153                1.12638106               -0.04745170               -1.56561944                0.18386154
               4.79678200                1.02248215               43.33840326                1.00000000               -0.21328822               -0.18506090                0.67881460               -0.05171228               -1.61179917               -0.21208977
               5.79526191                0.74419164               43.20488300                0.66418887               -0.08888225               -0.05286005                0.23249735               -0.37887075               -1.11907294               -0.97707150
               6.79500435                0.45795657               43.07438249                0.71754178                0.24486416               -0.07295773               -0.35263519               -0.09542262               -0.72915206                0.22948575
               7.80015919                0.16675305               42.95044552                0.75077148                0.62422481                0.10114447               -0.77075360               -0.13189427               -0.25889088                0.05615882
               8.80748885               -0.12180775               42.82891947                0.71724662                0.80291291                0.17394835               -1.00515373               -0.04354454                0.22065469               -0.20530131
               9.81621745               -0.40535732               42.71258957                0.80018640                0.72814738                0.18835451               -0.96290114               -0.08862238                0.22794563                0.03923883
              10.82205180               -0.68381689               42.58790865                1.00000000                0.48301802                0.24691506               -0.95954016               -0.07705994               -0.43260058                0.69831878
              11.82587781               -0.96031130               42.45648340                1.00000000                0.39246454                0.33392055               -1.15964330               -0.03744424               -0.75778775                0.06590071
              12.82990109               -1.23637924               42.32500307                1.00000000                0.40232771                0.42241205               -1.42192986               -0.03798790               -0.75150490               -0.73406557
               3.07938151                2.57189119               43.55330681                1.00000000               -0.33783959               -0.43666227                1.36351388               -0.01369996               -0.24900267                1.48239558
               4.07600312                2.29655274               43.42042397                1.00000000               -0.26826892               -0.28969417                0.94754316                0.01741060               -0.38925463                0.26670153
               5.07401613                2.02063154               43.28503510                1.00000000               -0.11335616               -0.15519337                0.50876419               -0.00850556               -0.32443740               -0.41017630
               6.07373599                1.74366304               43.15340215                0.33425005                0.43766444               -0.01492833                0.08894553               -0.47766573                1.11354189               -1.33210758
               7.08276942                1.45722699               43.04632712                0.44188066                0.74932078               -0.11448779               -0.47506643               -0.13264216                2.11958430                0.62733164
               8.08872241                1.16776449               42.93288958                0.50243390                0.51695830                0.14569034               -0.86595489               -0.16184868                1.92628271                0.24558335
               9.09310859                0.87993174               42.82074472                0.41924561                0.38066949                0.28340342               -1.06478638               -0.08142291                2.48825262               -0.53064248
              10.09633580                0.59652623               42.71754265                0.48471548                0.28248017                0.28864658               -0.95165822               -0.10592873                2.64196679                0.32205726
              11.09875819                0.31865226               42.60839131                1.00000000                0.27243733                0.25462946               -0.88019575               -0.07097856                1.31108932                0.87763186
              12.10178455                0.04302790               42.47906972                1.00000000                0.34154774                0.32747046               -1.12793822                0.00384802                0.19382324                0.22003733
              13.10558915               -0.23215512               42.34782888                1.00000000                0.38046015                0.41776929               -1.39088685                0.00588791                0.08883543               -0.84506436
               3.35392557                3.56764883               43.50288040                1.00000000               -0.27900330               -0.41472590                1.19452299               -0.00987058                0.00893846                1.86173639
               4.35113554                3.29390027               43.36366069                1.00000000               -0.22119911               -0.24012953                0.77997208                0.00870263                0.15664665                0.28424801
               5.34950159                3.01937829               43.22758796                0.77227846               -0.10111959               -0.07345115                0.34657177               -0.04406898                0.45282902               -1.05067453
               6.34911315                2.74389307               43.09414664                0.00010000                0.93742334                0.03933626               -0.10542279               -0.69897766                3.83819113               -1.82438219
               7.36825005                2.45566682               43.02537216                0.00010000                1.25521651               -0.11922008               -0.75622338               -1.51163543                5.40761273               -0.96365709
               8.37421748                2.16966686               42.91814294                0.00010000                0.44243021                0.14490243               -1.08630340               -1.38589756                3.30754502               -0.04810810
               9.37709866                1.88386032               42.80504243                0.00010000                0.05804382                0.30528097               -1.30842799               -1.22585966                4.84725264                0.57195222
              10.37537835                1.60041561               42.72764894                0.00010000               -0.14840528                0.27818699               -1.10605474               -0.80960207                5.61683867                0.78105175
              11.37413055                1.32127570               42.63245547                0.36082437                0.06919012                0.18344310               -0.82052472               -0.32918627                2.93825697                1.69287975
              12.37676215                1.04623810               42.50472134                1.00000000                0.31271688                0.30281307               -1.09767028               -0.04404092                0.85091892                0.76499011
              13.38038489                0.77197614               42.36840772                1.00000000                0.36227366                0.40680909               -1.33773169               -0.00159147                0.39760244               -0.80956439
               3.62668121                4.56359668               43.45234049                1.00000000               -0.22335018               -0.38994530                1.02365421               -0.01958267                0.12492585                1.67993073
               4.62444771                4.29175015               43.30555848                1.00000000               -0.17696294               -0.18194405                0.61228884               -0.00360708                0.24224070                0.06853598
               5.62314195                4.01916252               43.16126903                0.35983976               -0.04898995                0.01194061                0.21694476               -0.11306598                1.13266697               -1.55629151
               6.62346791                3.74444976               43.03215770                0.00010000                0.18104887                0.12166565               -0.22546675               -0.92386303                5.03743165               -2.38384005
               7.62676293                3.45484259               42.96555986                0.00010000                0.46715201                0.08107773               -0.68610570               -2.35356084                8.01382713               -1.89825768
               8.63281095                3.17066254               42.89337897                0.00010000                0.55398542                0.08422605               -1.04818973               -2.30261588                7.62421680               -0.04466581
               9.63784264                2.88603736               42.81676747                0.00010000                0.49587145                0.11123723               -1.25864549               -2.21254932                7.43044782                1.75297903
              10.64272838                2.60208997               42.73986955                0.00010000                0.42546691                0.04809399               -1.29453875               -1.60372703                7.70843433                1.53753346
              11.64635198                2.32232112               42.66947749                0.07788047                0.37374516               -0.07868358               -0.82426727               -0.65927480                4.83349314                1.55378424
              12.65020328                2.04908416               42.53847143                0.48160139                0.38646311                0.10228311               -1.11997360               -0.11885961                1.02250590                1.87995589
              13.65408124                1.77598106               42.39222552                0.91412738                0.38779557                0.30338913               -1.31792270               -0.02120397                0.22346103                0.05769956
               3.89722697                5.55984992               43.39867694                1.00000000               -0.17294229               -0.35099891                0.84141792               -0.03875347                0.24149900                1.33202407
               4.89549755                5.29026139               43.24452475                0.72372790               -0.13431609               -0.10105565                0.43793485               -0.04161726                0.38703067               -0.36841127
               5.89454065                5.01961710               43.09337378                0.15762322               -0.02708689                0.11396244                0.04789409               -0.19210052                1.48186769               -1.88201931
               6.89495581                4.74632639               42.96095227                0.00010000                0.02127029                0.17567852               -0.35464656               -1.15624864                7.21373391               -1.95041403
               7.89496606                4.45728837               42.92406071                0.00010000                0.10072897                0.26072631               -0.68741584               -2.00879203               11.53986051               -0.33835705
               8.89697039                4.17135138               42.87540948                0.00010000                0.32270948                0.13184836               -1.05382965               -2.08469852               10.71351022                0.71290210
               9.90142025                3.88608507               42.81998123                0.00010000                0.50248257                0.02154895               -1.33419330               -2.11447046               10.24228424                1.66054750
              10.90702004                3.60137749               42.76040763                0.00010000                0.62653071               -0.09741802               -1.49249873               -1.88014732                9.60336584                2.24947911
              11.91395086                3.31970203               42.69176251                0.06215892                0.68524902               -0.26687659               -1.73534590               -0.93844368                7.23269889                1.93451636
              12.92072502                3.04828377               42.58693886                0.37191577                0.61080763               -0.19931790               -1.10476027               -0.14062067                2.68653697                2.99802214
              13.92616701                2.77804393               42.43078746                0.83111089                0.54419900                0.09805398               -1.27135526                0.02271124                0.11677175                1.05617807
               4.16508320                6.55657670               43.34147030                1.00000000               -0.12350157               -0.29163930                0.65072789               -0.03983641                0.10275397                1.00645308
               5.16384819                6.28972903               43.17760224                0.55040425               -0.09241280               -0.01578019                0.23755930               -0.06126961                0.41910749               -0.74333506
               6.16323495                6.02144177               43.02011532                0.07944170               -0.05882605                0.24827482               -0.14461552               -0.35358599                2.95230277               -2.37506760
               7.16267167                5.74796333               42.90675964                0.00010000               -0.08364246                0.05004760               -0.18923277               -1.44837291               10.22796095                0.71977148
               8.16156210                5.46005712               42.89364432                0.00010000               -0.01756911                0.28694454               -0.71058072               -2.15198734               14.53389875                0.64939374
               9.16232028                5.17329951               42.86345331                0.00010000                0.19825078                0.23236202               -1.11516217               -2.17644778               13.50456630                1.33362301
              10.16552711                4.88646834               42.82723577                0.00010000                0.45940941                0.08551118               -1.46644561               -2.25006436               12.99058206                2.16780222
              11.17150847                4.60014161               42.78470784                0.00010000                0.75748587               -0.10203140               -1.80534122               -2.06621348               12.21188298                2.93673379
              12.18067683                4.31698359               42.73195544                0.06635909                0.87702497               -0.33763078               -2.13490769               -1.16122233                9.86413752                3.68776035
              13.18904897                4.04509780               42.64438402                0.35113723                0.71691568               -0.23776250               -1.14924557               -0.23410397                3.99068815                3.19270894
              14.19501514                3.77794214               42.47726430                0.82403003                0.59661724                0.04997142               -1.34600096                0.01529363                0.02813473                1.01303093
               4.43012557                7.55401713               43.28151945                1.00000000               -0.07184855               -0.21662708                0.45641534               -0.03365297                0.03265415                0.81069687
               5.42940709                7.28994579               43.10883713                0.46657489               -0.04454702                0.04586470                0.04913322               -0.04516090                0.31186673               -0.84045218
               6.42923463                7.02458259               42.94174428                0.04367484               -0.10170407                0.34292976               -0.34730415               -0.64962398                6.32540927               -2.69311315
               7.42737301                6.74732734               42.88917833                0.00010000               -0.13222492                0.07619609               -0.22226254               -1.61939139               13.86688129                1.56377667
               8.42659014                6.46302726               42.87058801                0.00010000               -0.01713936                0.32034455               -0.79400011               -2.07393521               15.95575814                1.14158934
               9.42703022                6.17599862               42.85637170                0.00010000                0.14933644                0.31531057               -1.22088604               -2.27810525               16.17975589                1.71066960
              10.42957686                5.88779529               42.83921157                0.00010000                0.40751496                0.19242345               -1.63043993               -2.40933981               15.93078118                2.60550241
              11.43518052                5.59933687               42.81741409                0.00010000                0.80966771               -0.01369166               -2.09761702               -2.39166948               15.30861193                3.78297671
              12.44577022                5.31294941               42.78598630                0.07795596                0.99519388               -0.38848869               -2.67520380               -1.37670545               11.97610550                5.25649878
              13.45508440                5.04352852               42.69787348                0.34725486                0.75069986               -0.03865579               -1.29282641               -0.22493941                4.53380685                2.69838393
              14.46078422                4.77904336               42.51928853                0.82503880                0.56998189                0.22173085               -1.56223630                0.00941471                0.03510655                0.31100408
               4.69255284                8.55224416               43.22055352                1.00000000               -0.01733305               -0.13875402                0.26545896               -0.03068477                0.00694392                0.74466243
               5.69237951                8.29064633               43.03970124                0.44406988                0.01540381                0.09025698               -0.13614073               -0.01311340                0.13274456               -0.83424983
               6.69286091                8.02830036               42.86131880                0.02688410               -0.02701686                0.36240505               -0.53974269               -0.80281909                8.69892761               -2.73425460
               7.69183917                7.74948726               42.85157933                0.00010000               -0.07244014                0.32842244               -0.60028339               -1.66286553               17.68890924                0.07276988
               8.69141211                7.46646401               42.84921185                0.00010000                0.00754887                0.39899838               -0.96268872               -1.95480510               18.46377950                1.01241775
               9.69199015                7.17960572               42.85102281                0.00010000                0.12949780                0.41486788               -1.36375441               -2.20883912               18.93773472                1.73456872
              10.69400207                6.89031680               42.85436596                0.00010000                0.32654055                0.32883883               -1.78920371               -2.44078809               19.17108128                2.74561071
              11.69852096                6.59986777               42.85764684                0.00010000                0.74745010                0.14115192               -2.34311596               -2.63959167               19.03352094                4.31461836
              12.70895107                6.30921382               42.85560372                0.09754757                0.99676405               -0.24336565               -3.31543633               -1.50633565               13.47572215                6.95972991
              13.71845624                6.04432469               42.74560974                0.34903310                0.76113455                0.18178340               -1.47679798               -0.13472489                4.05905479                2.18273154
              14.72417376                5.78237676               42.55458966                0.82520590                0.57175206                0.43275178               -1.83960033                0.02116471                0.04948948               -0.35979947
               4.95270753                9.55124205               43.15939388                0.98758363                0.03810778               -0.06187378                0.07327040               -0.02942659                0.00303845                0.74864545
               5.95308861                9.29175093               42.97078406                0.47355563                0.08148950                0.12975201               -0.31850645                0.00439136               -0.03642773               -0.78873220
               6.95433733                9.03183069               42.78128565                0.01573709                0.14317198                0.33208955               -0.72258375               -0.84485324               10.50956154               -2.42463276
               7.95595205                8.75389579               42.80329054                0.00010000                0.15191210                0.44038544               -0.87767098               -1.61662422               21.21820596               -0.49254529
               8.95737557                8.47100723               42.82308972                0.00010000                0.15242946                0.44723989               -1.17485864               -1.70883479               21.41465196                0.59670652
               9.95900064                8.18429598               42.84389486                0.00010000                0.15617416                0.51586052               -1.53133465               -1.88482540               21.89978912                1.39997034
              10.96049905                7.89437207               42.86849002                0.00010000                0.22455154                0.53258660               -1.93923908               -2.18887650               22.66290318                2.39270857
              11.96349167                7.60215990               42.90039378                0.00010000                0.53437702                0.34403634               -2.43619117               -2.67432740               23.71680109                4.03334280
              12.97118659                7.30808210               42.94297047                0.12994586                0.78676434                0.09049699               -3.43901414               -1.64886566               14.64096872                7.60895708
              13.97922696                7.04716419               42.78823945                0.35525131                0.69583906                0.36333051               -1.64864880               -0.06890812                2.46363496                1.76782892
              14.98510337                6.78769839               42.58422788                0.82244795                0.58764127                0.59586712               -2.10592683                0.02669425                0.05721843               -0.87232360
               5.21094656               10.55100668               43.09858000                0.96988319                0.09321311                0.01315155               -0.11659004               -0.02907001               -0.01287628                0.67301687
               6.21187869               10.29324137               42.90227293                0.52220666                0.14362134                0.16930577               -0.50447187                0.00079815                0.01322932               -0.64058046
               7.21381899               10.03494216               42.70633458                0.00010000                0.42257298                0.31152826               -0.89415073               -0.87576785               12.23286168               -1.52589097
               8.22033015                9.75829496               42.75405333                0.00010000                0.65081188                0.24090651               -1.10059823               -1.19995394               24.31172050               -0.36407138
               9.22683523                9.47540881               42.79348150                0.00010000                0.52993240                0.39274565               -1.37879164               -1.10884829               24.19030105                0.26315541
              10.23092880                9.18992293               42.83189051                0.00010000                0.27626911                0.57774452               -1.71484231               -1.12693659               24.73042793                0.77963749
              11.23236061                8.90096854               42.87596806                0.00010000                0.01977886                0.75230011               -2.08953546               -1.46266601               25.97745353                1.42941579
              12.23132438                8.60674850               42.93374056                0.00010000               -0.06955663                0.83337171               -2.46096912               -2.11027289               28.64874976                2.60602362
              13.23096948                8.31102376               43.02552346                0.18622738                0.30687043                0.50924198               -2.44809165               -1.77997075               16.18773618                4.58980131
              14.23746179                8.05159130               42.82675240                0.36843829                0.63348789                0.48666982               -1.77000366               -0.10881267                0.88012595                1.25102382
              15.24363923                7.79429410               42.60899761                0.80937277                0.61774471                0.69197209               -2.32525906                0.01718078                0.00012814               -1.00629545
               5.46765676               11.55150508               43.03593839                0.99546415                0.15123418                0.04984027               -0.30489706                0.03421540                0.36330995                0.58368158
               6.46916910               11.29513704               42.83600800                0.80971917                0.20558064                0.18956717               -0.68943964                0.05684960                0.75540608               -0.51194068
               7.47176837               11.03806126               42.64371339                0.48533829                1.11586106                0.31191042               -1.07404546               -1.02621788               14.03276808               -0.88291957
               8.49148632               10.75871392               42.70892308                0.36941494                1.59011305                0.04189516               -1.29904698               -0.84433898               26.78982803               -0.28425028
               9.50357063               10.47886214               42.76185893                0.35935616                0.97079287                0.34533343               -1.57500617               -0.46961182               26.47531212                0.06993671
              10.51090218               10.19585087               42.81314840                0.36971114                0.54247641                0.59279336               -1.90668269               -0.47486570               27.04126925                0.36931252
              11.51442016                9.90941807               42.87082920                0.39978791                0.01644068                0.84495326               -2.27163329               -0.64522106               28.55846720                0.75777063
              12.51123099                9.61882734               42.94610535                0.50967282               -1.18378921                1.20788381               -2.53040363               -1.56689495               31.35626784                1.52510490
              13.49074438                9.31826694               43.05149665                0.62294122               -0.87253150                0.72431819               -2.28914184               -2.11899772               18.57934657                1.97613707
              14.49378036                9.05689758               42.85794035                0.70156960                0.46485037                0.53062826               -1.83949335               -0.20459768                2.16826509                0.94225129
              15.50004138                8.80153783               42.63483023                0.90245509                0.62610214                0.72437327               -2.45806298                0.10424023                0.76162949               -0.87214537
               2.92675511                1.64697734               44.62781528                1.00000000               -0.42363859               -0.47843221                1.64488059               -0.09178795               -1.18632998                1.11422854
               3.92251873                1.36106376               44.49048910                1.00000000               -0.35795700               -0.32448936                1.16925940               -0.05178182               -1.61436470                0.18936713
               4.91959597                1.07457492               44.34513868                1.00000000               -0.23149831               -0.17806290                0.66874094               -0.05902865               -1.68107310               -0.21126529
               5.91788876                0.78661615               44.20689237                0.67211224               -0.15325311               -0.01364923                0.16608887               -0.46002744               -1.26611518               -0.97247043
               6.91653091                0.48880303               44.07031220                0.72669116                0.19082416               -0.02100882               -0.45262288               -0.12736646               -0.90563179                0.21282287
               7.92170525                0.18513645               43.94194142                0.75379395                0.66977639                0.15820010               -0.92298623               -0.15524986               -0.30768899                0.02358949
               8.92992644               -0.11575727               43.81791325                0.70797703                0.93498550                0.23584905               -1.20534079               -0.03408582                0.39195464               -0.27902321
               9.94040496               -0.41024435               43.70229996                0.77710311                0.86930607                0.22048498               -1.11587525               -0.08687626                0.56047653               -0.02532046
              10.94731256               -0.69757215               43.57813571                1.00000000                0.54382917                0.24529788               -0.98815702               -0.08614148               -0.19734117                0.72999429
              11.95128154               -0.98233490               43.44475246                1.00000000                0.40434985                0.33433974               -1.18566542               -0.03672903               -0.68063649                0.07627632
              12.95539956               -1.26646374               43.31064264                1.00000000                0.41180194                0.42482021               -1.45583772               -0.04656338               -0.70637287               -0.68880484
               3.21175081                2.64219301               44.56733333                1.00000000               -0.35486948               -0.46476866                1.45091659               -0.01255976               -0.26620184                1.49672377
               4.20820212                2.35781886               44.43003227                1.00000000               -0.27606615               -0.29921110                0.97747503                0.02184375               -0.42157863                0.27576085
               5.20622949                2.07279429               44.29000479                1.00000000               -0.10138434               -0.14766263                0.48358740               -0.00688419               -0.36062305               -0.40342045
               6.20617443                1.78647966               44.15391383                0.35388651                0.48838034                0.02320745                0.00619266               -0.57283520                1.01064568               -1.34090561
               7.21599710                1.48859294               44.04087326                0.45953423                0.81292312               -0.08607972               -0.62083759               -0.20654764                1.98912051                0.54813783
               8.22243290                1.18671845               43.92324345                0.51209972                0.56394415                0.21344986               -1.07682775               -0.22064082                1.96165170                0.16049370
               9.22727598                0.88660122               43.80898387                0.41703433                0.40053681                0.37783582               -1.32180509               -0.10066162                2.80363521               -0.68532962
              10.23044363                0.59196050               43.70740165                0.46130159                0.26102193                0.36575331               -1.11400414               -0.13327961                3.11249643                0.17222664
              11.23249642                0.30488083               43.59970858                1.00000000                0.24582082                0.24662945               -0.84472958               -0.10432057                1.54112210                0.89389853
              12.23536005                0.02100850               43.46791631                1.00000000                0.32831749                0.32035345               -1.09799485                0.00386076                0.21058749                0.22792539
              13.23906277               -0.26221554               43.33404039                1.00000000                0.37027221                0.41220572               -1.36847670               -0.00175773                0.09526891               -0.78535493
               3.49525222                3.63768196               44.51514504                1.00000000               -0.28978924               -0.43912838                1.26555892               -0.01033950                0.00003153                1.87544255
               4.49235433                3.35507953               44.37152625                1.00000000               -0.22273625               -0.24573166                0.79507298                0.00858055                0.13594768                0.29707148
               5.49079750                3.07162166               44.23086682                0.78568290               -0.08604608               -0.06029038                0.30633035               -0.05125861                0.41597797               -1.02217113
               6.49063341                2.78708030               44.09268495                0.00010000                1.06818358                0.07829401               -0.19421504               -0.84791457                3.68532540               -1.81698254
               7.51216117                2.48708143               44.01691286                0.00010000                1.43253697               -0.06219676               -0.94537912               -1.76816118                5.26710155               -0.91484487
               8.51928415                2.18940544               43.90597593                0.00010000                0.52549950                0.27970082               -1.37033950               -1.61806585                3.39077032               -0.01913822
               9.52267116                1.89179945               43.79038707                0.00010000                0.00878025                0.50674327               -1.67383378               -1.44927976                5.24950271                0.54946808
              10.51945975                1.59707071               43.71551779                0.00010000               -0.32465044                0.47985636               -1.41822347               -0.99745302                6.32097197                0.63030837
              11.51617815                1.30736044               43.62467241                0.34056745               -0.05023113                0.14905259               -0.72008279               -0.45653507                3.25418174                1.65181922
              12.51845513                1.02407217               43.49411834                1.00000000                0.28171679                0.28141538               -1.01518207               -0.04730902                0.82080661                0.74051021
              13.52181249                0.74178037               43.35541379                1.00000000                0.33573558                0.38383242               -1.25914060               -0.00878712                0.38469458               -0.75300271
               3.77674888                4.63341045               44.46282524                1.00000000               -0.23148529               -0.40872498                1.07851519               -0.02166595                0.12245766                1.68359417
               4.77443403                4.35290423               44.31168654                1.00000000               -0.17726631               -0.18101094                0.61378029               -0.00626089                0.24503567                0.07795604
               5.77320356                4.07158848               44.16317998                0.35397587               -0.03388277                0.03267669                0.16047879               -0.12359590                1.12068945               -1.52638049
               6.77375637                3.78804554               44.02938745                0.00010000                0.25525864                0.16605297               -0.33749864               -1.05302622                4.99860216               -2.33844281
               7.77830873                3.48734900               43.95793415                0.00010000                0.57985953                0.18650805               -0.85140856               -2.63362813                8.00993570               -1.66654664
               8.78535356                3.19231246               43.88194072                0.00010000                0.61581941                0.25041653               -1.25736818               -2.58754294                7.73282436                0.16617084
               9.79062512                2.89673609               43.80322882                0.00010000                0.47900057                0.32848228               -1.47649037               -2.51086133                7.69186996                1.93356114
              10.79493358                2.60155763               43.72638384                0.00010000                0.28695732                0.25316472               -1.42638761               -1.97489943                8.30924696                1.50230425
              11.79636426                2.30786189               43.66179068                0.06410725                0.25301825                0.03078638               -0.70535206               -0.83883094                5.17221713                1.00621822
              12.79999394                2.02663681               43.52786148                0.44463468                0.35531820                0.05595257               -0.99231290               -0.09980415                0.96086443                1.83570640
              13.80347063                1.74546111               43.37968360                0.88573092                0.34766867                0.21366780               -1.18362300                0.00533816                0.20554832                0.10273442
               4.05583134                5.62950746               44.40727605                1.00000000               -0.17802592               -0.36455769                0.88209278               -0.04208432                0.24673520                1.32470024
               5.05405108                5.35145932               44.24885596                0.70933519               -0.13235325               -0.09259300                0.42763206               -0.04650189                0.39782417               -0.37378158
               6.05318427                5.07227520               44.09357061                0.15139659               -0.01193585                0.14217029               -0.01302897               -0.20273664                1.49282982               -1.87763033
               7.05381236                4.79040136               43.95685213                0.00010000                0.10187033                0.19216694               -0.47667753               -1.23683047                7.26935171               -1.74367402
               8.05522168                4.49081159               43.91655162                0.00010000                0.21669228                0.35053515               -0.82521454               -2.17890125               11.61987160               -0.12938423
               9.05814621                4.19441378               43.86415946                0.00010000                0.39935468                0.24748846               -1.20877970               -2.25446094               10.81307508                0.91028550
              10.06320877                3.89836909               43.80603133                0.00010000                0.53448801                0.14325606               -1.46603397               -2.30119966               10.44174920                1.78160802
              11.06883597                3.60213401               43.74529698                0.00010000                0.55567891                0.01716378               -1.53227177               -2.10935497                9.81318380                2.16311412
              12.07432235                3.30797617               43.67494818                0.05111538                0.50119295               -0.03151938               -1.60938687               -1.11893792                7.74817052                1.31289270
              13.07885982                3.02519122               43.57659162                0.34391267                0.49741493               -0.25063754               -0.95932723               -0.23445670                3.08246992                2.93479638
              14.08427065                2.74605373               43.41879779                0.81055145                0.54108233               -0.09083842               -1.12882381                0.07946640                0.10791567                0.99366927
               4.33200349                6.62611929               44.34810973                1.00000000               -0.12672349               -0.30122416                0.68002751               -0.04108422                0.09584513                0.99363548
               5.33073626                6.35105237               44.17988946                0.53515117               -0.08983547               -0.00241200                0.21829500               -0.06595623                0.42678511               -0.75297332
               6.33020678                6.07443189               44.01836354                0.07208576               -0.01264435                0.28591277               -0.21251913               -0.40063604                3.15306675               -2.38196712
               7.33048337                5.79188888               43.90449027                0.00010000                0.02557523                0.05785277               -0.26850536               -1.50471762               10.37435016                0.98101198
               8.33071829                5.49435971               43.88600161                0.00010000                0.11117388                0.34855939               -0.82819684               -2.25389698               14.51069509                0.82943125
               9.33270685                5.19726223               43.85172303                0.00010000                0.30813023                0.30348903               -1.23837707               -2.30499044               13.58220945                1.50002205
              10.33688089                4.89960121               43.81211281                0.00010000                0.52162760                0.15298483               -1.55974482               -2.39481363               13.10919611                2.25841398
              11.34313940                4.60190090               43.76657441                0.00010000                0.70237009               -0.01862265               -1.81275046               -2.20609731               12.33721113                2.82074931
              12.35092829                4.30723150               43.71140706                0.05599149                0.70439263               -0.17409203               -1.96374941               -1.37507098               10.53282785                3.31627833
              13.35722725                4.02162406               43.63336206                0.32893460                0.62033268               -0.25055535               -1.05944890               -0.36845826                4.56820385                3.07697749
              14.36333495                3.74364434               43.46415905                0.80807009                0.61076947               -0.13607749               -1.29629595                0.04039020                0.02309586                0.75987127
               4.60514350                7.62348298               44.28617252                1.00000000               -0.07241394               -0.22322712                0.47686448               -0.03408394                0.02903905                0.79884406
               5.60441936                7.35141108               44.10920992                0.45289459               -0.04042267                0.06008433                0.02355029               -0.04559220                0.31305191               -0.84123958
               6.60433504                7.07799345               43.93794468                0.03644886               -0.03145856                0.38555002               -0.41921747               -0.70741641                6.59539024               -2.69714063
               7.60379019                6.79155841               43.88642393                0.00010000                0.02176679                0.11633662               -0.34445229               -1.68738931               14.09621547                1.56426422
               8.60477038                6.49778278               43.86210451                0.00010000                0.15073545                0.35522396               -0.90786525               -2.15883941               15.92922446                1.25581670
               9.60680490                6.20048356               43.84363397                0.00010000                0.29517261                0.35380924               -1.33059729               -2.39350557               16.25261523                1.84106073
              10.61067383                5.90142879               43.82243580                0.00010000                0.51394173                0.23250899               -1.71980710               -2.53530142               16.00134490                2.68775858
              11.61708373                5.60176156               43.79621871                0.00010000                0.82119715                0.03408352               -2.11952323               -2.46394565               15.31232538                3.71166476
              12.62709777                5.30449433               43.75989799                0.06679060                0.89970441               -0.29229155               -2.50652167               -1.52822140               12.78457649                4.75969180
              13.63507782                5.02018012               43.68499690                0.32905103                0.69700561               -0.01095817               -1.29317352               -0.35243861                5.34823028                2.55537159
              14.64103789                4.74333218               43.50343659                0.81221802                0.59600686                0.13021821               -1.64066371                0.02385495                0.04249951               -0.03412645
               4.87546562                8.62165475               44.22325815                0.99975542               -0.01516827               -0.14342440                0.27675564               -0.03170053                0.00560239                0.73379861
               5.87531394                8.35225406               44.03818933                0.43233321                0.02227476                0.10477659               -0.16723836               -0.00952118                0.13036237               -0.83121902
               6.87591112                8.08214289               43.85557513                0.02005812                0.08161584                0.40242918               -0.61496070               -0.86090078                8.86798324               -2.72765622
               7.87694625                7.79421561               43.84499635                0.00010000                0.13526194                0.36136500               -0.72363491               -1.75445168               17.92691612               -0.02816300
               8.87861635                7.50146419               43.83906662                0.00010000                0.21222365                0.40736094               -1.07154632               -2.05616452               18.57371710                1.06602772
               9.88119073                7.20433842               43.83684952                0.00010000                0.31402540                0.42330471               -1.47094836               -2.31413035               19.03996302                1.82728598
              10.88489686                6.90425139               43.83589118                0.00010000                0.48021087                0.35559617               -1.89699608               -2.55085518               19.21783392                2.82452160
              11.89079494                6.60258257               43.83350565                0.00010000                0.85242214                0.18196241               -2.45128759               -2.69850470               18.83345651                4.33057452
              12.90194530                6.30138567               43.82194276                0.08397604                1.02728439               -0.20568204               -3.29760434               -1.61330341               14.42066866                6.58848005
              13.91134063                6.02140489               43.73049189                0.33326797                0.77813078                0.23107357               -1.55795925               -0.23520165                5.19586042                2.06312015
              14.91750792                5.74624870               43.53544424                0.81424184                0.61672883                0.42381880               -2.02196345                0.03309668                0.06418736               -0.68995633
               5.14331087                9.62061449               44.16013839                0.98261148                0.04299231               -0.06476559                0.07776309               -0.03147312                0.00558750                0.73743110
               6.14374080                9.35350661               43.96741187                0.46366458                0.09223011                0.14529167               -0.35806255                0.00877284               -0.03911449               -0.78521605
               7.14515548                9.08604204               43.77369190                0.00952864                0.28195283                0.36529680               -0.80228629               -0.92166959               10.63188345               -2.40671034
               8.14937985                8.79878571               43.79401578                0.00010000                0.41844011                0.43152484               -0.98133709               -1.75313044               21.44203636               -0.51556788
               9.15352428                8.50593000               43.81084008                0.00010000                0.41776168                0.41081224               -1.27721506               -1.81697449               21.58177809                0.62227220
              10.15773509                8.20894965               43.82802152                0.00010000                0.39441489                0.48857410               -1.64049226               -1.95934728               22.04119050                1.45635152
              11.16141258                7.90854071               43.84835583                0.00010000                0.41221353                0.54155853               -2.07626969               -2.23987836               22.74582950                2.45558016
              12.16597936                7.60540080               43.87478781                0.00010000                0.72984047                0.42089742               -2.65971271               -2.67716306               23.42965530                4.13346470
              13.17600939                7.30038069               43.90514582                0.11205431                0.97656958                0.12332335               -3.97886202               -1.68865877               15.61714481                8.10869446
              14.18551075                7.02480159               43.77108456                0.34055850                0.80014077                0.42137170               -1.79189691               -0.13223301                3.75966074                1.70592504
              15.19201220                6.75180855               43.56203949                0.81223603                0.65014514                0.64013554               -2.36002817                0.03520281                0.07689729               -1.13529440
               5.40905193               10.62035944               44.09738260                0.96474151                0.10099219                0.01306341               -0.12148067               -0.03052820               -0.01347594                0.66327441
               6.41006185               10.35515989               43.89700061                0.51382474                0.15733457                0.18601168               -0.55234719                0.00333933                0.01297418               -0.63791848
               7.41219862               10.08944882               43.69698896                0.00010000                0.59669168                0.34047119               -0.98090612               -0.99671935               12.33364457               -1.50437848
               8.42199568                9.80284611               43.74259661                0.00010000                0.99571544                0.15754433               -1.19422041               -1.33620299               24.51863364               -0.36354068
               9.43211293                9.50968043               43.77920243                0.00010000                0.86986935                0.31055133               -1.47743929               -1.18850414               24.37609383                0.27774372
              10.43939307                9.21410990               43.81415251                0.00010000                0.57676073                0.51495188               -1.82749068               -1.15683186               24.89372145                0.80429955
              11.44364814                8.91508256               43.85420155                0.00010000                0.30093188                0.72912471               -2.25350586               -1.43324799               26.10986824                1.46106454
              12.44541171                8.61100052               43.90739254                0.00010000                0.25616029                0.87263695               -2.79388239               -2.01817832               28.87643205                2.73656600
              13.44877135                8.30385213               43.99708701                0.16206262                0.59282011                0.66020310               -3.34600656               -1.67243541               17.13468148                5.41381183
              14.45726811                8.02983233               43.80815888                0.35464986                0.77133483                0.54697924               -1.95647967               -0.16743831                1.67990970                1.26065843
              15.46419804                7.75905141               43.58438016                0.79917606                0.69299349                0.76922119               -2.62542011                0.02159424                0.01674255               -1.17058487
               5.67309941               11.62087576               44.03281509                0.99281958                0.16187913                0.05163219               -0.31881308                0.03985616                0.35604605                0.57410653
               6.67471820               11.35722684               43.82884138                0.80616420                0.22177331                0.20669514               -0.74669282                0.06442008                0.75000436               -0.50739943
               7.67753487               11.09285146               43.63252727                0.48260933                1.38529934                0.34026384               -1.16960843               -1.23088652               14.11924525               -0.86221467
               8.70242419               10.80193660               43.69547356                0.36938347                2.04777629               -0.09095056               -1.39566814               -0.99267137               26.98830195               -0.29200716
               9.71849040               10.51214103               43.74559357                0.35948084                1.33860688                0.24605960               -1.67919214               -0.49664831               26.66295909                0.06883469
              10.72919632               10.21924869               43.79346532                0.36947244                0.86832993                0.51387869               -2.02508460               -0.47056561               27.20936132                0.37205596
              11.73585700                9.92312321               43.84719984                0.39879138                0.38249468                0.80406487               -2.44411800               -0.59887160               28.73442523                0.76660601
              12.73684622                9.62285354               43.91894687                0.49599154               -0.60640638                1.18530232               -2.91124856               -1.33347178               31.78350131                1.65524345
              13.72372887                9.31358475               44.02536255                0.60884871               -0.49417566                0.97326183               -3.05971571               -1.85986626               19.63611977                2.49335281
              14.72696270                9.03574117               43.83857070                0.69498604                0.51385210                0.59088447               -2.04315336               -0.35012929                2.86696648                0.98920008
              15.73400591                8.76719298               43.60879818                0.89717677                0.70432089                0.81415635               -2.77501298                0.12596740                0.80160079               -0.97017595
               3.05444843                1.71963054               45.64481579                1.00000000               -0.45314448               -0.51346307                1.76466684               -0.10242277               -1.20861011                1.12297617
               4.04991698                1.42439515               45.50241868                1.00000000               -0.38455817               -0.33643430                1.22048015               -0.05698604               -1.65249536                0.19329859
               5.04675726                1.12852462               45.35177807                1.00000000               -0.25754496               -0.16896308                0.65906401               -0.06830670               -1.73704116               -0.20976621
               6.04476608                0.83069931               45.20820478                0.68011046               -0.24572998                0.03530317                0.09375610               -0.54024971               -1.38038673               -0.96153883
               7.04184266                0.52109091               45.06533003                0.73679864                0.08191371                0.04981724               -0.53066291               -0.16597216               -1.04341240                0.19583442
               8.04640436                0.20462078               44.93198579                0.75823676                0.65633717                0.23190843               -1.05091008               -0.18697087               -0.35845109               -0.00444269
               9.05496941               -0.10952944               44.80481265                0.69701254                1.04000856                0.32807697               -1.41511719               -0.02902672                0.56640281               -0.36797242
              10.06720453               -0.41606712               44.69027206                0.74366313                1.03415323                0.28200458               -1.32439223               -0.07601568                0.96713148               -0.13067255
              11.07565247               -0.71236274               44.56814551                1.00000000                0.62768097                0.23562714               -0.99693007               -0.11096691                0.12083619                0.77397699
              12.07975815               -1.00511347               44.43277009                1.00000000                0.41703963                0.33339983               -1.20913383               -0.03877103               -0.60318681                0.08525455
              13.08399327               -1.29695083               44.29588632                1.00000000                0.42351168                0.43174630               -1.50469285               -0.05842640               -0.66481496               -0.64461388
               3.34865960                2.71449591               45.58232514                1.00000000               -0.37595124               -0.49823867                1.55619443               -0.01074292               -0.28137184                1.50328695
               4.34490008                2.42103080               45.43997347                1.00000000               -0.28687402               -0.31038603                1.01380217                0.02774015               -0.45010649                0.28244236
               5.34292212                2.12683499               45.29470685                1.00000000               -0.09098216               -0.13824758                0.45524652               -0.00366413               -0.39324874               -0.39536513
               6.34308044                1.83105234               45.15352600                0.37656701                0.51500468                0.06902436               -0.09028424               -0.66191879                0.90932247               -1.33767091
               7.35322221                1.52158909               45.03391036                0.48191744                0.83821940               -0.03909444               -0.77074087               -0.28270163                1.84499082                0.47368184
               8.35984483                1.20693986               44.91135303                0.52638097                0.59004410                0.29830219               -1.30498863               -0.28417233                1.97938226                0.07640188
               9.36502309                0.89375133               44.79430862                0.41462503                0.40080968                0.50670879               -1.64722628               -0.13047494                3.18452072               -0.87064675
              10.36786102                0.58675293               44.69526256                0.42728717                0.20214449                0.50533568               -1.38343971               -0.17249357                3.80403182               -0.08878928
              11.36906598                0.28999353               44.59149672                1.00000000                0.19017311                0.22963591               -0.77943019               -0.17856191                1.90158577                0.91769363
              12.37166448               -0.00177948               44.45710982                1.00000000                0.30901897                0.31083043               -1.05778442                0.00259288                0.22372248                0.23189260
              13.37524636               -0.29263337               44.32045934                1.00000000                0.35818763                0.41118578               -1.35308212               -0.01065843                0.09759380               -0.72439567
               3.64116379                3.70966577               45.52819158                1.00000000               -0.30310775               -0.46791796                1.35094379               -0.01042650               -0.00936680                1.87966836
               4.63813271                3.41818743               45.37956215                1.00000000               -0.22506711               -0.25256238                0.81391936                0.00937465                0.11504736                0.30726400
               5.63666244                3.12575967               45.23371457                0.79617389               -0.06795479               -0.04519357                0.26039320               -0.05874544                0.38284421               -0.99282306
               6.63677361                2.83207980               45.09026234                0.00010000                1.18193341                0.12306932               -0.29725999               -0.99226482                3.51547609               -1.80132975
               7.66030111                2.52030903               45.00646458                0.00010000                1.58925300                0.01419061               -1.14952207               -2.01534050                5.08259435               -0.82052744
               8.66855867                2.21058682               44.89073615                0.00010000                0.61228684                0.44312793               -1.68505160               -1.86881788                3.43293130                0.07852730
               9.67254685                1.90060473               44.77156576                0.00010000               -0.05231085                0.76564999               -2.12374007               -1.71667025                5.67878302                0.61034615
              10.66751245                1.59403959               44.69928447                0.00010000               -0.59666057                0.78019692               -2.00281524               -1.29421609                7.41255749                0.55832154
              11.66061364                1.29222998               44.61805381                0.31747058               -0.25377745                0.10880964               -0.58247201               -0.68418807                3.82573013                1.58426049
              12.66243691                1.00110313               44.48441770                1.00000000                0.24371245                0.25522448               -0.91620374               -0.05469588                0.77663797                0.70552942
              13.66548789                0.71127288               44.34322490                1.00000000                0.30509796                0.36425610               -1.18102498               -0.01794451                0.36591606               -0.69162667
               3.93140775                4.70513755               45.47391079                1.00000000               -0.24140755               -0.43031707                1.14395056               -0.02389624                0.11861604                1.67954401
               4.92899368                4.41597956               45.31783409                1.00000000               -0.17764587               -0.18022924                0.61626009               -0.00898371                0.24362092                0.08632932
               5.92785483                4.12593112               45.16447860                0.34780867               -0.01539442                0.05606306                0.09423961               -0.13635955                1.10373826               -1.49073192
               6.92868579                3.83351373               45.02540773                0.00010000                0.32767698                0.21351424               -0.46678570               -1.17349970                4.95641571               -2.28693298
               7.93440837                3.52187290               44.94853169                0.00010000                0.67434879                0.31621000               -1.04057633               -2.89781306                8.00670540               -1.36642271
               8.94217276                3.21580242               44.86823161                0.00010000                0.64142711                0.45939788               -1.49922073               -2.88075266                7.86316154                0.49348288
               9.94723692                2.90906433               44.78723767                0.00010000                0.40893463                0.61142515               -1.74863715               -2.84373455                8.04090732                2.29103202
              10.95035146                2.60235686               44.71134179                0.00010000                0.05408814                0.52048085               -1.59958071               -2.50200938                9.13247688                1.70225338
              11.94831868                2.29216972               44.65537045                0.05014944                0.05881019                0.20567668               -0.56832752               -1.10129272                5.66615023                0.41798759
              12.95152766                2.00332501               44.51862517                0.40387568                0.31146475                0.01879911               -0.84209178               -0.07150326                0.89617653                1.75677747
              13.95454797                1.71465175               44.36855306                0.85490573                0.30203137                0.10844865               -1.04234569                0.05392906                0.18279137                0.12689834
               4.21900185                5.70105943               45.41631880                1.00000000               -0.18423859               -0.37923086                0.93002285               -0.04601359                0.24994426                1.31319202
               5.21715947                5.41458284               45.25307740                0.69187537               -0.13003871               -0.08319770                0.41588060               -0.05210473                0.40717598               -0.37793098
               6.21640108                5.12688093               45.09311320                0.14415597                0.01011854                0.17486234               -0.08361741               -0.21960617                1.49689915               -1.86439895
               7.21736184                4.83635008               44.95141872                0.00010000                0.18275388                0.22490220               -0.61815029               -1.32064449                7.33752972               -1.49538868
               8.22005616                4.52663323               44.90755642                0.00010000                0.31951767                0.46099806               -0.98509694               -2.32202159               11.73137346                0.14407585
               9.22375219                4.21977478               44.85123389                0.00010000                0.45307794                0.40115100               -1.39154362               -2.40597440               10.96618978                1.19712921
              10.22911772                3.91283324               44.79066055                0.00010000                0.53073399                0.30839073               -1.61995652               -2.48514165               10.75180147                2.01757688
              11.23436687                3.60444921               44.72976219                0.00010000                0.42509584                0.16390002               -1.57917454               -2.39413657               10.21521364                2.17833873
              12.23761963                3.29634351               44.65957478                0.04051041                0.20789697                0.30948095               -1.46130896               -1.33715193                8.40441369                0.69883685
              13.23852481                3.00147912               44.56775231                0.31473321                0.31466789               -0.25464687               -0.80496766               -0.33841310                3.48847576                2.81185484
              14.24391299                2.71344186               44.40821098                0.78887223                0.53881794               -0.30754928               -1.00405519                0.16302877                0.09858518                0.81482047
               4.50344065                6.69755294               45.35507085                1.00000000               -0.13105739               -0.31069152                0.71539517               -0.04224883                0.08699561                0.98026707
               5.50213008                6.41431560               45.18196814                0.51858839               -0.08725918                0.01191410                0.19579985               -0.06940333                0.43212102               -0.75875920
               6.50169547                6.12942837               45.01586494                0.06401081                0.01952624                0.32736315               -0.29499625               -0.43882368                3.37428946               -2.38054987
               7.50252060                5.83801177               44.90138953                0.00010000                0.14238876                0.08782307               -0.34683950               -1.52799294               10.52887339                1.26789729
               8.50454324                5.53109286               44.87708038                0.00010000                0.26663314                0.42226785               -0.97132730               -2.31389527               14.51119110                1.06044607
               9.50785327                5.22382544               44.83868577                0.00010000                0.41582048                0.39592791               -1.37984362               -2.39308409               13.72992490                1.73498707
              10.51285965                4.91523214               44.79604087                0.00010000                0.55525923                0.24694305               -1.66161218               -2.51446341               13.34956320                2.41672637
              11.51895845                4.60563486               44.74845283                0.00010000                0.58430403                0.10948557               -1.81381852               -2.36374179               12.65996820                2.74839513
              12.52454573                4.29835934               44.69268045                0.04656638                0.43513010                0.06320194               -1.79152434               -1.61694310               11.31001427                2.97657455
              13.52766105                3.99823208               44.62319505                0.30713199                0.46686686               -0.19865005               -0.98533624               -0.49364891                5.13620431                2.88642895
              14.53388307                3.70850077               44.45133838                0.79180662                0.62220189               -0.31831090               -1.30849907                0.06896071                0.02576824                0.33514487
               4.78463154                7.69484560               45.29105674                1.00000000               -0.07355724               -0.22993374                0.50263111               -0.03435361                0.02437091                0.78732816
               5.78389597                7.41482112               45.10930813                0.43856948               -0.03515542                0.07521996               -0.00547936               -0.04388531                0.31305406               -0.83651107
               6.78392843                7.13342819               44.93335993                0.02866365                0.06207574                0.42858272               -0.50486902               -0.74982431                6.86093236               -2.69201585
               7.78513749                6.83810655               44.88228928                0.00010000                0.20180738                0.16601853               -0.49888448               -1.69921056               14.35857830                1.57071704
               8.78796458                6.53507858               44.85243070                0.00010000                0.33068720                0.39780642               -1.03559733               -2.19615832               15.97290650                1.41181867
               9.79175123                6.22769334               44.82975975                0.00010000                0.45272218                0.39692245               -1.45161103               -2.45974519               16.40594484                2.02554451
              10.79701903                5.91777210               44.80481542                0.00010000                0.61068029                0.28275357               -1.80457886               -2.61057260               16.19568794                2.81152822
              11.80396484                5.60663892               44.77502363                0.00010000                0.78322666                0.11376509               -2.11018504               -2.49922437               15.52744683                3.63503099
              12.81268356                5.29760755               44.73585587                0.05699264                0.72727862               -0.13118773               -2.30225105               -1.66501722               13.67240807                4.24472795
              13.81851041                4.99750612               44.67201001                0.31209794                0.60356329                0.06336761               -1.31891633               -0.46604995                6.11543802                2.34247629
              14.82475482                4.70707564               44.48647526                0.79954427                0.62444171                0.07369826               -1.79451415                0.04043902                0.05958554               -0.51354441
               5.06280253                8.69295426               45.22608864                0.99299595               -0.01327523               -0.14896833                0.29269319               -0.03138722                0.00791747                0.72519118
               6.06266978                8.41582000               45.03635647                0.41980481                0.03055166                0.12070981               -0.20221790               -0.00486979                0.12954653               -0.82532403
               7.06341356                8.13800002               44.84901959                0.01273387                0.21081138                0.44272328               -0.70179723               -0.90226033                9.03741698               -2.71405372
               8.06688600                7.84133214               44.83710663                0.00010000                0.38098609                0.39388117               -0.86065618               -1.82219617               18.20214801               -0.08726628
               9.07103328                7.53904899               44.82778092                0.00010000                0.45394226                0.41191384               -1.19403280               -2.12637230               18.76048606                1.16142078
              10.07596485                7.23176389               44.82160384                0.00010000                0.53346680                0.42133352               -1.58225308               -2.38021494               19.22824883                1.96557215
              11.08170262                6.92088721               44.81642604                0.00010000                0.65868313                0.37006033               -1.99062875               -2.61116978               19.37192914                2.93140534
              12.08913851                6.60791017               44.80862109                0.00010000                0.93377887                0.21516896               -2.49222026               -2.69108408               18.84183401                4.29614784
              13.10037820                6.29573559               44.78965164                0.07229047                0.98667268               -0.12479055               -3.10001245               -1.69307821               15.46006246                5.92422967
              14.10887196                5.99949943               44.71445056                0.31912508                0.75873057                0.30547909               -1.66091814               -0.33723753                6.28676799                1.89033212
              15.11555281                5.70997473               44.51415040                0.80362993                0.66808433                0.44904755               -2.26752534                0.04636224                0.08418454               -1.09908449
               5.33827232                9.69186623               45.16094914                0.97751802                0.04804985               -0.06793968                0.08663167               -0.03116727                0.00789050                0.72841095
               6.33875282                9.41723532               44.96362281                0.45261229                0.10493844                0.16167447               -0.40339607                0.01392331               -0.03978616               -0.78058067
               7.34037109                9.14228266               44.76523992                0.00285325                0.44458892                0.40095944               -0.89422139               -0.98844130               10.76950502               -2.38434123
               8.34764459                8.84598417               44.78366380                0.00010000                0.73171515                0.41171159               -1.09435977               -1.86812256               21.71432722               -0.50009704
               9.35500539                8.54331686               44.79754542                0.00010000                0.73320567                0.35806032               -1.38812917               -1.90481223               21.82487283                0.68560543
              10.36230871                8.23612001               44.81108502                0.00010000                0.68219835                0.44006182               -1.74825269               -2.01521448               22.27025695                1.55004835
              11.36864936                7.92517330               44.82696462                0.00010000                0.64930360                0.52293020               -2.19058662               -2.27811915               22.90855469                2.53379176
              12.37529478                7.61094230               44.84719952                0.00010000                0.92916884                0.47052968               -2.82245278               -2.66162599               23.16882686                4.15975407
              13.38723273                7.29511174               44.86339322                0.09628602                1.11158664                0.16738401               -4.14888041               -1.74040163               16.77855444                8.04641841
              14.39752651                7.00361570               44.75240151                0.32777863                0.87493656                0.49094495               -1.95172620               -0.20801400                5.24593058                1.60590255
              15.40473146                6.71605659               44.53702732                0.80254834                0.72049517                0.70744880               -2.66176779                0.04302538                0.09787148               -1.44266851
               5.61144101               10.69159547               45.09615039                0.95900530                0.10908084                0.01279977               -0.12352332               -0.03155842               -0.01335934                0.65369635
               6.61253181               10.41905349               44.89122599                0.50381825                0.17274408                0.20361011               -0.60500736                0.00639664                0.01560964               -0.63378070
               7.61489589               10.14601921               44.68671646                0.00010000                0.79787694                0.37288403               -1.07981653               -1.11685491               12.45844686               -1.48073154
               8.62848935                9.84956638               44.73016892                0.00010000                1.39526552                0.05678557               -1.29803560               -1.46337706               24.78441224               -0.34265654
               9.64280120                9.54621020               44.76393271                0.00010000                1.26573816                0.20698527               -1.58230364               -1.25842908               24.64249168                0.31562523
              10.65380412                9.24056513               44.79534069                0.00010000                0.92583739                0.42731860               -1.93428292               -1.18449746               25.14770210                0.85292474
              11.66131795                8.93134582               44.83089794                0.00010000                0.60817207                0.67901530               -2.39161497               -1.41333039               26.29461087                1.49814173
              12.66596756                8.61732076               44.87786291                0.00010000                0.57894116                0.89406298               -3.06137494               -1.94095120               28.87855327                2.77350223
              13.67289677                8.29908327               44.95860333                0.13979825                0.88996387                0.82355858               -4.29524224               -1.56961126               18.33206300                5.98670190
              14.68376683                8.00931833               44.78762281                0.34316802                0.93173825                0.61211234               -2.15531774               -0.24010040                2.95368128                1.24904812
              15.69153153                7.72412371               44.55648921                0.78979011                0.77646992                0.86208363               -2.96633449                0.02488657                0.02975953               -1.35655292
               5.88272510               11.69212223               45.02956213                0.99002998                0.17319059                0.05267592               -0.33081480                0.04693909                0.34850193                0.56491615
               6.88445701               11.42130752               44.82107414                0.80167409                0.23980010                0.22540310               -0.80995016                0.07342496                0.74682872               -0.50206458
               7.88752110               11.14974034               44.62032122                0.47974800                1.68645301                0.37211312               -1.27869211               -1.44686057               14.23222545               -0.84052051
               8.91818607               10.84711988               44.68100972                0.36935803                2.56584761               -0.24464963               -1.50572019               -1.14451734               27.24791578               -0.29285582
               9.93883805               10.54745657               44.72827509                0.35954911                1.76485351                0.12463701               -1.79160952               -0.51898915               26.93466614                0.07669007
              10.95348314               10.24466638               44.77264671                0.36925673                1.23945307                0.41012539               -2.13934438               -0.46724568               27.48003718                0.38220379
              11.96362712                9.93875361               44.82194684                0.39780229                0.76275838                0.74077931               -2.58962446               -0.56122398               28.95387215                0.76486845
              12.96873830                9.62882356               44.88788038                0.48234318                0.01079118                1.15028008               -3.25466555               -1.08146025               32.03962747                1.67544462
              13.96384294                9.31158291               44.99030233                0.59556522               -0.05271205                1.24996425               -3.99420940               -1.55366373               20.89623655                3.04167814
              14.96768406                9.01585794               44.81707728                0.68973457                0.58877480                0.65396162               -2.26087789               -0.52250951                3.97631417                1.02415636
              15.97561844                8.73329826               44.57932997                0.89243522                0.79343723                0.91745536               -3.13076286                0.15272193                0.84101169               -1.08286793
               3.18737713                1.79441815               46.66310862                1.00000000               -0.48705988               -0.55351883                1.90183642               -0.11483982               -1.22055832                1.12373300
               4.18250653                1.48982015               46.51489870                1.00000000               -0.41540403               -0.34959123                1.27825194               -0.06363062               -1.67449961                0.19488101
               5.17906905                1.18452204               46.35831996                1.00000000               -0.28887322               -0.15715482                0.64873063               -0.07956786               -1.77002990               -0.20863056
               6.17672907                0.87674293               46.20876749                0.68767324               -0.35937029                0.09257511                0.01663398               -0.60531922               -1.42946595               -0.94565782
               7.17188165                0.55555905               46.05969894                0.74674794               -0.08377317                0.13729801               -0.58501564               -0.20266630               -1.08854451                0.17665706
               8.17505361                0.22631312               45.92092322                0.76419009                0.55432901                0.31830040               -1.14058697               -0.22651789               -0.37444042               -0.02028030
               9.18296823               -0.10210866               45.78961091                0.68573081                1.06805584                0.45438382               -1.60828518               -0.04873281                0.74642351               -0.45358910
              10.19641472               -0.42283880               45.67581211                0.69793460                1.21315168                0.40111042               -1.61011824               -0.04217308                1.46585157               -0.29135196
              11.20723126               -0.72879502               45.55819711                1.00000000                0.75311378                0.21214247               -0.97009972               -0.17856141                0.58121853                0.82319681
              12.21147700               -1.02930927               45.42056978                1.00000000                0.43197713                0.33080117               -1.22805384               -0.04586582               -0.52511968                0.09051601
              13.21587080               -1.32850208               45.28054878                1.00000000                0.43938042                0.44600341               -1.57357408               -0.07480157               -0.62871567               -0.60293964
               3.49082673                2.78888296               46.59845722                1.00000000               -0.40084504               -0.53642317                1.67780903               -0.00854136               -0.29295228                1.49969720
               4.48681828                2.48632424               46.45030831                1.00000000               -0.30073738               -0.32279787                1.05547996                0.03466431               -0.47198630                0.28594057
               5.48481199                2.18295049               46.29910972                1.00000000               -0.08304559               -0.12642937                0.42301129                0.00147917               -0.41891724               -0.38661535
               6.48515737                1.87766868               46.15210814                0.40184440                0.51289501                0.12145228               -0.20001712               -0.72773014                0.82479001               -1.32185723
               7.49506989                1.55693203               46.02545844                0.50832501                0.82324567                0.02452509               -0.91343606               -0.33574785                1.70608435                0.40622148
               8.50162228                1.22949613               45.89714368                0.54646747                0.59934883                0.38921427               -1.52722068               -0.33544346                1.96802333                0.01465037
               9.50705686                0.90243518               45.77603935                0.41522759                0.38569438                0.65929918               -2.01916289               -0.17967777                3.59830882               -1.04350599
              10.50933617                0.58117230               45.67973286                0.38302310                0.08120090                0.74983576               -1.83560156               -0.21503227                4.83063636               -0.53816164
              11.50868088                0.27332641               45.58411997                1.00000000                0.07678497                0.19834686               -0.67796342               -0.34226453                2.48922337                0.94277876
              12.51087187               -0.02600126               45.44676062                1.00000000                0.28173579                0.29883382               -1.00499645               -0.00143278                0.23091249                0.23179605
              13.51431560               -0.32404204               45.30697875                1.00000000                0.34437247                0.41781002               -1.35374619               -0.02179922                0.09246275               -0.66477421
               3.79232375                3.78368968               46.54216391                1.00000000               -0.31914606               -0.50044223                1.45009955               -0.01015550               -0.01827686                1.87158100
               4.78913229                3.48336419               46.38780463                1.00000000               -0.22847772               -0.26043326                0.83626977                0.01120598                0.09553251                0.31407090
               5.78775419                3.18199345               46.23607469                0.80249766               -0.04696822               -0.02876388                0.20871768               -0.06497616                0.35518411               -0.96177542
               6.78819292                2.87917197               46.08673975                0.00010000                1.27925227                0.17409080               -0.41560267               -1.11348339                3.33637292               -1.77370381
               7.81333924                2.55604955               45.99392242                0.00010000                1.73243336                0.09983364               -1.35744684               -2.22627464                4.84758605               -0.67488966
               8.82284159                2.23409741               45.87227489                0.00010000                0.71796286                0.60941306               -1.99822486               -2.13418464                3.40703867                0.27228760
               9.82769850                1.91107732               45.74791227                0.00010000               -0.08093710                1.05133771               -2.58890644               -2.03316397                5.98583740                0.81093617
              10.82122285                1.59215791               45.67546149                0.00010000               -1.00694840                1.19763371               -2.98178612               -1.78956230                9.06990534                0.63873401
              11.80755953                1.27517192               45.61302297                0.29265951               -0.62030275                0.06871315               -0.40328038               -1.08837464                4.86129167                1.47512041
              12.80881679                0.97666741               45.47579427                1.00000000                0.19784307                0.22194991               -0.79117572               -0.07274026                0.71462055                0.65973408
              13.81151639                0.67985412               45.33179329                1.00000000                0.26995960                0.35275190               -1.11620132               -0.03357429                0.33543624               -0.62893669
               4.09127461                4.77887411               46.48570425                1.00000000               -0.25359719               -0.45392198                1.21965105               -0.02639061                0.11335729                1.66519497
               5.08873863                4.48111557               46.32401175                1.00000000               -0.17849624               -0.17987747                0.61979911               -0.01154990                0.23826835                0.09299723
               6.08770468                4.18237521               46.16506478                0.34134909                0.00464825                0.08037172                0.02066197               -0.14691716                1.08202172               -1.44703406
               7.08883160                3.88115049               46.02005174                0.00010000                0.39571376                0.26699035               -0.61209295               -1.27598479                4.90786465               -2.21926388
               8.09561896                3.55892871               45.93712262                0.00010000                0.75396114                0.45474326               -1.25459850               -3.13856816                8.00423725               -0.98837522
               9.10391082                3.24168439               45.85195630                0.00010000                0.63570613                0.69023946               -1.76687557               -3.19712471                8.01063296                0.95432484
              10.10833308                2.92346193               45.76825608                0.00010000                0.27697542                0.94200496               -2.07362257               -3.22707067                8.50308304                2.85478982
              11.10945033                2.60512498               45.69439223                0.00010000               -0.29645929                0.82159154               -1.78471736               -3.28790490               10.23082395                2.30091627
              12.10240389                2.27470067               45.65042413                0.03625822               -0.23577334                0.47354933               -0.41056641               -1.49131314                6.37461264               -0.22867451
              13.10473486                1.97843774               45.51101964                0.36036357                0.24333929                0.00955177               -0.66051577               -0.02556690                0.84088530                1.62955673
              14.10727068                1.68301299               45.35883668                0.82209647                0.25358155               -0.01446533               -0.91744470                0.14795630                0.15650516                0.10920594
               4.38731302                5.77461124               46.42587650                1.00000000               -0.19128298               -0.39437124                0.98536615               -0.05074952                0.25002108                1.29655724
               5.38540019                5.47976664               46.25717357                0.67080658               -0.12660461               -0.07345613                0.40070619               -0.05822016                0.41469413               -0.38064386
               6.38478093                5.18360088               46.09189827                0.13590619                0.03597718                0.20994734               -0.16555388               -0.23441818                1.49736058               -1.84397294
               7.38611973                4.88451178               45.94448912                0.00010000                0.26265264                0.26128824               -0.76824847               -1.37213367                7.40959988               -1.17293298
               8.39003398                4.56514442               45.89684968                0.00010000                0.41230673                0.58828204               -1.17027044               -2.42913334               11.87910119                0.48332877
               9.39436587                4.24790220               45.83632859                0.00010000                0.48412573                0.58758597               -1.60630792               -2.53964815               11.18655679                1.59134156
              10.39971650                3.92991742               45.77363220                0.00010000                0.49300722                0.51594645               -1.80350828               -2.67702209               11.20176519                2.39987131
              11.40422601                3.60858974               45.71371349                0.00010000                0.23520027                0.32411941               -1.64814639               -2.75128308               10.85617042                2.31922709
              12.40442050                3.28464291               45.64572200                0.03063779               -0.21164408                0.78906142               -1.33212952               -1.58744138                9.25102796                0.09075927
              13.39999313                2.97685844               45.56049227                0.28512873                0.04522533               -0.16714002               -0.64661730               -0.42597714                3.93986246                2.62217857
              14.40532501                2.67956482               45.39871668                0.76640864                0.53318759               -0.54650163               -0.92870067                0.28528579                0.09936467                0.47069955
               4.67994882                6.77098669               46.36241764                1.00000000               -0.13642294               -0.31997418                0.75751230               -0.04326845                0.07564221                0.96690254
               5.67858459                6.47964645               46.18380546                0.50155989               -0.08388190                0.02629435                0.17052526               -0.07177356                0.43337003               -0.75995612
               6.67827118                6.18657416               46.01246362                0.05544710                0.06304011                0.36988029               -0.39434171               -0.47392896                3.63282163               -2.37272443
               7.67984539                5.88637626               45.89755348                0.00010000                0.26873452                0.13719392               -0.42653647               -1.50542830               10.73901162                1.56702408
               8.68364587                5.57069435               45.86657506                0.00010000                0.42497321                0.50871006               -1.13997014               -2.31080459               14.53845164                1.35225195
               9.68834485                5.25343611               45.82412615                0.00010000                0.52296104                0.50870906               -1.54675988               -2.43701420               13.96645359                2.05375105
              10.69410509                4.93378086               45.77888057                0.00010000                0.56771651                0.36783829               -1.78599598               -2.61107629               13.73862682                2.66276418
              11.69969918                4.61160736               45.73029804                0.00010000                0.41406375                0.28520900               -1.83540861               -2.54663754               13.21024300                2.74678075
              12.70238637                4.29048190               45.67557657                0.03824396                0.07971128                0.38873982               -1.65829235               -1.86866830               12.23693334                2.68855923
              13.70129341                3.97509494               45.61365533                0.28652189                0.25886404               -0.05421573               -0.94167248               -0.58124411                5.73525340                2.62866941
              14.70756365                3.67208296               45.43798907                0.77568918                0.62702361               -0.46577726               -1.42249847                0.09750663                0.04418366               -0.26974978
               4.96912813                7.76821176               46.29622514                1.00000000               -0.07508827               -0.23602578                0.53407293               -0.03494891                0.01971125                0.77733820
               5.96837725                7.48029253               46.10910034                0.42420616               -0.02777962                0.08932242               -0.03767100               -0.04119692                0.31167293               -0.82631456
               6.96857254                7.19099849               45.92784729                0.02059458                0.17568660                0.47038298               -0.60305364               -0.76993783                7.11661866               -2.67599726
               7.97189098                6.88725566               45.87644624                0.00010000                0.40927503                0.23597530               -0.68219513               -1.66486899               14.65264395                1.57183563
               8.97675804                6.57531862               45.84139256                0.00010000                0.53240442                0.44417712               -1.18340033               -2.17481409               16.09909857                1.62156112
               9.98253907                6.25807638               45.81460175                0.00010000                0.62828370                0.44442450               -1.59131659               -2.46393515               16.65395235                2.27353768
              10.98932371                5.93727419               45.78634422                0.00010000                0.70265783                0.34747171               -1.89767147               -2.62846747               16.54042069                2.99061560
              11.99659223                5.61429392               45.75401501                0.00010000                0.71179227                0.23611360               -2.09876529               -2.50748226               15.97940133                3.59068931
              13.00355956                5.29241770               45.71385297                0.04889863                0.50874805                0.09255006               -2.12446153               -1.77945397               14.65846403                3.80146458
              14.00676719                4.97577413               45.65861857                0.29698219                0.48697688                0.18625448               -1.37405404               -0.54423040                6.85302645                2.07542204
              15.01329910                4.67024927               45.46754630                0.78727595                0.65319099                0.08159960               -2.03352592                0.05892890                0.08603390               -1.08745134
               5.25508830                8.76626617               46.22911202                0.98625523               -0.01143826               -0.15454002                0.31438646               -0.03366693                0.01081435                0.71902690
               6.25497392                8.48143290               46.03414497                0.40692971                0.04104966                0.13664747               -0.24239971               -0.00036562                0.13067275               -0.81677842
               7.25590929                8.19598182               45.84153919                0.00513502                0.36269812                0.48299257               -0.80061681               -0.92025432                9.21199065               -2.69044932
               8.26222788                7.89109576               45.82778322                0.00010000                0.67097862                0.42329103               -1.01002515               -1.84670015               18.51736826               -0.09510231
               9.26932887                7.57957789               45.81518596                0.00010000                0.74413514                0.40858470               -1.33620558               -2.14643434               19.02810015                1.30150373
              10.27711058                7.26232460               45.80520446                0.00010000                0.79946653                0.40686926               -1.70607784               -2.38328219               19.51562241                2.15599637
              11.28531820                6.94073030               45.79607860                0.00010000                0.86477213                0.37352294               -2.07780911               -2.59247552               19.66621979                3.07609096
              12.29440603                6.61632964               45.78366124                0.00010000                0.99994426                0.25300708               -2.47991237               -2.60311646               19.11130417                4.22986722
              13.30531708                6.29233290               45.75994251                0.06286895                0.90856043               -0.00301684               -2.83840863               -1.73453409               16.56722197                5.19348703
              14.31257723                5.97882003               45.69727353                0.30717439                0.72374280                0.39866300               -1.77862787               -0.42949315                7.28113846                1.67891838
              15.31979194                5.67371495               45.49009373                0.79348143                0.72147036                0.51835486               -2.55989633                0.06043871                0.10451972               -1.53947415
               5.53812134                9.76512096               46.16187102                0.97200815                0.05329459               -0.07228981                0.09895345               -0.03228593                0.00727515                0.72087630
               6.53865429                9.48302548               45.95934395                0.44109622                0.11916202                0.18000250               -0.45358875                0.01857192               -0.03803643               -0.77326038
               7.54050459                9.20065834               45.75580747                0.00010000                0.63533085                0.43855386               -0.99692623               -1.03943391               10.92872760               -2.35473295
               8.55136091                8.89572148               45.77212858                0.00010000                1.10479672                0.37756458               -1.22106977               -1.94641191               22.04063630               -0.44533227
               9.56260052                8.58349032               45.78307750                0.00010000                1.11800553                0.28426865               -1.51602567               -1.95227937               22.14913315                0.79081840
              10.57372102                8.26621376               45.79305647                0.00010000                1.04343230                0.36410547               -1.86362658               -2.02371828               22.60053031                1.68792560
              11.58346917                7.94474465               45.80454409                0.00010000                0.96031376                0.46664385               -2.28501685               -2.25798761               23.17609073                2.64036159
              12.59292729                7.61935407               45.81833875                0.00010000                1.14546593                0.47300347               -2.89996037               -2.57579628               23.10829454                4.13333383
              13.60637848                7.29235737               45.82216822                0.08346180                1.19339884                0.21720816               -3.94054364               -1.76355267               18.05233236                7.41855287
              14.61679527                6.98374739               45.73205004                0.31742040                0.91697692                0.56587460               -2.11602735               -0.29311892                6.70452864                1.47730565
              15.62471802                6.68061637               45.50880413                0.79348155                0.79227524                0.79513731               -2.98062950                0.05032271                0.11418801               -1.76118657
               5.81863354               10.76482038               46.09491213                0.95306185                0.11744295                0.01148191               -0.12255170               -0.03253886               -0.01194704                0.64389088
               6.81980797               10.48503295               45.88490047                0.49250387                0.18955361                0.22318811               -0.66263790                0.00869555                0.02168300               -0.62674258
               7.82242462               10.20475290               45.67539263                0.00010000                1.03298482                0.40865891               -1.18944485               -1.23233370               12.61084612               -1.45308379
               8.84046767                9.89864706               45.71663590                0.00010000                1.86831885               -0.06617931               -1.41898551               -1.57109540               25.11419567               -0.30181176
               9.85979099                9.58526326               45.74755636                0.00010000                1.74571077                0.07498811               -1.70397044               -1.30470659               24.99684123                0.37980217
              10.87538188                9.26960671               45.77546686                0.00010000                1.36135756                0.30334863               -2.04559669               -1.18978970               25.50926402                0.93156007
              11.88701814                8.95006317               45.80636925                0.00010000                0.99477487                0.57890607               -2.49861017               -1.37927005               26.57520548                1.55635342
              12.89527738                8.62578971               45.84616504                0.00010000                0.93172810                0.84867120               -3.21356892               -1.85150637               28.70500769                2.74210845
              13.90565271                8.29667706               45.91118216                0.12094110                1.15892359                0.93314708               -4.89294054               -1.47869826               19.75657827                6.03730483
              14.91845585                7.99013752               45.76505253                0.33449796                1.07038627                0.67839849               -2.35554142               -0.31966420                4.64705322                1.21967981
              15.92706043                7.68961770               45.52505347                0.78145115                0.86045775                0.96188647               -3.30932244                0.02815490                0.03090495               -1.54871000
               6.09704543               11.76535060               46.02619879                0.98676769                0.18502555                0.05302206               -0.34064075                0.05505268                0.34014079                0.55591806
               7.09889568               11.48748924               45.81264238                0.79616224                0.25991876                0.24562936               -0.87840365                0.08281711                0.74554400               -0.49637876
               8.10224380               11.20883152               45.60695343                0.47671591                2.02664754                0.40786248               -1.40090160               -1.67264881               14.37359399               -0.81757584
               9.13942863               10.89439789               45.66535915                0.36934011                3.16514673               -0.42491642               -1.63615235               -1.29597576               27.57183624               -0.28614526
              10.16554674               10.58499008               45.70976138                0.35966156                2.28483398               -0.02731847               -1.92339712               -0.53028335               27.29719791                0.09621358
              11.18512531               10.27228074               45.75067843                0.36899941                1.70770150                0.26740296               -2.26052407               -0.45902258               27.87204913                0.40465519
              12.19970077                9.95632277               45.79540735                0.39682588                1.20789816                0.62595961               -2.70422241               -0.52940012               29.26631484                0.76544957
              13.20928328                9.63632749               45.85385356                0.46945625                0.63779681                1.05377837               -3.46553521               -0.86453370               32.11585054                1.58660030
              14.21245670                9.31102031               45.94547836                0.58422016                0.40890367                1.43432445               -4.78990957               -1.27020689               22.35159627                3.37104669
              15.21746135                8.99731536               45.79335314                0.68616098                0.69320304                0.71778360               -2.48458332               -0.65776096                5.53840702                1.04616614
              16.22632076                8.69985410               45.54618292                0.88829449                0.88594143                1.02363975               -3.48640174                0.17990722                0.87339221               -1.20627391
               3.32645710                1.87140800               47.68285252                1.00000000               -0.52414497               -0.59734414                2.05257793               -0.12932031               -1.21923304                1.11460082
               4.32121565                1.55747354               47.52798372                1.00000000               -0.44846127               -0.36298569                1.34029138               -0.07255534               -1.67513805                0.19348116
               5.31748788                1.24277248               47.36475269                1.00000000               -0.32089349               -0.14245288                0.63661424               -0.09282770               -1.77038586               -0.20966274
               6.31479778                0.92510485               47.20853745                0.69388086               -0.47859150                0.15380877               -0.06511654               -0.64039712               -1.38540356               -0.92929088
               7.30791605                0.59310506               47.05362972                0.75420535               -0.28971003                0.23849762               -0.62663527               -0.22729813               -0.99335962                0.14988930
               8.30900358                0.25177426               46.90917405                0.77068936                0.35464710                0.41069413               -1.19838978               -0.26607688               -0.30555233               -0.02209077
               9.31500899               -0.09145809               46.77264695                0.67789754                0.94658928                0.60379401               -1.75812795               -0.13638544                0.94386311               -0.50019982
              10.32793537               -0.42973565               46.65806970                0.64103282                1.37550935                0.60759718               -1.96160534                0.03145335                2.11228183               -0.49832982
              11.34251917               -0.74774454               46.54874352                1.00000000                0.94843560                0.17677803               -0.87477441               -0.36710713                1.28053537                0.86071848
              12.34690408               -1.05568483               46.40820901                1.00000000                0.44708867                0.33167853               -1.22468374               -0.05426221               -0.44816977                0.10238751
              13.35146095               -1.36186955               46.26441483                1.00000000                0.45568695                0.46961881               -1.67404265               -0.09863119               -0.60070796               -0.56752158
               3.63909836                2.86543456               47.61588132                1.00000000               -0.42905053               -0.57788205                1.81265135               -0.00610243               -0.29949114                1.48414445
               4.63480786                2.55384368               47.46108307                1.00000000               -0.31772096               -0.33540621                1.10047571                0.04151661               -0.48502652                0.28554888
               5.63274394                2.24134796               47.30316708                1.00000000               -0.07901669               -0.11016889                0.38625047                0.00711951               -0.43472963               -0.37870707
               6.63322752                1.92664294               47.14952566                0.42670374                0.47822094                0.17786396               -0.32115796               -0.75011828                0.77746182               -1.29716197
               7.64230836                1.59549004               47.01564164                0.53573774                0.76984335                0.10209947               -1.04148058               -0.34800473                1.60089557                0.34146007
               8.64862439                1.25588120               46.88080861                0.57146243                0.60458636                0.47228463               -1.72257432               -0.36020879                1.91410703               -0.00931486
               9.65440009                0.91457985               46.75392536                0.42449505                0.38843667                0.80324081               -2.37891353               -0.27364314                3.92841197               -1.11903772
              10.65639312                0.57634032               46.65855053                0.33495395               -0.12886990                1.09452796               -2.51076528               -0.23460535                6.28724551               -1.21981559
              11.65182269                0.25402324               46.57793745                1.00000000               -0.14845804                0.15863811               -0.56887779               -0.68604229                3.44861465                0.94097509
              12.65342396               -0.05236804               46.43700989                1.00000000                0.24183347                0.28618078               -0.92751474               -0.00708429                0.23707014                0.23215559
              13.65665936               -0.35717336               46.29338442                1.00000000                0.32353977                0.43528814               -1.39324003               -0.04365129                0.08083738               -0.60052611
               3.94951681                3.85985036               47.55719357                1.00000000               -0.33842231               -0.53528476                1.56052530               -0.01041748               -0.02517265                1.84872164
               4.94613259                3.55076541               47.39628755                1.00000000               -0.23429009               -0.26865579                0.86187951                0.01547038                0.07973662                0.31722450
               5.94483101                3.24056911               47.23788892                0.80002108               -0.02396261               -0.00905486                0.14880677               -0.06959737                0.33437223               -0.92921906
               6.94565333                2.92866213               47.08195028                0.00010000                1.34433410                0.23680713               -0.55614708               -1.19321720                3.16301724               -1.73830149
               7.97171769                2.59514705               46.97931564                0.00010000                1.85281304                0.18440477               -1.55255062               -2.35809951                4.55695495               -0.48743320
               8.98270960                2.26121995               46.85077165                0.00010000                0.86796569                0.74770125               -2.28413891               -2.39563754                3.27808178                0.57793583
               9.98907700                1.92460672               46.71978763                0.00010000                0.05451344                1.29301762               -2.98361676               -2.43012375                5.87970951                1.22347293
              10.98379986                1.59215491               46.63964875                0.00010000               -1.57851577                1.68914344               -4.15088560               -2.63858703               11.27586523                0.98220532
              11.95750669                1.25542822               46.60998820                0.26696363               -1.29204343                0.04369821               -0.20534014               -1.73776466                6.57338683                1.26597576
              12.95795900                0.95003879               46.46859418                1.00000000                0.13459373                0.17930958               -0.61385138               -0.10415763                0.63007841                0.61283773
              13.96019856                0.64683621               46.32090088                1.00000000                0.22395674                0.35429199               -1.09827713               -0.05102543                0.28873754               -0.57171046
               4.25705990                4.85472886               47.49830381                1.00000000               -0.26613883               -0.47865877                1.30622727               -0.03126347                0.11021936                1.63773734
               5.25439852                4.54847056               47.33023007                0.99976640               -0.18023133               -0.17945799                0.62142882               -0.01315024                0.23296543                0.09662813
               6.25345528                4.24116686               47.16489184                0.33254129                0.01933591                0.10167617               -0.04875614               -0.14448769                1.05937665               -1.39241503
               7.25478523                3.93137908               47.01316587                0.00010000                0.45666361                0.33637748               -0.78621895               -1.35198220                4.87425746               -2.15221719
               8.26258855                3.59917813               46.92343972                0.00010000                0.82333657                0.58501558               -1.48516157               -3.32314167                8.00487196               -0.53083022
               9.27125197                3.27083522               46.83289410                0.00010000                0.61370528                0.91059077               -2.05223084               -3.53733566                8.15245558                1.56231116
              10.27486266                2.94044020               46.74576522                0.00010000                0.07739575                1.27997244               -2.44343035               -3.70104591                9.09870247                3.63793895
              11.27279988                2.61012319               46.67564745                0.00010000               -0.78395710                1.13865186               -1.98564893               -4.49711888               11.65700431                3.47928218
              12.25918351                2.25489721               46.64715912                0.02286470               -0.64335308                0.87890181               -0.29677661               -2.02751558                7.39918179               -0.93375712
              13.25993282                1.95121815               46.50541485                0.31531080                0.14302446                0.06241052               -0.45093604                0.06918247                0.85258679                1.45789816
              14.26204400                1.64991248               46.35020416                0.78734524                0.21111838               -0.15663777               -0.83207841                0.33207698                0.13024362                0.01229365
               4.56140814                5.85027718               47.43602612                1.00000000               -0.19765521               -0.40932576                1.05186123               -0.05419546                0.24637662                1.27339352
               5.55943159                5.54717625               47.26109152                0.64938657               -0.11877006               -0.06404254                0.37717785               -0.06607862                0.41753185               -0.38104632
               6.55903274                5.24260263               47.08980212                0.12707950                0.05854147                0.24289950               -0.25995357               -0.23189877                1.49142138               -1.80036920
               7.56060242                4.93538968               46.93605375                0.00010000                0.33829876                0.30080295               -0.93044481               -1.36755554                7.49795491               -0.80245314
               8.56579871                4.60684736               46.88415101                0.00010000                0.50491994                0.72084462               -1.37984955               -2.49034294               12.05268965                0.90731503
               9.57070082                4.27943176               46.81910773                0.00010000                0.49847040                0.78960402               -1.85256383               -2.65081633               11.47683494                2.11146884
              10.57576812                3.95020617               46.75459039                0.00010000                0.43498320                0.76675992               -2.03248112               -2.89530846               11.80731429                2.96773443
              11.57940048                3.61492794               46.69679926                0.00010000                0.00466462                0.50728869               -1.78195540               -3.17662410               11.76708376                2.59615156
              12.57586141                3.27300626               46.63293219                0.02173793               -0.75365536                1.45511726               -1.28603214               -1.84486769               10.36705633               -0.50233917
              13.56432737                2.95128700               46.55481997                0.25686276               -0.32049834                0.07305051               -0.49572005               -0.46410002                4.52993967                2.36591931
              14.56945145                2.64370346               46.38963697                0.74447363                0.51240747               -0.78181635               -0.94718012                0.44440913                0.13930953               -0.07877347
               4.86217786                6.84654235               47.37022110                1.00000000               -0.14263594               -0.32896002                0.80638831               -0.04190176                0.06273526                0.95322140
               5.86075150                6.54718971               47.18537865                0.48544565               -0.07869904                0.03895321                0.14434396               -0.07209061                0.42889844               -0.75457376
               6.86060388                6.24602485               47.00797810                0.04675611                0.12189468                0.41150257               -0.50272195               -0.49562033                3.93515677               -2.35037668
               7.86318939                5.93739514               46.89285880                0.00010000                0.40678642                0.19619179               -0.52305589               -1.41935710               10.98310900                1.88023928
               8.86873961                5.61359502               46.85428098                0.00010000                0.58437188                0.60257711               -1.32974967               -2.23877536               14.58560056                1.70850349
               9.87487683                5.28662730               46.80775057                0.00010000                0.63603513                0.63270126               -1.74429548               -2.43209157               14.29490794                2.46995321
              10.88146031                4.95577540               46.76032095                0.00010000                0.57952405                0.50901018               -1.94935168               -2.68561405               14.28911797                3.02068819
              11.88646731                4.62026896               46.71174466                0.00010000                0.22333979                0.50807803               -1.91117427               -2.75661060               14.00740032                2.85309712
              12.88592710                4.28399955               46.65951460                0.03143437               -0.32568451                0.81323216               -1.60438830               -2.11009695               13.37389007                2.48600364
              13.87995362                3.95267916               46.60436160                0.26835815                0.00860828                0.20546809               -0.94176640               -0.60865843                6.42836706                2.31472661
              14.88609927                3.63427615               46.42288841                0.76039847                0.61456489               -0.52407550               -1.65825672                0.11812839                0.08038318               -1.01417561
               5.15927537                7.84369798               47.30173820                1.00000000               -0.07680993               -0.24267149                0.57147130               -0.03551451                0.01579992                0.76801240
               6.15850728                7.54795532               47.10855471                0.41014199               -0.01802344                0.10255537               -0.07321705               -0.03803704                0.31031828               -0.81034768
               7.15891491                7.25083268               46.92129886                0.01245676                0.30689118                0.51030065               -0.71047116               -0.76152789                7.35887050               -2.64019241
               8.16464510                6.93931351               46.86864538                0.00010000                0.64380680                0.31763067               -0.88391561               -1.57682895               14.97960094                1.56690080
               9.17179104                6.61889890               46.82876270                0.00010000                0.76167564                0.48995506               -1.35524291               -2.08966380               16.31201575                1.88084281
              10.17987861                6.29208579               46.79793342                0.00010000                0.83115705                0.49008998               -1.75645232               -2.40023513               17.00235025                2.58861762
              11.18841418                5.96038637               46.76686200                0.00010000                0.80827510                0.42168828               -2.01453829               -2.59431810               17.04883402                3.24074045
              12.19604411                5.62508950               46.73304832                0.00010000                0.64175464                0.39574035               -2.11681230               -2.50410462               16.67636825                3.62262065
              13.20124928                5.28927090               46.69336663                0.04276871                0.29167449                0.36452660               -2.01361005               -1.87549494               15.77831394                3.48294715
              14.20187760                4.95539636               46.64452893                0.28451078                0.36853792                0.34835852               -1.45009885               -0.58295336                7.59965723                1.77940549
              15.20862003                4.63322195               46.44580474                0.77566692                0.67424305                0.18256356               -2.33214596                0.07773471                0.11517847               -1.66464880
               5.45295290                8.84168892               47.23237636                0.97944306               -0.00968407               -0.16071703                0.34044771               -0.03498052                0.01401556                0.71320187
               6.45285606                8.54924082               47.03150848                0.39401281                0.05311105                0.15296500               -0.28663445                0.00451536                0.13408940               -0.80265319
               7.45401512                8.25623086               46.83300725                0.00010000                0.53652653                0.52509385               -0.91084380               -0.91234857                9.39653968               -2.65270781
               8.46358659                7.94374775               46.81690613                0.00010000                1.00794661                0.44556686               -1.17226791               -1.81472729               18.87256207               -0.04980075
               9.47417405                7.62339413               46.80105681                0.00010000                1.08990327                0.39319643               -1.50252205               -2.10247611               19.37323152                1.48217014
              10.48538466                7.29642910               46.78748228                0.00010000                1.11980889                0.37651669               -1.85026469               -2.31054289               19.90783032                2.39590541
              11.49657023                6.96420916               46.77486986                0.00010000                1.10580173                0.36517589               -2.16869355               -2.48853156               20.12084863                3.26286926
              12.50750069                6.62818377               46.75902284                0.00010000                1.07700579                0.30078354               -2.44755163               -2.45633237               19.65023863                4.17306804
              13.51811035                6.29129008               46.73288347                0.05614727                0.84214088                0.14861186               -2.60023435               -1.76093099               17.74000192                4.58313487
              14.52434351                5.95964633               46.67887800                0.29794147                0.69462218                0.49932264               -1.89160009               -0.51295470                8.18098273                1.45292267
              15.53200279                5.63792742               46.46295247                0.78394557                0.76592829                0.63255892               -2.85392041                0.07245906                0.11718991               -1.93299253
               5.74347196                9.84048364               47.16292821                0.96687425                0.05836794               -0.07717035                0.11420562               -0.03327829                0.00641802                0.71362305
               6.74405564                9.55101462               46.95455104                0.42863077                0.13445210                0.19896962               -0.50635877                0.02399145               -0.03217313               -0.76094345
               7.74616100                9.26133456               46.74530140                0.00010000                0.85658246                0.47903546               -1.11008839               -1.07137536               11.11054900               -2.31528351
               8.76118729                8.94822485               46.75924241                0.00010000                1.54495832                0.32759109               -1.36663869               -1.97743910               22.41748876               -0.35641854
               9.77706017                8.62676283               46.76722490                0.00010000                1.58327140                0.18641167               -1.66808535               -1.94378600               22.55030397                0.93400860
              10.79285272                8.29961612               46.77381249                0.00010000                1.49143589                0.25726327               -1.99522555               -1.96405441               23.03373609                1.86593015
              11.80688889                7.96768989               46.78126429                0.00010000                1.34919144                0.37002339               -2.36627120               -2.14786571               23.57289032                2.77802206
              12.81983655                7.63110517               46.78920031                0.00010000                1.38396031                0.42321780               -2.87917395               -2.38463248               23.34762177                4.07678983
              13.83456809                7.29224314               46.78458235                0.07421597                1.25723120                0.26145668               -3.53120744               -1.73459280               19.36204123                6.51054492
              14.84498117                6.96538281               46.71008096                0.31000907                0.94694699                0.63812438               -2.25942508               -0.39384626                7.98077451                1.33409085
              15.85350703                6.64587313               46.47741473                0.78511071                0.85258628                0.89216460               -3.26394488                0.05627918                0.11919870               -2.03796496
               6.03122539               10.84014551               47.09369935                0.94641501                0.12595870                0.00918075               -0.11839825               -0.03409040               -0.01018936                0.63444590
               7.03248497               10.55322021               46.87797323                0.47991590                0.20759965                0.24407559               -0.72450062                0.01118343                0.03234442               -0.61637975
               8.03537738               10.26581157               46.66292756                0.00010000                1.30622802                0.44663312               -1.30942973               -1.34027172               12.79046684               -1.42144792
               9.05860953                9.95029957               46.70178921                0.00010000                2.42648411               -0.21371932               -1.56253413               -1.65308285               25.50118698               -0.24340123
              10.08390706                9.62712236               46.72985330                0.00010000                2.32834866               -0.08960151               -1.85120821               -1.31613197               25.43291502                0.46752318
              11.10517651                9.30157437               46.75442876                0.00010000                1.91084022                0.13601090               -2.17155961               -1.15436488               25.97830280                1.03758584
              12.12212387                8.97160963               46.78092574                0.00010000                1.50391431                0.41482541               -2.57816548               -1.30184229               26.97532223                1.64024815
              13.13525479                8.63664812               46.81359153                0.00010000                1.35084928                0.70366851               -3.23078110               -1.69713311               28.55391473                2.68551731
              14.14914085                8.29651922               46.86074452                0.10674208                1.37909015                0.90841518               -4.82383065               -1.37160606               21.26567921                5.57818607
              15.16283660                7.97240882               46.74051198                0.32934829                1.15034494                0.73986100               -2.53165258               -0.39910146                6.45744934                1.17419437
              16.17214775                7.65577071               46.49030276                0.77407694                0.93111541                1.05203696               -3.59415730                0.03217359                0.01426520               -1.71728874
               6.31664075               11.84066726               47.02274932                0.98326702                0.19724997                0.05217463               -0.34806060                0.06442338                0.33177774                0.54715509
               7.31861325               11.55589613               46.80350607                0.78971239                0.28177285                0.26759157               -0.95159528                0.09282570                0.74616181               -0.48844965
               8.32227621               11.27026722               46.59230319                0.47368684                2.41007971                0.44556499               -1.53373245               -1.90740048               14.54041121               -0.79475923
               9.36681484               10.94395047               46.64828667                0.36929157                3.85932642               -0.63491092               -1.79144960               -1.44428997               27.95247906               -0.27078605
              10.39946274               10.62497080               46.68980715                0.35973787                2.92316522               -0.21515569               -2.08214264               -0.52513885               27.74225131                0.12792977
              11.42527815               10.30233634               46.72743622                0.36878346                2.31577750                0.07619729               -2.39729106               -0.43905599               28.37939850                0.44133742
              12.44577829                9.97598640               46.76786239                0.39581590                1.78530749                0.43767703               -2.79365903               -0.49244794               29.70653422                0.77815459
              13.46098430                9.64517854               46.81856968                0.45811331                1.27984962                0.85304205               -3.50177224               -0.70579743               32.11929522                1.45989966
              14.47137528                9.31041144               46.89450414                0.57565302                0.83816724                1.38922271               -5.01761161               -1.02648297               23.90447122                3.28771423
              15.47774764                8.98018003               46.76738561                0.68454830                0.80257176                0.77712156               -2.69306612               -0.68377429                7.35272091                1.04776634
              16.48742671                8.66691386               46.50960194                0.88484290                0.96790702                1.11431510               -3.78233058                0.20127934                0.88758803               -1.32393982
               3.47273007                1.95065254               48.70416018                1.00000000               -0.56264704               -0.64277558                2.21160626               -0.14581186               -1.20144218                1.09419210
               4.46710360                1.62749107               48.54170453                1.00000000               -0.48112385               -0.37596880                1.40361748               -0.08478748               -1.64929430                0.18842213
               5.46310760                1.30350000               48.37105224                1.00000000               -0.34798180               -0.12598905                0.62097571               -0.10879762               -1.72990165               -0.21245657
               6.46014397                0.97618071               48.20746516                0.69652500               -0.58648701                0.21319033               -0.15409652               -0.63954290               -1.23246913               -0.91472924
               7.45137786                0.63453299               48.04716624                0.75625902               -0.51093163                0.35423223               -0.67650913               -0.23622777               -0.73125980                0.10989755
               8.44992533                0.28260219               47.89695542                0.77376169                0.07859947                0.51100429               -1.25343078               -0.29058706               -0.09989892               -0.02084176
               9.45294985               -0.07466949               47.75444835                0.67401088                0.63192276                0.75832313               -1.87500711               -0.32512870                1.17985031               -0.48086103
              10.46256379               -0.43376707               47.63658000                0.58555469                1.48764048                0.89640030               -2.32190185                0.08556961                3.01610134               -0.67644940
              11.48270265               -0.76996851               47.54070162                1.00000000                1.21392487                0.08697353               -0.70046396               -0.90569451                2.19393825                0.83544671
              12.48684229               -1.08486328               47.39607611                1.00000000                0.43711711                0.31199595               -1.16052624               -0.05875687               -0.40099275                0.14341042
              13.49144500               -1.39779168               47.24706793                1.00000000                0.46027107                0.52530716               -1.86922907               -0.11901191               -0.56959328               -0.52937516
               3.79443343                2.94422479               48.63471025                1.00000000               -0.46014288               -0.62054586                1.95575441               -0.00422663               -0.30046908                1.45455336
               4.78983200                2.62373138               48.47231783                1.00000000               -0.33793128               -0.34646982                1.14657694                0.04716953               -0.48642244                0.28119117
               5.78767480                2.30224011               48.30683473                1.00000000               -0.07999785               -0.09078494                0.34516193                0.01262664               -0.43436816               -0.37354076
               6.78823204                1.97831261               48.14568498                0.44720186                0.40650181                0.22925106               -0.45065262               -0.71411043                0.79136483               -1.27069343
               7.79580484                1.63807532               48.00462883                0.55936652                0.66943312                0.19849084               -1.15664271               -0.31606343                1.56846290                0.27283810
               8.80162070                1.28771223               47.86269219                0.59518444                0.60391732                0.54842273               -1.88557293               -0.35778348                1.83318535                0.00001979
               9.80788318                0.93291374               47.72846108                0.44146042                0.47241458                0.91882098               -2.68198694               -0.45247733                4.00658456               -1.02223613
              10.81106900                0.57519694               47.62951755                0.30025276               -0.43446849                1.42360844               -3.28185523               -0.40183631                8.03529098               -1.84293785
              11.79919381                0.23090122               47.57274242                0.85463079               -0.54513467                0.06191365               -0.57130302               -1.47805367                4.95589967                1.00592836
              12.80016630               -0.08174332               47.42821032                1.00000000                0.19947337                0.26912364               -0.83616828                0.01117837                0.27715609                0.29118897
              13.80318328               -0.39253861               47.27911394                1.00000000                0.30169796                0.46959249               -1.50103558               -0.01789157                0.05763757               -0.54200956
               4.11363235                3.93824163               48.57337442                1.00000000               -0.36006807               -0.57142372                1.67897283               -0.00834295               -0.02800844                1.81119358
               5.11003167                3.62056167               48.40504222                1.00000000               -0.24267246               -0.27436116                0.88818525                0.02102937                0.06579372                0.31148693
               6.10877890                3.30168430               48.23905082                0.80244888               -0.00025582                0.01868005                0.08117345               -0.07571671                0.31498697               -0.88926734
               7.11002655                2.98076573               48.07561681                0.00010000                1.34390329                0.28450358               -0.72023385               -1.18223336                3.01840114               -1.70210983
               8.13565697                2.63850281               47.96287141                0.00010000                1.89523416                0.27007068               -1.71875349               -2.35058791                4.23438788               -0.27870253
               9.14793124                2.29357064               47.82659212                0.00010000                1.03793117                0.84411548               -2.52126027               -2.58910712                3.03133358                0.98690261
              10.15641559                1.94370693               47.68823994                0.00010000                0.43041716                1.42521065               -3.29973254               -2.95974720                5.23659206                1.90967835
              11.15653958                1.59470510               47.59244377                0.00010000               -2.31668781                2.11815857               -4.85028466               -4.11548273               13.43313826                2.00117132
              12.11008183                1.23126976               47.60891617                0.23967523               -2.30169466                0.10901602               -0.11552089               -2.63797996                9.07826485                1.09046215
              13.11050569                0.92051920               47.46351724                1.00000000                0.12979574                0.15566184               -0.42912742               -0.05471693                0.60320865                0.59336712
              14.11267775                0.61160017               47.30982775                1.00000000                0.21720626                0.35306922               -1.13030074               -0.03622024                0.18868386               -0.51437162
               4.42962647                4.93279631               48.51182879                1.00000000               -0.28165632               -0.50398998                1.39934616               -0.03134538                0.10326226                1.60165128
               5.42680991                4.61824416               48.33644032                0.96168383               -0.18350295               -0.17822685                0.62756736               -0.01197242                0.23942594                0.08566726
               6.42595641                4.30261371               48.16408965                0.32236665                0.04794788                0.14114685               -0.11332728               -0.16866279                1.03293895               -1.34881383
               7.42776887                3.98400268               48.00432736                0.00010000                0.50158760                0.40020270               -0.98113748               -1.37167963                4.85077609               -2.06895194
               8.43598817                3.64347673               47.90741939                0.00010000                0.84327864                0.69733261               -1.71104431               -3.35156558                8.01617800               -0.01314580
               9.44463444                3.30459454               47.81091169                0.00010000                0.57828061                1.08522292               -2.34066742               -3.82634086                8.24831263                2.31264112
              10.44755378                2.96141796               47.71938747                0.00010000               -0.17189658                1.55047213               -2.82174889               -4.26393875                9.75875085                4.69991396
              11.44119651                2.61756011               47.65467925                0.00010000               -1.34668286                1.48552286               -2.30097047               -6.18250505               13.44064250                5.30516780
              12.42062012                2.23308155               47.64448860                0.01044570               -1.12274765                1.54854394               -0.38733379               -2.62655489                8.87149718               -1.60148666
              13.41874156                1.92136992               47.50200092                0.27238425               -0.01615950                0.23554452               -0.22104352                0.24113426                1.06275900                1.21945907
              14.42029693                1.61452278               47.34219511                0.75402888                0.15553751               -0.31475334               -0.77632887                0.60525762                0.14083579               -0.18477030
               4.74210975                5.92816183               48.44691373                1.00000000               -0.21349282               -0.42286396                1.12609821               -0.05337171                0.22891381                1.24149261
               5.73997482                5.61699714               48.26471713                0.62836353               -0.12313139               -0.05761902                0.35550161               -0.05294744                0.42467022               -0.38147385
               6.73964712                5.30450724               48.08669919                0.11774557                0.08775605                0.27280890               -0.37022448               -0.23448058                1.50654506               -1.77680077
               7.74172994                4.98876978               47.92588023                0.00010000                0.41933371                0.36933662               -1.11287052               -1.33109765                7.61827163               -0.37207574
               8.74803380                4.65244946               47.86925269                0.00010000                0.58666244                0.83880018               -1.60197108               -2.45083686               12.25157729                1.41058068
               9.75346319                4.31527510               47.79927731                0.00010000                0.50687242                0.97074696               -2.11826445               -2.70822445               11.81379777                2.76923838
              10.75817125                3.97471637               47.73298257                0.00010000                0.38813479                1.02525307               -2.31363771               -3.12599781               12.54615217                3.76434441
              11.76122589                3.62441556               47.67807438                0.00010000               -0.22151609                0.74300685               -2.02576543               -3.65093499               12.93345251                3.07952448
              12.75374093                3.26224064               47.62000135                0.01396749               -1.36693739                2.33429889               -1.41905764               -2.12791804               11.85703384               -0.95429142
              13.73388714                2.92523009               47.55057786                0.23261985               -0.76318671                0.51552961               -0.38891373               -0.45950735                5.38250875                2.05424963
              14.73847719                2.60530510               47.37977308                0.72478225                0.45900494               -0.94455471               -1.08441044                0.59853931                0.21540095               -0.84282960
               5.05088842                6.92433903               48.37854540                1.00000000               -0.14828702               -0.33725440                0.86132348               -0.03965796                0.05394213                0.93290780
               6.04940555                6.61709178               48.18669234                0.46951169               -0.06971303                0.04793054                0.11642264               -0.06105061                0.42595853               -0.73948694
               7.04949416                6.30806989               48.00240918                0.03800717                0.18995719                0.43291294               -0.61005160               -0.48451045                4.27204413               -2.31232979
               8.05320469                5.99138941               47.88709236                0.00010000                0.54859764                0.28882845               -0.64119506               -1.27639702               11.24763948                2.20948588
               9.06046611                5.66025273               47.83998007                0.00010000                0.74991737                0.68550951               -1.53986218               -2.08517096               14.64769905                2.12465214
              10.06820304                5.32400948               47.78924024                0.00010000                0.77136250                0.74209620               -1.97012475               -2.36530673               14.70629621                2.98440667
              11.07589336                4.98192302               47.73989354                0.00010000                0.62252504                0.64118616               -2.15901240               -2.72874940               14.98525838                3.51545074
              12.08065354                4.63242025               47.69207455                0.00010000                0.06769358                0.75262998               -2.06671780               -2.98832156               15.03949201                3.12869271
              13.07724723                4.27976752               47.64348880                0.02601596               -0.70832970                1.32335722               -1.66224853               -2.34177107               14.77016631                2.43932419
              14.06648695                3.93168051               47.59482000                0.25355785               -0.25647738                0.58078729               -0.99203011               -0.58503774                7.27663927                1.96121340
              15.07211769                3.59563168               47.40482394                0.74642148                0.56307385               -0.42064338               -1.97552142                0.12380943                0.13063032               -1.78077568
               5.35581110                7.92141674               48.30765457                1.00000000               -0.07881475               -0.24994183                0.61321990               -0.03530061                0.01182643                0.75767107
               6.35502296                7.61795575               48.10763600                0.39651466               -0.00759116                0.11458648               -0.11145013               -0.03159844                0.31090811               -0.78953901
               7.35565928                7.31316550               47.91363787                0.00426760                0.44981031                0.54276149               -0.82476604               -0.72305607                7.59165898               -2.58387929
               8.36401916                6.99454635               47.85876793                0.00010000                0.90255171                0.40566549               -1.09479778               -1.42904884               15.33567849                1.55365282
               9.37371031                6.66615965               47.81428770                0.00010000                1.02338060                0.52531766               -1.55190456               -1.93390487               16.60535343                2.17864564
              10.38448677                6.33011702               47.77947270                0.00010000                1.07375886                0.51770818               -1.94986574               -2.26842283               17.44735632                2.96416470
              11.39518549                5.98754010               47.74605346                0.00010000                0.95640887                0.48311873               -2.16628380               -2.51738065               17.71411123                3.57357129
              12.40361495                5.63946816               47.71167876                0.00010000                0.62298722                0.56093809               -2.18694137               -2.50443310               17.60149261                3.77077615
              13.40764524                5.28870779               47.67358077                0.03870161                0.13536381                0.65061789               -1.98844232               -1.98038008               17.06422918                3.32576068
              14.40632223                4.93684583               47.62961659                0.27494959                0.27029024                0.53229661               -1.52994280               -0.60873062                8.39530114                1.49603072
              15.41305104                4.59689224               47.42090339                0.76480936                0.67288132                0.39067175               -2.62739283                0.09809600                0.14077406               -2.11740063
               5.65710439                8.91934020               48.23592097                0.97241084               -0.00795682               -0.16731545                0.37006127               -0.03602145                0.01741122                0.70763733
               6.65702482                8.61938351               48.02841228                0.38144861                0.06690227                0.16930542               -0.33404615                0.00998020                0.14008307               -0.78281585
               7.65844244                8.31892512               47.82332231                0.00010000                0.73023707                0.56334317               -1.02772083               -0.87579356                9.59315856               -2.59714638
               8.67162956                7.99950272               47.80433787                0.00010000                1.38874532                0.45818347               -1.34976262               -1.71990080               19.26380690                0.03946120
               9.68621734                7.67075909               47.78513552                0.00010000                1.49122884                0.36071691               -1.69475452               -1.99064383               19.78764861                1.69129961
              10.70145414                7.33436364               47.76819916                0.00010000                1.49886353                0.32344340               -2.02013336               -2.16520567               20.40319917                2.67294846
              11.71619461                6.99158539               47.75270473                0.00010000                1.39715250                0.33545571               -2.27534295               -2.31854917               20.73712353                3.49205725
              12.72939719                6.64363901               47.73471021                0.00010000                1.20336731                0.34265065               -2.42973509               -2.29293997               20.43559433                4.17826237
              13.74026196                6.29277988               47.70793782                0.05229120                0.83653476                0.29997131               -2.42635495               -1.81095703               18.98498804                4.18316056
              14.74612789                5.94232644               47.65944153                0.29156432                0.68624213                0.59746969               -1.97495624               -0.60393027                9.01191034                1.24617797
              15.75398680                5.60344512               47.43301533                0.77485942                0.78589160                0.78072710               -3.08706038                0.08103886                0.11949705               -2.19412677
               5.95500405                9.91807043               48.16415513                0.96136188                0.06335850               -0.08260045                0.13294679               -0.03397653                0.00582241                0.70718092
               6.95563764                9.62134186               47.94921677                0.41603888                0.15100704                0.21834060               -0.56214301                0.02818826               -0.02283939               -0.74351171
               7.95802419                9.32443236               47.73360570                0.00010000                1.10747712                0.51985140               -1.23186576               -1.08281533               11.31336886               -2.26337468
               8.97778718                9.00371002               47.74479581                0.00010000                2.05061628                0.26160204               -1.53434471               -1.95611361               22.83659236               -0.24301480
               9.99903652                8.67337399               47.74971579                0.00010000                2.12845871                0.06361977               -1.84850813               -1.87658609               23.01775864                1.10316523
              11.02035636                8.33658589               47.75315196                0.00010000                2.02513117                0.11855218               -2.14951717               -1.83517056               23.56435046                2.06948999
              12.03953914                7.99424921               47.75721867                0.00010000                1.81026537                0.23423185               -2.44343577               -1.95487563               24.12090275                2.93970311
              13.05656166                7.64632117               47.76075527                0.00010000                1.65997573                0.32458414               -2.78370971               -2.12011473               23.89451814                4.02663902
              14.07273866                7.29470721               47.75154407                0.06880993                1.35083620                0.27695574               -3.08798127               -1.68710330               20.66037217                5.70312305
              15.08357839                6.94879523               47.68686153                0.30579183                0.98479081                0.69951585               -2.35075041               -0.51408608                9.02846308                1.19772029
              16.09243447                6.61250678               47.44352523                0.77729644                0.88560877                0.98197997               -3.45168906                0.06002365                0.11088736               -2.21390479
               6.24988201               10.91768819               48.09254416                0.93958450                0.13446482                0.00616717               -0.11077085               -0.03561561               -0.00780151                0.62544633
               7.25122666               10.62375032               47.87041046                0.46618353                0.22679789                0.26563558               -0.78974668                0.01306823                0.04701736               -0.60324380
               8.25441797               10.32932215               47.64920403                0.00010000                1.61695036                0.48763564               -1.43824164               -1.43841657               12.99375358               -1.38406799
               9.28356566               10.00473476               47.68538521                0.00010000                3.06958917               -0.38613836               -1.73118849               -1.70517957               25.93366932               -0.17214087
              10.31580975                9.67203148               47.71053220                0.00010000                3.01549228               -0.28665008               -2.02863711               -1.28971939               25.93562413                0.57078298
              11.34387551                9.33673469               47.73203566                0.00010000                2.57760347               -0.07466687               -2.31873049               -1.07298869               26.54343714                1.15999241
              12.36736182                8.99627003               47.75480594                0.00010000                2.13306927                0.18816672               -2.63870975               -1.17225700               27.50862885                1.74060472
              13.38653689                8.65013069               47.78154942                0.00010000                1.83420102                0.46240076               -3.11226797               -1.47426311               28.67021266                2.63504556
              14.40404584                8.29831900               47.81470555                0.09801917                1.57548520                0.72740677               -4.16280217               -1.24111979               22.69526837                4.94489578
              15.41804660                7.95631676               47.71441947                0.32798277                1.18591673                0.78640968               -2.64676657               -0.46973464                8.01016275                1.11814421
              16.42776417                7.62308472               47.45317032                0.76765310                0.97175752                1.11350879               -3.75758712                0.03706563               -0.01720318               -1.82225361
               6.54216748               11.91819377               48.01923758                0.97909091                0.20975661                0.05055849               -0.35243957                0.07462649                0.32273567                0.53852209
               7.54426504               11.62665457               47.79361047                0.78254683                0.30519705                0.29042475               -1.02870128                0.10340391                0.74976858               -0.47977330
               8.54827142               11.33418507               47.57627878                0.47066608                2.83546062                0.48629269               -1.67566340               -2.14802037               14.72911697               -0.76893330
               9.60097426               10.99598725               47.62953016                0.36924038                4.64853960               -0.87475117               -1.97214228               -1.58634493               28.37665314               -0.24693808
              10.64124221               10.66764099               47.66811852                0.35981515                3.68418887               -0.43904924               -2.26976707               -0.50148870               28.25387329                0.17036052
              11.67465803               10.33509255               47.70273261                0.36852394                3.07278939               -0.16421318               -2.55257519               -0.40316962               28.98256397                0.49016276
              12.70269800                9.99801254               47.73953417                0.39481610                2.51846995                0.17425164               -2.86093343               -0.44255019               30.28518588                0.80594886
              13.72502743                9.65556919               47.78381811                0.44857627                1.95160958                0.54384982               -3.37151053               -0.58880594               32.27867258                1.36012035
              14.74173019                9.30925535               47.84512613                0.57039032                1.21952700                1.09363516               -4.51293159               -0.78385319               25.38874690                2.94047673
              15.74941797                8.96452342               47.73949182                0.68513963                0.89548437                0.82066587               -2.84830808               -0.58678216                9.00881372                1.02382029
              16.75963988                8.63477695               47.47053631                0.88204349                1.02219047                1.16922371               -3.95637931                0.21292377                0.87707544               -1.40579560
               3.62733956                2.03219170               49.72708464                1.00000000               -0.60018594               -0.68803214                2.37181079               -0.16420699               -1.16570201                1.06205811
               4.62133770                1.70001538               49.55605606                1.00000000               -0.51051744               -0.38855703                1.46425177               -0.09994389               -1.59406151                0.18080059
               5.61712921                1.36695838               49.37717220                1.00000000               -0.36516468               -0.10798159                0.59853468               -0.12621658               -1.64498159               -0.21509350
               6.61403440                1.03037062               49.20545552                0.69578376               -0.66643123                0.27068023               -0.25630027               -0.60639583               -0.97104776               -0.90059446
               7.60380058                0.68037783               49.04009954                0.75120307               -0.71554591                0.48637970               -0.76330470               -0.23735393               -0.28854116                0.05951867
               8.59972349                0.31988389               48.88410544                0.76737113               -0.24095856                0.63610167               -1.35630337               -0.30069325                0.30542173               -0.03119729
               9.59898141               -0.04910076               48.73514680                0.66223176                0.11403205                0.94442995               -2.02208169               -0.57868068                1.57621642               -0.41559068
              10.60200413               -0.42913974               48.61163166                0.53609642                1.39602123                1.27575300               -2.66728428               -0.21947488                4.34837973               -0.65210669
              11.62690184               -0.79511720               48.53473424                0.74116646                1.52568916                0.10444628               -0.96364688               -1.86265807                2.88710364                0.95301923
              12.63251791               -1.11708505               48.38499849                1.00000000                0.55917979                0.30996552               -1.28766684               -0.06382948               -0.38729300                0.13290283
              13.63808543               -1.43654908               48.22703025                1.00000000                0.55675228                0.57757110               -2.11714676               -0.15445998               -0.67015805               -0.43358147
               3.95787382                3.02531138               49.65499641                1.00000000               -0.49188931               -0.66180103                2.10059262               -0.00408383               -0.29387237                1.41128176
               4.95295492                2.69612981               49.48401460                1.00000000               -0.35921963               -0.35713591                1.19096358                0.05007709               -0.47294749                0.27269005
               5.95068942                2.36587856               49.31007032                1.00000000               -0.08471007               -0.07147702                0.29923447                0.01872830               -0.41187614               -0.36928949
               6.95126072                2.03307742               49.14051260                0.46329274                0.29904936                0.28034714               -0.58850758               -0.62352859                0.88599435               -1.24565032
               7.95667041                1.68524163               48.99250879                0.57412482                0.50975638                0.32023038               -1.27464585               -0.26014792                1.66503014                0.19767595
               8.96145585                1.32624490               48.84309716                0.60718575                0.55180040                0.64273096               -2.04127954               -0.33269167                1.80722600                0.02334005
               9.96770642                0.96034354               48.70028562                0.44675454                0.56808758                1.04873261               -2.95607271               -0.68256685                3.87029697               -0.77860316
              10.97281760                0.58361779               48.59291343                0.26955197               -0.77292523                1.80781877               -3.99470349               -1.23170040                9.74040038               -1.72623506
              11.95224791                0.20592726               48.56651139                0.56390285               -1.01110223                0.03042421               -1.19321926               -2.82532531                7.23401309                1.57165039
              12.95259556               -0.11398540               48.42028652                1.00000000                0.18784759                0.26002905               -0.80190396               -0.00534775                0.52315944                0.34743574
              13.95600487               -0.43077337               48.26336371                1.00000000                0.34093098                0.50083472               -1.64745873               -0.01550814                0.02980386               -0.45274793
               4.28562103                4.01895568               49.59077303                1.00000000               -0.38489738               -0.60443998                1.80060071               -0.00688857               -0.02868232                1.75613063
               5.28177206                3.69287266               49.41405125                1.00000000               -0.25324362               -0.28103998                0.91344245                0.02722041                0.05576222                0.30294680
               6.28055616                3.36552884               49.23951239                0.81021190                0.02143543                0.03318237                0.01230953               -0.06787499                0.29619600               -0.83789667
               7.28220077                3.03597756               49.06754561                0.00010000                1.24369900                0.33296027               -0.89376501               -1.07680519                2.92730170               -1.65194389
               8.30543014                2.68678244               48.94494057                0.00010000                1.78834853                0.36461532               -1.85042511               -2.17908426                3.96177926               -0.07893780
               9.31796774                2.33273851               48.80034645                0.00010000                1.12635224                0.90789723               -2.71191337               -2.60571281                2.73442746                1.44655928
              10.32795719                1.97187389               48.65379298                0.00010000                0.69093298                1.46761508               -3.58689536               -3.35790862                4.50171423                2.84265141
              11.33178640                1.60701664               48.54264306                0.00010000               -2.99793335                2.34890724               -5.02956317               -6.13443050               15.25115362                3.95150964
              12.26799852                1.20549128               48.60767778                0.20905315               -3.13374063                0.29275130               -0.13445637               -4.09286200               12.06183709                1.33765417
              13.26911159                0.88811553               48.46001163                1.00000000                0.16763514                0.12660511               -0.30515343               -0.05688683                0.81550071                0.59398925
              14.27135122                0.57346761               48.29829486                1.00000000                0.22396356                0.35225551               -1.15667853               -0.04141816                0.10700190               -0.42918255
               4.60990209                5.01322258               49.52629074                1.00000000               -0.29759184               -0.52826280                1.49522952               -0.03342856                0.10748397                1.55329443
               5.60692618                4.69050901               49.34278142                0.93145764               -0.18375366               -0.17889480                0.63617023               -0.01564542                0.25858214                0.06839580
               6.60622702                4.36654221               49.16262530                0.31125104                0.07724208                0.16091254               -0.19127867               -0.16640018                0.99617032               -1.31085227
               7.60847102                4.03973662               48.99354312                0.00010000                0.50503787                0.46027990               -1.16613769               -1.28973480                4.82903027               -1.94214218
               8.61632778                3.69253393               48.88921884                0.00010000                0.78895594                0.78579305               -1.91644804               -3.16653729                8.04937222                0.51936188
               9.62425014                3.34440285               48.78608075                0.00010000                0.49711672                1.18747358               -2.60738940               -3.87794701                8.31501968                3.14220050
              10.62627011                2.98969584               48.68933024                0.00010000               -0.38692678                1.65565515               -3.16615915               -4.69349992               10.37771946                6.03938211
              11.61651160                2.63059594               48.62962804                0.00010000               -1.84891661                1.60532463               -2.72612949               -7.93246023               15.49403395                7.54249753
              12.58929178                2.21178229               48.63941245                0.00010000               -1.65150566                2.47144738               -1.02071919               -3.47745721               11.03627841               -1.76408963
              13.58348149                1.88854671               48.50099398                0.23592623               -0.24097211                0.57186902               -0.00323793                0.37918429                1.60717367                0.86374782
              14.58447234                1.57627174               48.33467759                0.72573191                0.09908510               -0.46247846               -0.69662908                0.97339374                0.16276164               -0.52712689
               4.93037962                6.00839043               49.45854808                1.00000000               -0.22400906               -0.43814583                1.20095875               -0.05652948                0.21344804                1.20379409
               5.92813953                5.68929476               49.26820155                0.60381719               -0.11895378               -0.05139500                0.34128452               -0.05813110                0.42985216               -0.38964789
               6.92800054                5.36874709               49.08239763                0.10741901                0.11374124                0.31486834               -0.48146074               -0.23469472                1.53581381               -1.76877810
               7.93041435                5.04518316               48.91379634                0.00010000                0.47163162                0.44802664               -1.30250556               -1.20742583                7.77536045                0.13144661
               8.93743317                4.70249830               48.85211159                0.00010000                0.64162703                0.92595637               -1.82101490               -2.27386265               12.48595872                1.95254032
               9.94324689                4.35648798               48.77674244                0.00010000                0.52304628                1.08585996               -2.38145472               -2.63360768               12.17824310                3.52836710
              10.94789410                4.00498699               48.70831763                0.00010000                0.39019296                1.16588432               -2.61811307               -3.26518955               13.35925609                4.76395828
              11.95105075                3.63912313               48.65628395                0.00010000               -0.36977462                0.93212489               -2.37831772               -4.14582422               14.24640341                3.89936558
              12.94049861                3.25492023               48.60455103                0.00701055               -1.94224654                3.37121660               -1.75982774               -2.51385128               13.75705339               -0.98289369
              13.91220582                2.89955291               48.54704169                0.21247365               -1.25647867                1.21589968               -0.41175184               -0.50162001                6.60614350                1.68346573
              14.91536903                2.56421804               48.36794876                0.70675316                0.31632134               -0.93707025               -1.30489541                0.67809689                0.30291700               -1.77803212
               5.24696284                7.00445967               49.38744757                1.00000000               -0.15559423               -0.34572936                0.92033958               -0.03938456                0.04524766                0.90812197
               6.24540689                6.68948111               49.18770710                0.45218273               -0.06590519                0.05749141                0.08642024               -0.05087412                0.42870912               -0.72228202
               7.24564473                6.37283958               48.99577707                0.02874864                0.25821994                0.47474384               -0.72598509               -0.45841673                4.64576422               -2.26139965
               8.25057129                6.04869716               48.88003490                0.00010000                0.69504874                0.39789554               -0.78213902               -1.07460139               11.54129490                2.56025921
               9.25954571                5.71105306               48.82348374                0.00010000                0.92589968                0.74090325               -1.76465359               -1.84084748               14.73423459                2.57235547
              10.26908929                5.36612005               48.76834808                0.00010000                0.93927312                0.79610937               -2.21228070               -2.21132208               15.18910625                3.56422834
              11.27833117                5.01301353               48.71714071                0.00010000                0.72862988                0.70298045               -2.40399849               -2.71426796               15.78880369                4.13837700
              12.28366188                4.64923843               48.67041031                0.00010000                0.01269031                0.93731196               -2.29346393               -3.21555032               16.25320763                3.61699129
              13.27858498                4.27920662               48.62626963                0.02180584               -0.97553048                1.82084352               -1.82937462               -2.61381569               16.43061010                2.64636803
              14.26415127                3.91286470               48.58452099                0.24147909               -0.49404811                1.05712716               -1.10581835               -0.57105453                8.31032521                1.62632205
              15.26870401                3.55753033               48.38337798                0.73300073                0.45527391               -0.07677487               -2.30744499                0.14120831                0.21643331               -2.41038584
               5.55954904                8.00147584               49.31400260                1.00000000               -0.08069113               -0.25592832                0.65567195               -0.03534192                0.00906022                0.74514892
               6.55874213                7.69044459               49.10632571                0.38247003                0.00335554                0.12613097               -0.15048217               -0.01921937                0.31483408               -0.76305837
               7.55961616                7.37824196               48.90480354                0.00010000                0.59833529                0.57402651               -0.94500834               -0.64977719                7.81962750               -2.51503353
               8.57070884                7.05314107               48.84674943                0.00010000                1.17885892                0.49059681               -1.31277005               -1.22236896               15.71955869                1.52724039
               9.58319333                6.71731636               48.79772460                0.00010000                1.31755714                0.53694848               -1.77058401               -1.71054403               16.97262722                2.49408601
              10.59705998                6.37241016               48.75893611                0.00010000                1.36485087                0.50443872               -2.16918769               -2.07398076               17.97960541                3.37412194
              11.61049035                6.01904660               48.72353632                0.00010000                1.17433359                0.49357848               -2.35388009               -2.40351529               18.51161923                3.97662274
              12.62054665                5.65786937               48.68930950                0.00010000                0.70528381                0.67170354               -2.31482135               -2.51959495               18.71153263                4.04720478
              13.62459603                5.29133710               48.65359779                0.03638033                0.09571794                0.88916898               -2.04990199               -2.13400507               18.51711128                3.34704558
              14.62246101                4.92069545               48.61393007                0.26767082                0.21329523                0.72301246               -1.60494074               -0.66508087                9.26120956                1.28139030
              15.62886193                4.56268254               48.39325688                0.75412964                0.64009193                0.69463522               -2.85598870                0.12576513                0.17089228               -2.33851832
               5.86831850                8.99934110               49.23977759                0.96541196               -0.00621164               -0.17358864                0.40223531               -0.03793333                0.02072136                0.70178760
               6.86825638                8.69200373               49.02482755                0.36820600                0.08171063                0.18508107               -0.38363657                0.01925798                0.15115196               -0.75700138
               7.86995271                8.38432011               48.81245283                0.00010000                0.93965674                0.59716880               -1.15175250               -0.81307218                9.80172406               -2.52758392
               8.88704952                8.05850909               48.78991088                0.00010000                1.80565100                0.45880702               -1.54332808               -1.57139352               19.68170715                0.15554546
               9.90606573                7.72179203               48.76716172                0.00010000                1.94149566                0.30565512               -1.91251574               -1.82172042               20.26196724                1.90858658
              10.92587943                7.37620882               48.74707962                0.00010000                1.93679642                0.23796293               -2.21843754               -1.96650330               20.99336492                2.96349984
              11.94480166                7.02288510               48.72936300                0.00010000                1.75500303                0.26680732               -2.40938335               -2.11615196               21.49900563                3.75362745
              12.96097949                6.66267251               48.71042814                0.00010000                1.41385656                0.34646858               -2.45036117               -2.15201215               21.42046117                4.27787803
              13.97307879                6.29699000               48.68435637                0.05101386                0.92623605                0.41003860               -2.32689430               -1.91371551               20.29989030                4.01821358
              14.97950421                5.92732495               48.63937888                0.28758952                0.70831720                0.68319095               -2.01337327               -0.72293524                9.80034648                1.09561267
              15.98724513                5.57142304               48.40121126                0.76587886                0.77409230                0.93787457               -3.20997982                0.08658138                0.11820218               -2.26443486
               6.17346513                9.99800407               49.16558715                0.95551153                0.06831605               -0.08845546                0.15535645               -0.03487171                0.00525600                0.70198175
               7.17414829                9.69414621               48.94330818                0.40306522                0.16921092                0.23789579               -0.62105748                0.03451724               -0.00811361               -0.72137910
               8.17684934                9.39018534               48.72066408                0.00010000                1.38303797                0.55685119               -1.36027037               -1.07520098               11.53345018               -2.20109518
               9.20180905                9.06231721               48.72855551                0.00010000                2.61049265                0.18066578               -1.72471417               -1.89253162               23.28433181               -0.11828680
              10.22905920                8.72342946               48.73025474                0.00010000                2.74139012               -0.08283720               -2.05867227               -1.76222100               23.53927303                1.27941043
              11.25663685                8.37716942               48.73082214                0.00010000                2.63222150               -0.05076276               -2.33141767               -1.65773177               24.18453345                2.27676828
              12.28170363                8.02438275               48.73239557                0.00010000                2.33823311                0.06105650               -2.53057945               -1.71948272               24.82954150                3.11445812
              13.30340151                7.66479874               48.73352612                0.00010000                1.99828231                0.18068452               -2.66547792               -1.85324675               24.71400063                4.03511219
              14.32166927                7.29953787               48.72282273                0.06726472                1.50838780                0.24225353               -2.68367868               -1.66710448               21.92181716                5.24540363
              15.33356927                6.93435927               48.66306596                0.30449455                1.03640541                0.74082341               -2.36907424               -0.65134808                9.85977756                1.09130461
              16.34239738                6.58144004               48.40838094                0.76979742                0.88281153                1.04457621               -3.50312420                0.06091944                0.09511677               -2.25023957
               6.47533677               10.99757199               49.09148394                0.93252578                0.14286769                0.00233988               -0.09945303               -0.03680690               -0.00506160                0.61717641
               7.47676545               10.69676164               48.86217829                0.45118924                0.24704592                0.28772102               -0.85796621                0.01521380                0.06772002               -0.58714764
               8.48027769               10.39545713               48.63416273                0.00010000                1.95946539                0.52768600               -1.57423425               -1.52748593               13.21631790               -1.34172412
               9.51595476               10.06212241               48.66716544                0.00010000                3.78457011               -0.57976978               -1.92451404               -1.73113633               26.39603180               -0.09461118
              10.55596910                9.72013528               48.68928056                0.00010000                3.79083743               -0.51120549               -2.23712190               -1.23251430               26.48927211                0.67780316
              11.59177151                9.37519357               48.70805415                0.00010000                3.34067952               -0.32118562               -2.49100558               -0.95760606               27.19341797                1.28340837
              12.62278269                9.02410623               48.72815154                0.00010000                2.84939629               -0.08669154               -2.69333402               -1.01072484               28.19847500                1.84500419
              13.64875943                8.66628620               48.75134617                0.00010000                2.36967411                0.15224170               -2.89559058               -1.23534423               29.20561871                2.62152457
              14.67017617                8.30183507               48.77748848                0.09495750                1.79078248                0.44209723               -3.23310357               -1.11687724               23.96644139                4.50459933
              15.68457508                7.94214142               48.68757665                0.33025422                1.20629136                0.80762377               -2.67200311               -0.52880173                9.09070182                1.06022609
              16.69430200                7.59231456               48.41515102                0.76201701                0.97269117                1.13129650               -3.76343890                0.04140715               -0.05298429               -1.83678945
               6.77434969               11.99805086               49.01570052                0.97470564                0.22177372                0.04788745               -0.35267693                0.08626778                0.31356252                0.52983488
               7.77656742               11.69990063               48.78293204                0.77410762                0.32945864                0.31389904               -1.10777975                0.11460692                0.75677270               -0.46915089
               8.78093886               11.40073906               48.55878992                0.46772930                3.29703705                0.52819311               -1.82681408               -2.39282442               14.93591707               -0.74316153
               9.84250816               11.05072181               48.60884383                0.36912050                5.51994479               -1.14005957               -2.17517651               -1.72134487               28.83241995               -0.21468199
              10.89133775               10.71320535               48.64441181                0.35988031                4.55028107               -0.69299301               -2.48400296               -0.46193925               28.81790253                0.21994075
              11.93351379               10.37074571               48.67638472                0.36830360                3.95293730               -0.44478553               -2.72552922               -0.35359407               29.66769226                0.54629597
              12.97039650               10.02264892               48.71064373                0.39383946                3.37259998               -0.14573072               -2.91037393               -0.38372533               31.01833694                0.84766369
              14.00096578                9.66784357               48.75113947                0.44104917                2.65400035                0.15573789               -3.11661612               -0.49282010               32.81518645                1.31382535
              15.02347651                9.30837982               48.80424551                0.56861720                1.57739759                0.65447483               -3.52234295               -0.53655741               26.67924633                2.65700517
              16.03251374                8.95051175               48.71041945                0.68791494                0.97013637                0.83703309               -2.91160634               -0.42182715               10.15629319                0.97683458
              17.04287923                8.60406597               48.43047435                0.87978874                1.03654979                1.17514039               -3.97005916                0.21314574                0.84274930               -1.42849996
               3.79147318                2.11607016               50.75159639                1.00000000               -0.63383722               -0.73081284                2.52443008               -0.18337462               -1.11332222                1.02035908
               4.78513481                1.77519000               50.57098956                1.00000000               -0.53323398               -0.40000058                1.51742047               -0.11697969               -1.51172118                0.17140478
               5.78080850                1.43340190               50.38302294                1.00000000               -0.36695683               -0.08877721                0.56474753               -0.14368972               -1.52091051               -0.21627007
               6.77779568                1.08805466               50.20233915                0.69203194               -0.69256928                0.32548625               -0.37883099               -0.55307381               -0.62246825               -0.88463928
               7.76695712                0.73090486               50.03190014                0.73935247               -0.84045869                0.62829388               -0.92556859               -0.24661575                0.31660258                0.01334546
               8.76098650                0.36399480               49.86982936                0.74794450               -0.50045840                0.79432144               -1.58395785               -0.30800162                0.95661380               -0.05601344
               9.75694795               -0.01325894               49.71400672                0.62988977               -0.55212761                1.19544483               -2.34184378               -0.81588663                2.35701127               -0.35284578
              10.74994395               -0.40937273               49.58323432                0.45493511                0.50649757                1.90335706               -3.18809785               -1.08944517                6.38997190               -0.28535023
              11.76707790               -0.81446243               49.52142868                0.39952652                1.84282311                0.38531129               -2.23452776               -2.22812044                2.96045321                2.05277684
              12.78680041               -1.15278130               49.37032277                1.00000000                1.34502000                0.29735459               -1.54789803               -0.53571369                0.24767404                0.26134139
              13.79397830               -1.47913022               49.20472499                1.00000000                0.71778909                0.62720435               -2.31883580               -0.27022371               -0.43102252               -0.34314964
               4.13051960                3.10876203               50.67672210                1.00000000               -0.52204511               -0.70001229                2.23935843               -0.00574968               -0.27893846                1.35683736
               5.12529915                2.77119000               50.49613710                1.00000000               -0.37901584               -0.36681040                1.22984458                0.05124176               -0.44361492                0.26227351
               6.12293928                2.43251413               50.31281942                1.00000000               -0.08928445               -0.05152572                0.24733022                0.02597426               -0.36670915               -0.36274705
               7.12351346                2.09130952               50.13391483                0.47364244                0.17908044                0.33208367               -0.73607119               -0.49887956                1.06401193               -1.22109608
               8.12652089                1.73718780               49.97913591                0.57795485                0.32374661                0.46545708               -1.43026774               -0.21184557                1.93593206                0.12472202
               9.12998839                1.37193802               49.82186660                0.59979715                0.44759823                0.77617136               -2.25746024               -0.28557106                1.94886326                0.03074180
              10.13547285                0.99869550               49.66933962                0.42187091                0.48314253                1.23871443               -3.29618494               -0.75359323                3.78119044               -0.51473348
              11.13965124                0.60966084               49.54962348                0.18599788               -0.94859368                2.31967079               -4.74935795               -2.57854609               11.34912811               -0.92076031
              12.11650098                0.18939069               49.54887803                0.25470186               -1.29370339               -0.02078928               -4.05003693               -4.62982446               11.05838786                4.77674656
              13.11377717               -0.14980775               49.41217224                1.00000000                0.05620055                0.22364083               -0.84379828               -0.64253258                1.46689853                0.44240881
              14.11762499               -0.47285818               49.24616477                1.00000000                0.38478191                0.54164302               -1.76119959               -0.09139143                0.03449475               -0.34643852
               4.46650226                4.10206992               50.60938643                1.00000000               -0.40947109               -0.63374422                1.91907466               -0.00785264               -0.02294772                1.68657962
               5.46240755                3.76785380               50.42331107                1.00000000               -0.26468983               -0.28641115                0.93553954                0.03246575                0.05651552                0.29098367
               6.46120847                3.43237139               50.23929701                0.81889126                0.03684298                0.04986483               -0.05671003               -0.04893119                0.28440965               -0.78271331
               7.46314441                3.09469633               50.05774151                0.00010000                1.04416218                0.37997908               -1.06124767               -0.89574522                2.91674616               -1.58789597
               8.48209171                2.74021400               49.92586291                0.00010000                1.53114829                0.47525718               -1.97037211               -1.86305037                3.86155770                0.08516335
               9.49376738                2.37951823               49.77235385                0.00010000                1.10307786                0.95522702               -2.91160771               -2.39318071                2.55580784                1.87914082
              10.50415327                2.01151534               49.61650203                0.00010000                0.69552344                1.44927193               -3.93004384               -3.32047607                4.04703117                3.83780336
              11.50767785                1.63702068               49.49185251                0.00010000               -3.51016331                2.25541620               -5.36912954               -8.25249085               17.79601571                6.33986091
              12.43395000                1.18512179               49.60622704                0.17565989               -3.57396117                0.57679090               -0.59025627               -6.59251990               15.37954793                3.51408147
              13.43619862                0.85169152               49.45741417                1.00000000                0.21506640                0.07112842               -0.27149416               -0.57882149                1.13584073                0.53880759
              14.43825133                0.53170264               49.28669418                1.00000000                0.20527063                0.35922584               -1.12744660               -0.07088972                0.03699076               -0.31507326
               4.79879479                5.09608715               50.54173338                1.00000000               -0.31477955               -0.54945197                1.59229239               -0.03406187                0.11212278                1.49078363
               5.79564699                4.76546178               50.34916373                0.90399009               -0.18383333               -0.17876496                0.63824380               -0.01304797                0.27840538                0.04911374
               6.79511812                4.43351143               50.16026408                0.29927825                0.10544721                0.18042580               -0.28379436               -0.14962637                0.96009628               -1.25315855
               7.79775593                4.09890910               49.98100460                0.00010000                0.46599311                0.51052992               -1.33667270               -1.12198473                4.84600825               -1.79365062
               8.80443798                3.74669295               49.86909043                0.00010000                0.65337499                0.85106811               -2.10083516               -2.75756890                8.14995588                1.00393312
               9.81082343                3.39104256               49.75876390                0.00010000                0.35614493                1.20284402               -2.84195837               -3.59786830                8.44274296                3.95136556
              10.81156088                3.02768094               49.65606429                0.00010000               -0.49142274                1.53348623               -3.46097304               -4.73059055               11.04198785                7.42712779
              11.80099498                2.65476916               49.60015666                0.00010000               -2.07905681                1.22999598               -3.15119162               -9.22558645               17.28590630                9.96683465
              12.76997974                2.20092650               49.62407422                0.00010000               -2.26875452                3.53018960               -2.20070621               -4.94900443               13.99037137               -0.75998408
              13.75561989                1.85161482               49.50193616                0.20051019               -0.68973925                1.18404351                0.15009649               -0.00932518                2.78698737                0.26869707
              14.75618496                1.53432634               49.32826253                0.69392004                0.05650697               -0.53292864               -0.56408538                1.49465517                0.17245115               -1.08358056
               5.12707178                6.09108088               50.47093290                1.00000000               -0.23494588               -0.45200953                1.27683325               -0.05626222                0.19652211                1.15893352
               6.12472232                5.76427850               50.27154282                0.57716200               -0.11515822               -0.04698975                0.32594331               -0.05488693                0.43107532               -0.39704704
               7.12476861                5.43597990               50.07706998                0.09594321                0.14004406                0.34622836               -0.58488653               -0.22040217                1.55782380               -1.73670534
               8.12752320                5.10490693               49.89983012                0.00010000                0.50191323                0.53662050               -1.48564212               -1.00882725                7.96414077                0.67527808
               9.13480688                4.75723537               49.83283240                0.00010000                0.66494080                0.96969407               -2.02990430               -1.94660858               12.77887400                2.47203516
              10.14082201                4.40357511               49.75164822                0.00010000                0.55039889                1.10289085               -2.62480176               -2.37727671               12.59698855                4.28451728
              11.14581485                4.04218507               49.68062031                0.00010000                0.45492715                1.08954627               -2.90408974               -3.19540904               14.19680804                5.83274544
              12.14992056                3.66162060               49.63050803                0.00010000               -0.38452987                0.84826829               -2.76301051               -4.54328513               15.60170153                4.97978151
              13.13812426                3.25572558               49.58480480                0.00010000               -2.36541367                4.13608119               -2.12486095               -3.22396039               15.96823519               -0.28778161
              14.10261228                2.87537239               49.54234283                0.19260521               -1.77014324                2.28518778               -0.71016737               -0.73581480                8.24123913                1.33300411
              15.10272139                2.52104407               49.35367517                0.68788966                0.01091077               -0.61052479               -1.64549535                0.69453867                0.51790656               -2.80663018
               5.45127430                7.08704696               50.39695220                1.00000000               -0.16240771               -0.35455911                0.98093284               -0.03878254                0.03444135                0.88044816
               6.44965023                6.76452198               50.18842074                0.43270487               -0.05963307                0.06478169                0.05627365               -0.04072922                0.42821051               -0.70223197
               7.45008164                6.44043599               49.98788948                0.01873242                0.33368499                0.51045828               -0.85129836               -0.40104813                5.05464238               -2.20541305
               8.45632393                6.10964151               49.87144958                0.00010000                0.83779932                0.51541282               -0.96136169               -0.81915472               11.88447080                2.91780039
               9.46683763                5.76608683               49.80468700                0.00010000                1.10021359                0.75640134               -1.99537133               -1.51859168               14.86545255                2.99995346
              10.47832820                5.41310038               49.74499463                0.00010000                1.13847901                0.76464069               -2.45827824               -1.95849023               15.74194284                4.13486048
              11.48960721                5.04947187               49.69181357                0.00010000                0.91302847                0.63325951               -2.66154991               -2.60681073               16.67436167                4.80258725
              12.49658877                4.67173453               49.64620527                0.00010000                0.10707697                0.93869103               -2.54951779               -3.39800810               17.58913832                4.25658316
              13.49174875                4.28364813               49.60690131                0.01772904               -1.05018308                2.09181926               -2.08153162               -2.95866605               18.28698734                3.09052287
              14.47558511                3.89731857               49.57270364                0.22970370               -0.65081836                1.61216826               -1.31893996               -0.61286207                9.49946447                1.41738829
              15.47873238                3.52211584               49.35867504                0.71906469                0.31472753                0.56222602               -2.64185588                0.23442052                0.39566397               -2.77759708
               5.77134608                8.08398970               50.32076801                0.99237840               -0.08273848               -0.26277792                0.70083064               -0.03432701                0.01281267                0.73210242
               6.77051870                7.76557413               50.10462635                0.36766045                0.01410160                0.13695174               -0.19051706               -0.00391168                0.32344306               -0.73344316
               7.77162812                7.44618907               49.89473770                0.00010000                0.74852857                0.60384502               -1.07445007               -0.55234956                8.04552940               -2.43900725
               8.78548927                7.11521519               49.83251253                0.00010000                1.46740317                0.55830164               -1.53610862               -0.97973897               16.12982935                1.47997140
               9.80097618                6.77236339               49.77887602                0.00010000                1.63889489                0.51569274               -2.00844354               -1.44484713               17.40938969                2.79135280
              10.81826717                6.41886793               49.73608895                0.00010000                1.70341542                0.43236131               -2.41034386               -1.83605871               18.58986537                3.76523932
              11.83504449                6.05485026               49.69897586                0.00010000                1.47584841                0.41634100               -2.57269841               -2.26272541               19.41175187                4.39273293
              12.84778414                5.68039442               49.66538233                0.00010000                0.91612010                0.66227078               -2.49450483               -2.55320083               19.94699291                4.39796085
              13.85336689                5.29756196               49.63258273                0.03488404                0.20515951                1.01355432               -2.18603756               -2.36091945               20.10002896                3.50845562
              14.85188733                4.90761576               49.59751778                0.26104193                0.22241870                0.88921184               -1.68672041               -0.77892812               10.19306371                1.18152899
              15.85781526                4.53228859               49.36378361                0.74287674                0.59279370                1.04582565               -2.99363779                0.16496783                0.22273232               -2.28210755
               6.08741889                9.08179140               50.24396568                0.95837410               -0.00462735               -0.17929880                0.43877945               -0.03698704                0.02615965                0.69918346
               7.08737262                8.76726102               50.02073955                0.35511830                0.09873507                0.19947013               -0.43634645                0.03006114                0.16634883               -0.72838059
               8.08939359                8.45251289               49.80028726                0.00010000                1.15911012                0.62557480               -1.28321585               -0.73178612               10.02051377               -2.45071135
               9.11055482                8.12080755               49.77347131                0.00010000                2.24471764                0.44372636               -1.75272812               -1.38591591               20.12003721                0.27701887
              10.13428795                7.77640068               49.74688521                0.00010000                2.42826680                0.22399799               -2.15474157               -1.62403852               20.78561530                2.10456220
              11.15912016                7.42174760               49.72383041                0.00010000                2.42691279                0.11393985               -2.44812468               -1.74814838               21.66477134                3.23019736
              12.18282620                7.05779869               49.70451707                0.00010000                2.18464439                0.14497850               -2.58182922               -1.91930748               22.37857044                4.01535713
              13.20281305                6.68497994               49.68570298                0.00010000                1.72414119                0.28554805               -2.52558076               -2.06245452               22.54718375                4.45904021
              14.21730903                6.30391921               49.66139994                0.05158274                1.12334373                0.44606053               -2.30261823               -2.08044281               21.66922377                4.06997339
              15.22527992                5.91510281               49.61917406                0.28498789                0.76885245                0.74038951               -2.01165657               -0.87792315               10.56462214                1.01867755
              16.23268608                5.54303236               49.36881573                0.75661750                0.74061554                1.06368204               -3.21114168                0.08753313                0.12437012               -2.14343698
               6.39966711               10.08040372               50.16726226                0.94986294                0.07313139               -0.09365305                0.18073761               -0.03536022                0.00431714                0.69860547
               7.40039843                9.76956353               49.93679563                0.38931019                0.18893738                0.25612439               -0.68168481                0.04132467                0.01260386               -0.69547713
               8.40344586                9.45870056               49.70640029                0.00010000                1.67423675                0.59244678               -1.49553742               -1.05551199               11.76670936               -2.13168355
               9.43388316                9.12408971               49.71030153                0.00010000                3.20547447                0.08733398               -1.93667392               -1.80217849               23.74864625                0.00144360
              10.46755535                8.77684335               49.70854235                0.00010000                3.40115149               -0.24851019               -2.29915452               -1.62622255               24.10229456                1.43905745
              11.50190619                8.42114672               49.70652360                0.00010000                3.29353224               -0.24536642               -2.54710130               -1.46703961               24.88391308                2.46089484
              12.53342600                8.05774983               49.70660708                0.00010000                2.92541634               -0.14383660               -2.64870961               -1.49141212               25.68910754                3.28641894
              13.56041452                7.68610539               49.70744571                0.00010000                2.41045846               -0.00160542               -2.57954851               -1.63836826               25.75995557                4.13479295
              14.58163517                7.30648318               49.69787049                0.06882991                1.74006002                0.15344923               -2.34896684               -1.69233384               23.13340331                5.21147896
              15.59521572                6.92242355               49.63948005                0.30537595                1.10358345                0.75324889               -2.31650656               -0.80013879               10.50414595                1.02332215
              16.60370683                6.55356223               49.37346275                0.76222333                0.84911140                1.06115826               -3.41630442                0.05735176                0.08197783               -2.15178606
               6.70839206               11.07991834               50.09055510                0.92475903                0.15102062               -0.00232114               -0.08446958               -0.03805471               -0.00181054                0.60979135
               7.70990227               10.77238350               49.85325113                0.43533577                0.26825560                0.31002612               -0.92818108                0.01780814                0.09478228               -0.56802572
               8.71375717               10.46436183               49.61771935                0.00010000                2.32330980                0.56834444               -1.71838354               -1.60985822               13.45387255               -1.29773432
               9.75636846               10.12255423               49.64689493                0.00010000                4.54746571               -0.78764338               -2.14040262               -1.74068712               26.87504072               -0.01883804
              10.80470649                9.77143048               49.66578976                0.00010000                4.62522132               -0.75330179               -2.47675375               -1.16049665               27.08071140                0.77487532
              11.84887289                9.41684027               49.68221555                0.00010000                4.16664055               -0.58946968               -2.69397380               -0.83173778               27.92121374                1.39163170
              12.88803930                9.05492196               49.70093926                0.00010000                3.62197225               -0.38841905               -2.76472189               -0.85042207               29.06326514                1.94393351
              13.92131233                8.68494784               49.72363761                0.00010000                2.95524447               -0.19231411               -2.66128836               -1.03094494               30.19418355                2.67422619
              14.94714419                8.30698820               49.75004348                0.09680329                2.04428784                0.11991032               -2.30154637               -1.01900397               25.08101628                4.43089942
              15.96219809                7.93016779               49.66097941                0.33561756                1.22057799                0.79754804               -2.60379432               -0.58166996                9.66847375                1.00490835
              16.97155575                7.56425552               49.37790154                0.75672500                0.93576563                1.09990323               -3.61780353                0.04268497               -0.08098439               -1.76199186
               7.01397569               12.08035730               50.01218404                0.97005293                0.23354073                0.04389564               -0.34867296                0.09903928                0.30488716                0.52215065
               8.01631110               11.77576406               49.77145488                0.76548692                0.35511400                0.33805527               -1.18881224                0.12639134                0.76729886               -0.45647885
               9.02107797               11.47006745               49.53974250                0.46489920                3.78448352                0.57056242               -1.98302242               -2.63928026               15.15832618               -0.72022152
              10.09200077               11.10833685               49.58602663                0.36899583                6.44906975               -1.42173789               -2.39716126               -1.85127586               29.31174655               -0.17551428
              11.15005937               10.76177732               49.61843847                0.35997847                5.48895933               -0.96531604               -2.72240011               -0.41368761               29.42593182                0.27167487
              12.20177996               10.40935733               49.64822202                0.36805597                4.91253120               -0.74829448               -2.91817053               -0.29908650               30.43195469                0.60383274
              13.24830999               10.04998145               49.68132669                0.39279357                4.29747100               -0.49405082               -2.95946571               -0.32784179               31.92999709                0.90024632
              14.28772938                9.68225910               49.72148579                0.43549862                3.38625694               -0.26887328               -2.81600886               -0.41329888               33.83257519                1.33346541
              15.31603513                9.30888138               49.77467927                0.57001995                1.92928094                0.18931828               -2.41072717               -0.30513529               27.75520932                2.61750389
              16.32631500                8.93837451               49.68125969                0.69251803                1.01749675                0.82067186               -2.86375044               -0.25436375               10.67534163                0.91436473
              17.33638507                8.57556029               49.39113513                0.87789286                1.00700695                1.13047710               -3.82037054                0.20151055                0.79302822               -1.38575253
               3.96628677                2.20234747               51.77757324                1.00000000               -0.66100443               -0.76893863                2.66081510               -0.20208083               -1.04916019                0.97256419
               4.95967673                1.85314840               51.58640447                1.00000000               -0.54626843               -0.40946315                1.55867643               -0.13451599               -1.41077948                0.16134273
               5.95536141                1.50304001               51.38846715                1.00000000               -0.34844484               -0.06904643                0.51659939               -0.15948595               -1.37393368               -0.21448348
               6.95270783                1.14952647               51.19787890                0.68617984               -0.63594868                0.37266670               -0.52467274               -0.49167693               -0.24244474               -0.86512940
               7.94264243                0.78617320               51.02158816                0.72331639               -0.79793236                0.76001002               -1.19598818               -0.26238235                0.98037131               -0.01096868
               8.93674919                0.41468913               50.85242628                0.71837617               -0.49628781                0.96461191               -2.00321149               -0.30181239                1.71552489               -0.08762926
               9.93271668                0.03317652               50.68830993                0.57674710               -0.71837912                1.43770393               -2.97871731               -0.83004311                3.36383045               -0.30525907
              10.92238160               -0.36762507               50.54786970                0.33587660               -1.68471125                2.42094651               -4.31244946               -2.31882967                8.97005756                0.12539685
              11.89902245               -0.80896037               50.49004368                0.12922770                1.58967363                2.56242013               -3.72076787               -0.21215912                6.16713361                2.50126364
              12.95417508               -1.19555717               50.35404053                1.00000000                3.08190400                0.33285497               -1.62244058               -2.81939166                1.73910608                0.30632005
              13.96066053               -1.52629163               50.18065354                1.00000000                0.64854549                0.66203008               -2.41802934               -0.26852798               -0.18786275               -0.24947589
               4.31346504                3.19465809               51.69978358                1.00000000               -0.54797415               -0.73357419                2.36406028               -0.00913081               -0.25666457                1.29560752
               5.30798530                2.84905376               51.50861150                1.00000000               -0.39437683               -0.37413457                1.25954698                0.05032610               -0.40073183                0.25031776
               6.30557751                2.50234955               51.31501692                1.00000000               -0.08804170               -0.03050492                0.18817087                0.03259447               -0.30457255               -0.35452339
               7.30622447                2.15325314               51.12579118                0.47926175                0.09298874                0.38016970               -0.89189889               -0.36571403                1.29464445               -1.19313258
               8.30743728                1.79377330               50.96390343                0.57297828                0.20024676                0.61789914               -1.66349070               -0.17556846                2.34086139                0.07136414
               9.31022940                1.42433525               50.79794795                0.57575550                0.40680314                0.93674470               -2.59889437               -0.22620777                2.25380265                0.00281081
              10.31557335                1.04755356               50.63436193                0.36880205                0.50161741                1.43643858               -3.78761593               -0.55341912                3.80842989               -0.37314518
              11.32026175                0.65658439               50.49792627                0.06184127               -0.23532173                2.54528759               -5.65826591               -2.76448135               11.61107003               -0.22253628
              12.31086691                0.21666383               50.48551065                0.00010000               -1.78074819                0.47685468               -7.89333225               -6.89038250               15.58900125               10.21168912
              13.28464679               -0.19222862               50.40341056                1.00000000               -1.10786021                0.23424656               -0.92584993               -3.95744850                4.65437589                0.43575758
              14.28870971               -0.51967133               50.22813972                1.00000000                0.40629185                0.56800053               -1.80664020               -0.10074573                0.01425685               -0.23294501
               4.65731280                4.18767599               51.62915452                1.00000000               -0.43210097               -0.65831497                2.02847157               -0.01008733               -0.01155091                1.60795359
               5.65299179                3.84566570               51.43276204                1.00000000               -0.27494426               -0.28971142                0.95087431                0.03661043                0.06803995                0.27526227
               6.65181392                3.50242991               51.23837819                0.82400439                0.04890015                0.06782626               -0.12812940               -0.02626366                0.28820289               -0.73150912
               7.65396980                3.15712987               51.04632065                0.00010000                0.81175194                0.42609320               -1.21789589               -0.67791816                2.99000293               -1.51771416
               8.66804896                2.79853118               50.90553313                0.00010000                1.22374886                0.59349023               -2.13393944               -1.47877642                3.98103254                0.21040523
               9.67844477                2.43342402               50.74211429                0.00010000                1.06750950                0.99002697               -3.17754939               -2.03620801                2.57050655                2.23696718
              10.68939915                2.06190529               50.57519210                0.00010000                0.97684649                1.32832778               -4.40186651               -2.99997868                3.81719266                4.71150334
              11.69798170                1.68328068               50.43526047                0.00010000               -3.96856650                1.73463601               -5.64054231               -9.36852602               20.52268322                8.66706942
              12.61002782                1.20057672               50.59587266                0.14365821               -4.33102205                0.06705065               -3.23245612              -10.88500651               18.94722263                7.32670001
              13.61136126                0.80912776               50.45458175                0.92414342                0.17516033                0.06103060               -0.32501394               -3.25611024                1.91137038                0.45575009
              14.61353102                0.48506838               50.27574593                1.00000000                0.21697611                0.36452284               -1.12369368               -0.07799143                0.05265406               -0.20819565
               4.99728387                5.18149179               51.55813658                1.00000000               -0.33202781               -0.56628512                1.68493709               -0.03435397                0.11911639                1.41909650
               5.99396359                4.84325954               51.35554629                0.87585907               -0.18478985               -0.17844489                0.63666292               -0.00767778                0.30202301                0.02553560
               6.99358807                4.50370607               51.15694941                0.28632372                0.13006218                0.19788361               -0.37926518               -0.12143651                0.93913422               -1.19788044
               7.99656483                4.16177501               50.96680967                0.00010000                0.39897648                0.55569351               -1.50045251               -0.90490059                4.92100961               -1.63800805
               9.00156760                3.80564311               50.84720213                0.00010000                0.47831521                0.89056249               -2.27990604               -2.22478133                8.35720104                1.39416513
              10.00613114                3.44413579               50.72924158                0.00010000                0.20747566                1.12617853               -3.06765682               -3.12845107                8.71383312                4.65837014
              11.00571711                3.07412011               50.62011078                0.00010000               -0.59556691                1.19936679               -3.69242034               -4.46436835               11.84470858                8.70984234
              11.99421980                2.69127711               50.56660421                0.00010000               -1.91987058                0.46947326               -3.61784787               -9.75983395               18.74631243               12.26080581
              12.96731970                2.21800484               50.59539832                0.00010000               -2.95934383                3.28803894               -3.12564416               -7.21422170               17.39373290                0.62498334
              13.93503292                1.80899199               50.50399591                0.15846516               -1.60255365                2.31588797                0.23982161               -1.67933741                4.71701823               -0.65820922
              14.93526863                1.48761913               50.32339588                0.65797089                0.02357065               -0.36977254               -0.48534806                2.33928661                0.23698443               -1.99082447
               5.33309023                6.17635029               51.48408475                1.00000000               -0.24662722               -0.46291306                1.35267207               -0.05381282                0.18014359                1.10744559
               6.33062396                5.84209681               51.27472042                0.55083518               -0.11102542               -0.04533018                0.30805315               -0.04462356                0.43589875               -0.40654860
               7.33086972                5.50638758               51.07069990                0.08376058                0.16553973                0.36787597               -0.69165609               -0.18662005                1.59313469               -1.70406970
               8.33393475                5.16824374               50.88408350                0.00010000                0.51614152                0.62978745               -1.65594266               -0.75733967                8.19334315                1.21988389
               9.34119255                4.81634243               50.81151350                0.00010000                0.67319977                0.96826984               -2.23718842               -1.52770170               13.15521988                2.90868262
              10.34739875                4.45594759               50.72424640                0.00010000                0.58889518                1.01203689               -2.85027137               -1.98896858               13.11416118                4.92916618
              11.35297045                4.08589263               50.65023584                0.00010000                0.57507747                0.82948070               -3.16653211               -2.91933997               15.11145025                6.76441519
              12.35890029                3.69267015               50.60102374                0.00010000               -0.24709726                0.41093376               -3.09233826               -4.67090088               17.08192575                5.98006749
              13.34802851                3.26633750               50.56205381                0.00010000               -2.53700336                3.76171490               -2.43039270               -4.33589864               18.28819043                0.79870637
              14.30816023                2.85544552               50.53283834                0.16944209               -2.24830170                3.85227625               -1.44981917               -1.06653258               10.16948976                0.98724935
              15.30306247                2.47767293               50.33503885                0.66754188               -0.50977538                0.21254113               -2.29908215                0.69303479                1.12959182               -3.87243899
               5.66471457                7.17223353               51.40706622                1.00000000               -0.16807500               -0.36229392                1.04133919               -0.03814058                0.02414004                0.85043257
               6.66303382                6.84235293               51.18883257                0.41298754               -0.05029172                0.06800547                0.02584828               -0.02762979                0.42681801               -0.68162110
               7.66370874                6.51106359               50.97875111                0.00834367                0.42146838                0.53382272               -0.97683266               -0.31056632                5.46813931               -2.14910503
               8.67146319                6.17437075               50.86080767                0.00010000                0.98004872                0.62375179               -1.19877705               -0.54113637               12.26477177                3.24870036
               9.68330971                5.82500850               50.78357631                0.00010000                1.26691918                0.73013867               -2.22930802               -1.16910380               15.07085019                3.35200318
              10.69680157                5.46437652               50.71918251                0.00010000                1.36490244                0.64657874               -2.70882684               -1.64700332               16.37589331                4.60069490
              11.71060776                5.09070973               50.66390971                0.00010000                1.17776661                0.41525684               -2.92255117               -2.42095914               17.64866476                5.35844688
              12.72035690                4.69949579               50.61941995                0.00010000                0.36092976                0.68303636               -2.81431315               -3.52456215               19.00264374                4.83379334
              13.71782636                4.29323914               50.58463900                0.01282826               -0.89950330                2.03350428               -2.39484056               -3.35128101               20.21477392                3.48101130
              14.70236684                3.88603752               50.55814220                0.21560775               -0.65759301                2.12050454               -1.68786564               -0.72040042               10.76684319                1.39723591
              15.70467450                3.49186995               50.33054086                0.70388064                0.23076565                1.46133834               -2.99599403                0.46936586                0.68692410               -2.81144379
               5.99208860                8.16910441               51.32801921                0.98244176               -0.08473082               -0.27015068                0.74977093               -0.03578097                0.01749911                0.72098101
               6.99124130                7.84345692               51.10251537                0.35235658                0.02759832                0.14569547               -0.23257991                0.00937903                0.33117486               -0.70366935
               7.99264057                7.51706404               50.88331454                0.00010000                0.89629068                0.62898510               -1.21120137               -0.44078232                8.27293351               -2.36001335
               9.00916711                7.18071877               50.81602725                0.00010000                1.75820664                0.59448573               -1.76124610               -0.73648539               16.56494157                1.40877981
              10.02780470                6.83094521               50.75755573                0.00010000                1.97951722                0.46042232               -2.26641795               -1.18651948               17.90510569                3.02290203
              11.04875745                6.46887917               50.71072923                0.00010000                2.08136510                0.30007956               -2.67525628               -1.60030095               19.26945773                4.06766066
              12.06943200                6.09419776               50.67208235                0.00010000                1.85610917                0.24256439               -2.82645073               -2.13277797               20.38887477                4.72491978
              13.08587964                5.70633087               50.63941940                0.00010000                1.25145784                0.51470708               -2.72781664               -2.62533921               21.25441996                4.69934909
              14.09446116                5.30700759               50.60987704                0.03325257                0.46208848                0.99312796               -2.39659037               -2.66547155               21.75848186                3.70903772
              15.09512141                4.89785561               50.58019566                0.25315711                0.31618755                0.98493569               -1.80734291               -0.95469335               11.16402953                1.19819779
              16.10078491                4.50689970               50.33338413                0.73072479                0.56635061                1.35026028               -3.05839685                0.19314423                0.30143925               -1.98192025
               6.31529394                9.16683051               51.24855318                0.95124704               -0.00321645               -0.18588300                0.47839649               -0.03656016                0.02701536                0.69850944
               7.31526177                8.84526684               51.01610062                0.34144170                0.11686474                0.21340868               -0.49061307                0.04169086                0.18558207               -0.69768793
               8.31763123                8.52364329               50.78678852                0.00010000                1.37952695                0.65277718               -1.42149021               -0.64846567               10.24716603               -2.36757947
               9.34285231                8.18626047               50.75485631                0.00010000                2.68938483                0.41018390               -1.97705955               -1.19767671               20.56821208                0.37804148
              10.37141893                7.83421695               50.72406689                0.00010000                2.93453429                0.11804288               -2.42238363               -1.44020214               21.34589752                2.24487133
              11.40154300                7.47037812               50.69811712                0.00010000                2.95407833               -0.04384939               -2.71600891               -1.55815064               22.39800783                3.42547125
              12.43050050                7.09556102               50.67772641                0.00010000                2.67486491               -0.02544124               -2.80700673               -1.77282607               23.34205818                4.22262400
              13.45504030                6.70978993               50.65991652                0.00010000                2.12458463                0.16145503               -2.67357950               -2.05008719               23.75982988                4.66456376
              14.47299219                6.31310170               50.63830400                0.05284384                1.41702817                0.40581590               -2.36601261               -2.31059307               23.07464675                4.27368933
              15.48338086                5.90573623               50.59914575                0.28216167                0.87285056                0.75823778               -1.99530805               -1.06440091               11.32095196                1.00284534
              16.49044920                5.51887516               50.33698843                0.74658627                0.70683399                1.12094013               -3.12031565                0.07822432                0.14501349               -1.89015040
               6.63448474               10.16538675               51.16920190                0.94392797                0.07775911               -0.09922380                0.20823604               -0.03543733                0.00501214                0.69567001
               7.63526233                9.84772509               50.92967448                0.37513492                0.20964434                0.27375174               -0.74270617                0.04839560                0.03988395               -0.66513334
               8.63867763                9.53011958               50.69075334                0.00010000                1.96887921                0.62584722               -1.63883187               -1.03612635               12.00708115               -2.06006209
               9.67463992                9.18892245               50.68982203                0.00010000                3.81026920               -0.01199615               -2.16891229               -1.71403316               24.21636108                0.09962892
              10.71488301                8.83330606               50.68427165                0.00010000                4.08052284               -0.42401388               -2.57232667               -1.50382482               24.69287792                1.55599263
              11.75625037                8.46800218               50.67988012                0.00010000                3.98403275               -0.45251682               -2.80655219               -1.30569206               25.64575720                2.59221481
              12.79456367                8.09368894               50.67942138                0.00010000                3.55434166               -0.36478635               -2.82313723               -1.31583853               26.67197826                3.42970856
              13.82733721                7.70955997               50.68193515                0.00010000                2.88696672               -0.20296435               -2.57328185               -1.50332227               26.97803870                4.31217189
              14.85230300                7.31512391               50.67584339                0.07229599                2.03613613                0.02712878               -2.12145622               -1.75385518               24.29920423                5.56592516
              15.86805993                6.91302037               50.61673583                0.30696992                1.18842677                0.73618560               -2.22170997               -0.95498827               11.00574788                0.98115628
              16.87607154                6.52931850               50.34005486                0.75419139                0.80116078                1.02635924               -3.23135471                0.04925612                0.08039345               -1.96568578
               6.94990851               11.16484604               51.08979454                0.91662795                0.15883433               -0.00753750               -0.06608054               -0.03936498                0.00183614                0.60404254
               7.95149685               10.85074188               50.84361467                0.41856973                0.29014167                0.33192378               -0.99917465                0.02034051                0.12738654               -0.54758527
               8.95571134               10.53616024               50.59979506                0.00010000                2.69441567                0.60843741               -1.86832949               -1.69326653               13.70084061               -1.25312694
              10.00538517               10.18602055               50.62435739                0.00010000                5.32756812               -0.99871584               -2.37799177               -1.75081767               27.35845280                0.04632388
              11.06226270                9.82573667               50.63974549                0.00010000                5.48305588               -0.99823138               -2.74985276               -1.09573912               27.69786198                0.84781556
              12.11504628                9.46132778               50.65417467                0.00010000                5.01816130               -0.85963778               -2.93842749               -0.72285509               28.71754422                1.46915345
              13.16262593                9.08826529               50.67285710                0.00010000                4.42463000               -0.69049773               -2.88390206               -0.72140636               30.09387483                2.02765173
              14.20353888                8.70573064               50.69812040                0.00010000                3.59143810               -0.53717230               -2.49629678               -0.88467576               31.58944623                2.79535644
              15.23445469                8.31364428               50.73145755                0.10247380                2.32738068               -0.18327997               -1.51207556               -0.93834583               26.05757091                4.72389378
              16.25008650                7.92045994               50.63550076                0.34281249                1.21916772                0.76090574               -2.47159291               -0.63685750                9.80817384                0.94742200
              17.25883805                7.53940234               50.34279495                0.75127441                0.87515504                1.02826180               -3.36917545                0.04010965               -0.09174575               -1.62789820
               7.26190576               12.16523600               51.00872706                0.96500958                0.24491808                0.03899621               -0.34052643                0.11248209                0.29672884                0.51567487
               8.26435494               11.85436356               50.75915580                0.75581071                0.38139329                0.36216887               -1.27056482                0.13842575                0.78478174               -0.44382710
               9.26953363               11.54228833               50.51912947                0.46223863                4.28460925                0.61280935               -2.14101616               -2.88854280               15.39406522               -0.69578331
              10.35004713               11.16894814               50.56090060                0.36893726                7.40636842               -1.70724106               -2.63643572               -1.98114826               29.80614809               -0.13314801
              11.41766100               10.81334144               50.58996380                0.36004320                6.46087633               -1.23952344               -2.98627899               -0.36710628               30.07302418                0.32000161
              12.47926466               10.45080942               50.61802131                0.36783439                5.90358396               -1.05183553               -3.14025255               -0.25128541               31.27405103                0.65650996
              13.53573268               10.07987898               50.65145441                0.39177994                5.25000243               -0.83863050               -3.03900552               -0.28897022               33.02270236                0.96029122
              14.58426470                9.69881653               50.69481929                0.43160614                4.15370562               -0.69141164               -2.56307742               -0.34845173               35.31050093                1.42058982
              15.61880679                9.31145831               50.75603097                0.57385791                2.26500042               -0.21859705               -1.43273623               -0.09369272               28.62806170                2.82212374
              16.62956471                8.92823848               50.65314444                0.69826872                1.00910676                0.77785394               -2.72280089               -0.13090675               10.62417294                0.84380547
              17.63898892                8.54988374               50.35406694                0.87596406                0.94242116                1.04813945               -3.54804527                0.17961359                0.74334789               -1.29057358
               4.15282752                2.29110077               52.80481269                1.00000000               -0.68022033               -0.80078649                2.77456115               -0.21949937               -0.98010998                0.92292406
               5.14602531                1.93400282               52.60216309                1.00000000               -0.54860579               -0.41640296                1.58556909               -0.15181809               -1.30347516                0.15127445
               6.14185540                1.57601269               52.39335492                1.00000000               -0.30997730               -0.05000731                0.45525896               -0.17249028               -1.22726784               -0.20950283
               7.13982577                1.21492752               52.19184570                0.68015464               -0.49191158                0.40776009               -0.68675541               -0.42848054                0.08913131               -0.84141517
               8.13201717                0.84605495               52.00798038                0.70562950               -0.56252653                0.86151707               -1.56303363               -0.27001447                1.52113802               -0.01029648
               9.12857524                0.47119888               51.82976513                0.68407489               -0.16180157                1.11073422               -2.58161783               -0.27308218                2.25140700               -0.10975056
              10.12878114                0.08853188               51.65443237                0.51589163               -0.04819451                1.58185471               -3.85161977               -0.62064042                3.76365109               -0.28772543
              11.12761135               -0.30697792               51.49698533                0.21317323               -2.22656923                2.47972725               -5.64971491               -2.88389151               10.93193159                0.30390412
              12.08424975               -0.75537109               51.44701332                0.00010000                0.16806664                4.31665802               -5.17755915               -3.06615573               11.35333012               -0.65428983
              13.13097268               -1.24539496               51.33787396                1.00000000                2.63726358                0.37611371               -1.67108473               -7.85975611                3.48144570                0.29059410
              14.13699502               -1.57909210               51.15636441                1.00000000                0.60223456                0.64826261               -2.40841579               -0.22403508               -0.11983696               -0.24787330
               4.50773048                3.28309290               52.72400330                1.00000000               -0.56793065               -0.76123910                2.46867219               -0.01397725               -0.23000725                1.23273916
               5.50205117                2.92983879               52.52132804                1.00000000               -0.40311656               -0.37892867                1.27774958                0.04695429               -0.35030633                0.23752699
               6.49966814                2.57551262               52.31658284                1.00000000               -0.07656686               -0.01019899                0.12192906                0.03624244               -0.23620263               -0.34503205
               7.50051983                2.21900512               52.11607685                0.48380257                0.07566000                0.41980205               -1.04980336               -0.24393647                1.51634017               -1.15810789
               8.50118134                1.85467012               51.94586610                0.56280491                0.20430588                0.75342283               -1.97412652               -0.13986752                2.74177076                0.04529052
               9.50460595                1.48230622               51.76988871                0.54358307                0.52408948                1.08825322               -3.04754749               -0.16881985                2.54594364               -0.04328706
              10.51166313                1.10435043               51.59358730                0.30822960                0.80589827                1.57323395               -4.37688626               -0.29585307                3.69707246               -0.38720876
              11.52072392                0.71781935               51.43645816                0.00010000                0.55667897                2.43310283               -6.26686843               -2.33576646               10.62059779                0.38887168
              12.52279671                0.28779549               51.39101139                0.00010000               -2.82441466               -1.14303984               -6.62032192              -12.50648773               18.39834770                9.77035796
              13.46423562               -0.24163382               51.39365524                1.00000000               -2.71724514                0.28080636               -1.02146591               -9.84124418                9.30303958                0.41869174
              14.46845181               -0.57260947               51.21003197                1.00000000                0.42161888                0.56873307               -1.81714319               -0.09851361                0.01400336               -0.21533825
               4.85905621                4.27587599               52.64995587                1.00000000               -0.45115258               -0.67770243                2.12336763               -0.01381379                0.00426723                1.52645113
               5.85454468                3.92642424               52.44232856                1.00000000               -0.28211473               -0.29123373                0.95846007                0.03780902                0.08903897                0.25623133
               6.85341391                3.57580871               52.23673442                0.82353763                0.06224268                0.08597428               -0.20128342               -0.00656966                0.30883351               -0.68853306
               7.85578954                3.22332356               52.03338359                0.00010000                0.62524028                0.46904873               -1.36669768               -0.46408670                3.10178355               -1.44820180
               8.86591872                2.86112341               51.88318412                0.00010000                0.98644993                0.69628742               -2.36408190               -1.11954385                4.22504414                0.32096955
               9.87551853                2.49296394               51.70880286                0.00010000                1.07161147                0.98858162               -3.50979079               -1.67706726                2.67285804                2.52558716
              10.88735095                2.11999656               51.52846470                0.00010000                1.09662093                1.12418131               -4.87359541               -2.59252580                4.00327008                5.45064887
              11.89745095                1.74168413               51.37904166                0.00010000               -4.68888888                0.82013262               -5.42176176              -10.91593386               21.10821944               10.52421399
              12.79357317                1.22176812               51.54157792                0.11534141               -5.14490972               -2.02752381               -5.45669787              -16.18984931               23.60062306               10.30518649
              13.79455276                0.76022117               51.45091389                0.81043631                0.17014393                0.09139320               -0.40662707               -6.58792385                4.87264097                0.45916597
              14.79697605                0.43228256               51.26422030                1.00000000                0.24232907                0.39131991               -1.20318370               -0.11021505                0.09035148               -0.17562157
               5.20635769                5.26953886               52.57543213                1.00000000               -0.34830673               -0.57879194                1.76828896               -0.03511944                0.13005987                1.34349556
               6.20287462                4.92401411               52.36189698                0.84590226               -0.18601292               -0.17814988                0.63196394               -0.00131470                0.33112094               -0.00348727
               7.20263743                4.57723211               52.15267878                0.27205638                0.15243906                0.21440501               -0.47502078               -0.08868520                0.93720686               -1.15371594
               8.20592340                4.22838610               51.95099555                0.00010000                0.32563272                0.59915217               -1.66205781               -0.69246555                5.05304356               -1.48664407
               9.20915009                3.86859587               51.82349231                0.00010000                0.31340251                0.89557162               -2.47563371               -1.72392962                8.66308396                1.69469480
              10.21219145                3.50207785               51.69741076                0.00010000                0.09711713                0.96267803               -3.30832994               -2.64487236                9.15848586                5.23547989
              11.21109243                3.12683405               51.58221588                0.00010000               -0.57788855                0.68389408               -3.89501032               -4.19701414               12.72949783                9.85732183
              12.20063368                2.73422200               51.52779970                0.00010000               -1.53148673               -0.66389627               -4.02119798               -9.86494481               20.42374991               13.67778357
              13.18046269                2.24724502               51.56156134                0.00010000               -3.93354932                3.03454562               -4.21274973               -9.77638332               20.73143241                2.31319245
              14.12196270                1.76019404               51.50673260                0.11757872               -2.91689886                4.03749650                0.29724447               -3.67819045                6.97674465               -2.07262481
              15.12212472                1.43521693               51.31855557                0.62913815                0.01620201                0.20838701               -0.52598720                3.69909646                0.31048924               -3.40284938
               5.54940331                6.26430015               52.49798634                1.00000000               -0.25781707               -0.47088535                1.42333296               -0.05055477                0.16528006                1.05094058
               6.54682514                5.92286124               52.27770388                0.52730036               -0.10675418               -0.04597521                0.28870896               -0.02881259                0.44636773               -0.41987673
               7.54726822                5.58009681               52.06323686                0.07138557                0.18756616                0.38035765               -0.80215447               -0.13613689                1.65506083               -1.68048350
               8.55057646                5.23530661               51.86671126                0.00010000                0.52400724                0.71428345               -1.81283120               -0.50956108                8.46866303                1.71332125
               9.55774837                4.87903484               51.78808863                0.00010000                0.69032221                0.92443948               -2.45526305               -1.11796998               13.61425047                3.23195311
              10.56438290                4.51221750               51.69464279                0.00010000                0.67590745                0.82767971               -3.08163998               -1.60195933               13.74344095                5.40221362
              11.57126652                4.13367444               51.61728967                0.00010000                0.76790953                0.39801188               -3.42603954               -2.62803287               16.17267295                7.37443358
              12.57974109                3.72840621               51.56866126                0.00010000                0.04034736               -0.21036314               -3.41752514               -4.79683742               18.69530814                6.63088339
              13.57207346                3.28245903               51.53619694                0.00010000               -2.33620283                2.91000572               -2.71689814               -5.52879114               20.41774259                1.36473172
              14.53301704                2.84097110               51.51334644                0.14449980               -2.55806290                5.88559667               -2.72429693               -1.14756557               12.08526973                0.03226407
              15.52091221                2.43645030               51.30769353                0.64909714               -1.21048315                1.61623845               -3.20546711                0.82536125                2.15936055               -5.07054488
               5.88822440                7.26012115               52.41777898                1.00000000               -0.17226974               -0.36888939                1.09811765               -0.03763211                0.01657587                0.81704376
               6.88650170                6.92309461               52.18893771                0.39498430               -0.03775346                0.06857252               -0.00497315               -0.01300776                0.42618148               -0.66134902
               7.88746933                6.58483926               51.96835282                0.00010000                0.51462253                0.54272889               -1.09946092               -0.20580822                5.85422299               -2.09790008
               8.89679416                6.24267177               51.84747404                0.00010000                1.12052273                0.70177675               -1.48657566               -0.28920776               12.66170382                3.51189689
               9.90987979                5.88708466               51.76010084                0.00010000                1.43592560                0.66480097               -2.47259256               -0.87061848               15.36766068                3.59064953
              10.92551267                5.51863145               51.69081809                0.00010000                1.62316399                0.45345139               -2.97712458               -1.37717845               17.08965933                4.88623343
              11.94234307                5.13479429               51.63336254                0.00010000                1.51998407                0.09287543               -3.21124242               -2.28757073               18.70793647                5.67603847
              12.95591235                4.73001474               51.58991901                0.00010000                0.74894574                0.27393128               -3.11962853               -3.70062035               20.46246155                5.11063036
              13.95732198                4.30544513               51.55900450                0.00613551               -0.54461201                1.78093457               -2.81684170               -3.82109824               22.07852864                3.54498871
              14.94502011                3.87790597               51.53894633                0.19836129               -0.48242271                2.48025325               -2.30095901               -0.96298226               11.99331875                1.55835320
              15.94767353                3.46754170               51.29875516                0.68858346                0.26534195                2.48761566               -3.36925305                0.79131775                1.04471065               -2.54809517
               6.22270375                8.25692236               52.33576342                0.97307444               -0.08568779               -0.27711236                0.79592879               -0.03697109                0.02125450                0.70963084
               7.22184687                7.92423269               52.09997475                0.33795869                0.04355764                0.15267690               -0.27493063                0.01881258                0.33734685               -0.67241944
               8.22357490                7.59095139               51.87051368                0.00010000                1.03500167                0.64416218               -1.34617259               -0.33893311                8.49882290               -2.27971659
               9.24254690                7.24934214               51.79728760                0.00010000                2.04007076                0.59509145               -1.98781728               -0.53869969               17.01220696                1.31542579
              10.26437632                6.89233086               51.73354766                0.00010000                2.32914003                0.37487661               -2.54725533               -0.99951537               18.43826064                3.14633878
              11.28912970                6.52128653               51.68258382                0.00010000                2.48777479                0.12373464               -2.97493276               -1.44453958               19.99962592                4.21998992
              12.31413181                6.13553195               51.64244684                0.00010000                2.29740725                0.00589247               -3.13469350               -2.09384004               21.41256481                4.87973550
              13.33507785                5.73388483               51.61082600                0.00010000                1.68142262                0.28703651               -3.04248203               -2.79672625               22.58404210                4.82425717
              14.34776026                5.31807772               51.58465092                0.03010748                0.82914892                0.89907589               -2.71069925               -3.05289574               23.43767965                3.81114835
              15.35166083                4.89057616               51.56137092                0.24240055                0.48534273                1.03567899               -2.01593727               -1.19403382               12.15263806                1.32266322
              16.35746712                4.48620262               51.30261567                0.71747017                0.58062915                1.55084616               -3.10005441                0.17401812                0.40921921               -1.55019316
               6.55286431                9.25457890               52.25353361                0.94423764               -0.00153865               -0.19233034                0.51570540               -0.03715328                0.02527924                0.69863107
               7.55284892                8.92614815               52.01092729                0.32822041                0.13584571                0.22570610               -0.54199292                0.04707008                0.20398212               -0.66417092
               8.55558123                8.59772250               51.77185746                0.00010000                1.58958842                0.67706954               -1.56378158               -0.58547604               10.47462040               -2.28318305
               9.58464069                8.25457359               51.73393011                0.00010000                3.11819316                0.36195362               -2.21486047               -1.04975706               21.01479948                0.43405305
              10.61794509                7.89458219               51.69843754                0.00010000                3.43900466               -0.00231281               -2.71935984               -1.32444709               21.92205400                2.29764350
              11.65342079                7.52110614               51.66951023                0.00010000                3.49614383               -0.21765322               -3.03366406               -1.45640743               23.16541580                3.50415309
              12.68786796                7.13491214               51.64837693                0.00010000                3.20056344               -0.21593195               -3.10611208               -1.73359779               24.35137794                4.31844752
              13.71743205                6.73575547               51.63223139                0.00010000                2.58523869                0.01300547               -2.92195850               -2.15050296               25.00905571                4.82266360
              14.73957274                6.32342665               51.61407968                0.05353083                1.77912392                0.32852068               -2.55086355               -2.60388023               24.50992784                4.54987628
              15.75301453                5.89861955               51.57926790                0.27748717                1.01641207                0.75577466               -2.00287140               -1.27048224               12.09425042                1.02729533
              16.75990098                5.49855862               51.30640942                0.73549581                0.68864469                1.11196874               -2.99281497                0.05438264                0.18243098               -1.58897344
               6.87882219               10.25307575               52.17142698                0.93782316                0.08224749               -0.10524383                0.23715436               -0.03668278                0.00591249                0.69461964
               7.87964467                9.92874682               51.92194150                0.36107865                0.23088680                0.29011679               -0.80275389                0.05087962                0.06874029               -0.63289253
               8.88343993                9.60449278               51.67362365                0.00010000                2.25237016                0.66003256               -1.78626235               -1.03577821               12.24624844               -1.98593835
               9.92469207                9.25658121               51.66692328                0.00010000                4.39574486               -0.10857298               -2.42118139               -1.66308921               24.67332501                0.15988082
              10.97135483                8.89228460               51.65709581                0.00010000                4.74897672               -0.59437789               -2.88323794               -1.43731937               25.29107666                1.60570613
              12.01967161                8.51693347               51.65039256                0.00010000                4.67278501               -0.65119957               -3.12407391               -1.21899609               26.44498611                2.64220112
              13.06481053                8.13121331               51.65014434                0.00010000                4.19408378               -0.57350915               -3.08057952               -1.23427119               27.73922384                3.51367997
              14.10355328                7.73414494               51.65598008                0.00010000                3.40040233               -0.38923217               -2.68582021               -1.47482095               28.31043415                4.52521801
              15.13281857                7.32464813               51.65544137                0.07631973                2.37829645               -0.10740751               -2.05465232               -1.85553903               25.43411317                6.22955502
              16.15111921                6.90569166               51.59504585                0.30768450                1.29290339                0.70440290               -2.12769324               -1.10982531               11.42167784                0.94364725
              17.15867664                6.50844199               51.30883566                0.74516741                0.75574304                0.95634282               -3.00812317                0.03660769                0.09173990               -1.75325040
               7.20078853               11.25247402               52.08923349                0.90828521                0.16609591               -0.01349999               -0.04482898               -0.04082371                0.00541314                0.60070771
               8.20244949               10.93195048               51.83326764                0.40085702                0.31213683                0.35292241               -1.06930796                0.02043946                0.16504368               -0.52708809
               9.20703126               10.61092315               51.58035276                0.00010000                3.05687997                0.64950847               -2.02237040               -1.78869020               13.94979378               -1.20774253
              10.26358709               10.25240213               51.59933510                0.00010000                6.09075905               -1.19968736               -2.63734058               -1.78155941               27.83034131                0.09186879
              11.32884645                9.88269464               51.61079270                0.00010000                6.32625353               -1.22719431               -3.06272157               -1.06378335               28.32481689                0.88361709
              12.39011216                9.50808215               51.62344700                0.00010000                5.85623098               -1.10696066               -3.24107904               -0.65769567               29.56496125                1.50150375
              13.44597107                9.12344196               51.64326122                0.00010000                5.21943284               -0.96103275               -3.08392046               -0.64778945               31.25736782                2.08439579
              14.49450081                8.72797083               51.67371167                0.00010000                4.24720901               -0.84359081               -2.45857348               -0.81769498               33.30910671                2.96501624
              15.53091525                8.32127850               51.71980197                0.11031873                2.62616765               -0.42355563               -0.95923610               -0.89052875               26.91623060                5.30378125
              16.54702417                7.91270761               51.61154755                0.34998878                1.21086073                0.71358012               -2.32720478               -0.69748750                9.61299827                0.88066705
              17.55513246                7.51768548               51.31051803                0.74479411                0.81082930                0.93814246               -3.08686602                0.03430583               -0.08362322               -1.47474101
               7.51905281               12.25280575               52.00537351                0.95974482                0.25515209                0.03317292               -0.32789562                0.12637910                0.28949322                0.51110075
               8.52160433               11.93580527               51.74604358                0.74551538                0.40808324                0.38547844               -1.35059377                0.14934404                0.80993208               -0.43167095
               9.52721447               11.61748295               51.49692218                0.45967197                4.78425376                0.65597977               -2.30440033               -3.14256921               15.64137132               -0.67427301
              10.61728940               11.23258747               51.53329791                0.36878347                8.35923366               -1.98146690               -2.89245452               -2.11688001               30.30618165               -0.09028925
              11.69439915               10.86774072               51.55871289                0.36015441                7.42404834               -1.49539168               -3.28289225               -0.33439057               30.75044344                0.35918691
              12.76577037               10.49479425               51.58541697                0.36759155                6.87834584               -1.32878949               -3.40990358               -0.22158179               32.18516052                0.69800413
              13.83196606               10.11199266               51.62054658                0.39073626                6.17962362               -1.14493022               -3.18508730               -0.27655667               34.27346012                1.02271016
              14.88936284                9.71727313               51.67022424                0.42898573                4.91525751               -1.06976987               -2.42156733               -0.30457892               37.15547678                1.56859427
              15.93027121                9.31617702               51.74602455                0.57917609                2.56998206               -0.51014782               -0.74618818                0.07010325               29.31798721                3.17437682
              16.94076248                8.91996326               51.62680367                0.70406021                0.95679097                0.72556456               -2.54407380               -0.07477722               10.15152762                0.77203436
              17.94940703                8.52720484               51.32017422                0.87340288                0.86445480                0.95193659               -3.22621920                0.15161556                0.70758075               -1.16876024
               4.35198378                2.38242473               53.83306447                1.00000000               -0.69187864               -0.82550372                2.86242063               -0.23491034               -0.91260466                0.87530393
               5.34506500                2.01784399               53.61811586                1.00000000               -0.54251715               -0.42051518                1.59821182               -0.16806586               -1.20100092                0.14219370
               6.34113344                1.65239413               53.39757233                1.00000000               -0.25999961               -0.03247223                0.38634245               -0.18328636               -1.10016528               -0.20133146
               7.33986501                1.28423586               53.18414380                0.67508129               -0.29938378                0.43172302               -0.84905327               -0.36961388                0.31000388               -0.81457024
               8.33514577                0.91019584               52.99032749                0.68668544               -0.22698361                0.92795368               -1.95828300               -0.26793855                1.80299145                0.00770973
               9.33532533                0.53224694               52.80079392                0.64909433                0.28118654                1.21848295               -3.17937267               -0.24401045                2.35984838               -0.12069469
              10.34076950                0.14911215               52.61127753                0.45618065                0.65569763                1.66649055               -4.64411089               -0.41939539                3.45785662               -0.30443043
              11.34843929               -0.24049266               52.43487541                0.09991037               -2.77845349                2.27981521               -6.30580913               -4.27668850               11.15789019                0.28037621
              12.28520043               -0.71004230               52.38649250                0.00010000               -1.69931901                2.75486913               -7.31478685               -9.39712435               13.34425269               -5.39285318
              13.31445291               -1.30130786               52.32061883                0.94523908                1.80412327                0.44131416               -2.03987555              -12.70368615                5.90220604                0.25880997
              14.32128289               -1.63858421               52.13248522                1.00000000                0.68299861                0.67502221               -2.68658142               -0.23229062               -0.01496894               -0.46627732
               4.71421543                3.37416970               53.74915702                1.00000000               -0.58157861               -0.78242727                2.54993817               -0.01963736               -0.20190919                1.17289618
               5.70839964                3.01363883               53.53416649                1.00000000               -0.40553944               -0.38113005                1.28437604                0.04143629               -0.29873290                0.22540229
               6.70610464                2.65206940               53.31745550                1.00000000               -0.05658152                0.00845922                0.05211140                0.03581860               -0.17210064               -0.33368208
               7.70726801                2.28855309               53.10479511                0.48666082                0.11780990                0.45056363               -1.20107178               -0.14516321                1.67674427               -1.11567985
               8.70846084                1.91947537               52.92442090                0.54830007                0.30795295                0.85642636               -2.30735024               -0.10682553                3.01037548                0.05025433
               9.71342707                1.54443177               52.73699700                0.51017756                0.72422527                1.20833857               -3.51165692               -0.12011478                2.68138344               -0.08855652
              10.72294534                1.16577706               52.54682420                0.25271766                1.09112761                1.65887687               -4.89782944               -0.18350155                3.56431798               -0.46215247
              11.73524962                0.78230549               52.37258890                0.00010000               -0.06542793                2.14580419               -6.25716994               -4.48385348               12.33496669                0.89416236
              12.72163678                0.31750640               52.35310421                0.00010000               -4.17813115               -2.69136000               -2.29965209              -17.71162953               20.57957752                2.00336708
              13.65168700               -0.29689472               52.38298124                1.00000000               -3.27002272                0.32707950               -1.17423753              -13.88107963               11.03574872                0.42810893
              14.65623633               -0.63183399               52.19179685                1.00000000                0.45493300                0.58082784               -1.92057708               -0.12180954                0.05084571               -0.34328251
               5.07265276                4.36677619               53.67162188                1.00000000               -0.46587467               -0.69192384                2.19979603               -0.01848442                0.02312378                1.44736862
               6.06799402                4.01022139               53.45193124                1.00000000               -0.28586031               -0.29121830                0.95846893                0.03634188                0.11648132                0.23651466
               7.06693556                3.65256331               53.23435252                0.81856572                0.07808787                0.10299566               -0.27403225                0.00773735                0.34043683               -0.65375080
               8.06955577                3.29324713               53.01898670                0.00010000                0.50975077                0.50806812               -1.51087858               -0.28473950                3.20616557               -1.38387151
               9.07713057                2.92732436               52.85825149                0.00010000                0.85327902                0.75785605               -2.62012046               -0.84400937                4.44874336                0.44336220
              10.08662135                2.55641372               52.67191848                0.00010000                1.10475866                0.92868397               -3.86373724               -1.39422328                2.79783620                2.77891411
              11.09922575                2.18228969               52.47772019                0.00010000                1.02057608                0.83322620               -5.23460208               -2.35087501                4.66042340                6.06754724
              12.10703288                1.80242343               52.32682523                0.00010000               -4.45288473               -0.35461521               -4.95175207              -12.90297308               22.14675786               11.46641940
              13.01016805                1.23613050               52.48673870                0.09084849               -6.04305903               -2.39283654               -5.73895954              -20.79055151               28.40896135                8.38273042
              13.98617169                0.70523373               52.44644921                0.72306684               -1.07214103                0.10008316               -0.44185057               -9.86057886                7.83031035                0.51016143
              14.98872523                0.37303235               52.25168226                1.00000000                0.25535348                0.39614519               -1.23836543               -0.14033103                0.11262092               -0.24388147
               5.42695535                5.36033122               53.59350236                1.00000000               -0.36159899               -0.58769717                1.83798680               -0.03627561                0.14542918                1.26762564
               6.42333936                5.00781447               53.36818557                0.82011552               -0.18608546               -0.17814176                0.62353527                0.00524387                0.36351240               -0.03537514
               7.42323364                4.65412932               53.14744900                0.25724907                0.17364062                0.22702768               -0.56712352               -0.05360088                0.94839181               -1.12359688
               8.42681217                4.29871445               52.93356851                0.00010000                0.25902146                0.63922706               -1.82080360               -0.52981784                5.22063044               -1.34396790
               9.42841407                3.93463249               52.79768946                0.00010000                0.18825549                0.85243030               -2.69596604               -1.36467714                9.02725012                1.93609348
              10.43057728                3.56300545               52.66307498                0.00010000                0.07520325                0.70854106               -3.57513043               -2.28728732                9.72594616                5.70600480
              11.42991813                3.18244158               52.54221057                0.00010000               -0.36139682               -0.00275253               -4.10232995               -4.23062827               13.76472320               10.72749155
              12.42334934                2.77521319               52.48618025                0.00010000               -1.34513401               -1.96274598               -4.26161125              -10.29628035               21.51495919               14.07350874
              13.40301545                2.26964967               52.51114333                0.00010000               -5.28878825                3.00292330               -5.22309336              -13.42880614               24.02734559                2.75325845
              14.31757358                1.70510694               52.50994080                0.08507604               -4.25914936                5.93216728                0.33544382               -5.06817033               10.10461747               -4.26673858
              15.31783247                1.37608892               52.31287614                0.61122854                0.02588865                1.15150511               -0.60175947                5.53971177                0.32960572               -5.34359541
               5.77696075                6.35502225               53.51255141                1.00000000               -0.26599585               -0.47669498                1.48356666               -0.04770530                0.15341996                0.99131488
               6.77430080                6.00665855               53.28049460                0.50841247               -0.09986002               -0.04796951                0.26949975               -0.01370669                0.45794331               -0.43673594
               7.77496355                5.65710386               53.05465681                0.05930345                0.20777224                0.38497255               -0.90487560               -0.08018269                1.74038375               -1.66431264
               8.77845624                5.30603167               52.84782687                0.00010000                0.52912375                0.76589487               -1.95117453               -0.32969068                8.77692251                2.12368634
               9.78554603                4.94437297               52.76240824                0.00010000                0.73051400                0.83649825               -2.68405821               -0.82711655               14.11945630                3.44675279
              10.79306652                4.57058454               52.66261360                0.00010000                0.84297070                0.55773538               -3.33752395               -1.36912801               14.45966676                5.68588071
              11.80240544                4.18223464               52.58171505                0.00010000                1.04163309               -0.16841272               -3.70671416               -2.58342950               17.28802459                7.63015319
              12.81389918                3.76316851               52.53267324                0.00010000                0.46463661               -0.78347664               -3.79457788               -5.27154158               20.39545484                6.74267406
              13.81169818                3.29618897               52.50771585                0.00010000               -1.77650734                2.30176360               -3.15956499               -6.59686372               21.93005165                1.80483947
              14.77836904                2.82387707               52.47835241                0.12122276               -2.70713312                8.20365811               -4.21324079               -0.76087705               13.38500287               -2.20670069
              15.75755551                2.39606245               52.27092951                0.63595417               -2.08135231                3.49484949               -4.00580517                1.62446688                3.41856419               -7.04876014
               6.12272863                7.35079732               53.42902858                1.00000000               -0.17450285               -0.37399233                1.14488854               -0.03771037                0.01138327                0.78041071
               7.12098361                7.00685508               53.18873311                0.37976538               -0.02358866                0.06801965               -0.03486273               -0.00156842                0.42643935               -0.64189783
               8.12225686                6.66182877               52.95676189                0.00010000                0.59828239                0.54306049               -1.21023947               -0.12410514                6.18563935               -2.04777159
               9.13294925                6.31403235               52.83107616                0.00010000                1.25310071                0.72697721               -1.78975262               -0.12726441               13.05136847                3.68266995
              10.14731887                5.95136246               52.73412446                0.00010000                1.61918994                0.55811574               -2.72801944               -0.70722622               15.74452735                3.69967088
              11.16533305                5.57416016               52.65964002                0.00010000                1.91733496                0.20011441               -3.27513671               -1.27524307               17.84186653                4.96522850
              12.18566557                5.17907333               52.59968486                0.00010000                1.93155633               -0.27282762               -3.55785834               -2.37904111               19.80034268                5.69536140
              13.20396418                4.75954366               52.55702738                0.00010000                1.23520189               -0.13324373               -3.52682977               -4.09655867               21.85462792                5.02296586
              14.21036961                4.31568494               52.52830217                0.00010000               -0.07408101                1.59832007               -3.40449507               -4.46959462               23.69821092                3.10571305
              15.20248256                3.86918010               52.51212301                0.17854851               -0.22092826                3.00551135               -3.27182885               -1.39293241               13.10645556                1.94448533
              16.20595105                3.44598591               52.26315580                0.67431899                0.34684881                3.60895629               -3.83264551                1.12679420                1.50688291               -2.30834064
               6.46409103                8.34754240               53.34393779                0.96319223               -0.08530531               -0.28288729                0.83459257               -0.03816974                0.02549896                0.69866138
               7.46323798                8.00801894               53.09701676                0.32529189                0.06065730                0.15807989               -0.31508672                0.02283171                0.34122873               -0.64021809
               8.46530418                7.66796507               52.85639108                0.00010000                1.15696417                0.65204422               -1.47242556               -0.27918844                8.71528979               -2.20016238
               9.48637726                7.32057122               52.77627091                0.00010000                2.29847580                0.56367509               -2.21573898               -0.44054115               17.44907832                1.19901771
              10.51127369                6.95553528               52.70661063                0.00010000                2.67367645                0.26296056               -2.85011836               -0.95116901               18.97634233                3.13670776
              11.53985079                6.57458682               52.65123057                0.00010000                2.90837150               -0.07538583               -3.32034256               -1.45891668               20.74175931                4.18664015
              12.56944113                6.17677808               52.60938848                0.00010000                2.77528025               -0.24204265               -3.52354657               -2.24709370               22.42790961                4.80922254
              13.59535640                5.76050363               52.57856976                0.00010000                2.16143553                0.07727363               -3.48126027               -3.15341161               23.87609780                4.70529327
              14.61266984                5.32815537               52.55566305                0.02462965                1.24265102                0.88119217               -3.18988095               -3.53658524               25.08484411                3.76137044
              15.62020942                4.88398730               52.53987692                0.22798002                0.69049770                1.17135510               -2.38056131               -1.47301103               13.15479706                1.61316245
              16.62647979                4.46824158               52.27138304                0.70360354                0.62703718                1.74449011               -3.19968392                0.11861466                0.57132840               -1.09723845
               6.80101215                9.34513958               53.25886729                0.93671174                0.00054130               -0.19815727                0.55049567               -0.03814386                0.02421858                0.70208257
               7.80101756                9.01001668               53.00526076                0.31590979                0.15543325                0.23539742               -0.59011880                0.04662827                0.21932190               -0.63035093
               8.80412082                8.67486965               52.75551288                0.00010000                1.77753285                0.69702184               -1.70200275               -0.56970921               10.68992212               -2.19764053
               9.83656822                8.32530585               52.71055910                0.00010000                3.50795360                0.30719332               -2.46415088               -0.99954931               21.43811319                0.42532470
              10.87427989                7.95662167               52.66967969                0.00010000                3.91718479               -0.12351312               -3.04885052               -1.33459171               22.48425863                2.23857476
              11.91491192                7.57265244               52.63744384                0.00010000                4.02635027               -0.38386954               -3.41323468               -1.50692083               23.92687337                3.43384093
              12.95480689                7.17423247               52.61560417                0.00010000                3.73033707               -0.38499155               -3.50440515               -1.86219058               25.35919929                4.26326930
              13.98951866                6.76108913               52.60147735                0.00010000                3.06736724               -0.09597886               -3.31039466               -2.40156165               26.24607109                4.88652549
              15.01615424                6.33330878               52.58728673                0.05226548                2.17087376                0.29186742               -2.90165726               -2.96161337               25.98903876                4.83337188
              16.03293613                5.89260721               52.55908832                0.26938313                1.18302736                0.78131792               -2.07914830               -1.47716437               12.92311927                1.10457197
              17.03981479                5.48087571               52.27713213                0.72299278                0.68786519                1.09516513               -2.88980270                0.01919715                0.24150542               -1.28306700
               7.13357395               10.34357925               53.17394499                0.93110181                0.08665130               -0.11129581                0.26678069               -0.03841977                0.00698224                0.69802555
               8.13444047               10.01272689               52.91361940                0.34733162                0.25234319                0.30406803               -0.86066703                0.04935761                0.09804088               -0.60267950
               9.13862082                9.68190551               52.65502809                0.00010000                2.50968967                0.69186056               -1.93212479               -1.07464324               12.47184255               -1.91385987
              10.18463426                9.32671508               52.64139841                0.00010000                4.93072255               -0.19112818               -2.69306263               -1.69283318               25.09620796                0.16841329
              11.23723527                8.95306502               52.62660689                0.00010000                5.37336560               -0.74148649               -3.23765763               -1.47192009               25.86856211                1.56713414
              12.29210157                8.56690943               52.61739864                0.00010000                5.32626795               -0.81595011               -3.51617373               -1.25108455               27.24541052                2.58630147
              13.34376063                8.16907825               52.61780979                0.00010000                4.80736416               -0.73407554               -3.45024968               -1.28118298               28.84666968                3.51165470
              14.38824886                7.75858405               52.62821875                0.00010000                3.90794315               -0.51511621               -2.95164162               -1.57119635               29.70068914                4.73996579
              15.42191949                7.33399272               52.63475034                0.07949879                2.74251727               -0.20860288               -2.20542581               -2.00906043               26.57640853                7.12495786
              16.44309920                6.89961366               52.57418196                0.30566477                1.42036170                0.68541259               -2.07832253               -1.25767890               11.82674021                0.90402398
              17.45032673                6.49014488               52.27989239                0.73443503                0.72275238                0.88466227               -2.80135320                0.02361400                0.11548927               -1.55030184
               7.46194848               11.34291366               53.08889797                0.89901531                0.17299783               -0.02006420               -0.02097598               -0.04248511                0.00941683                0.60153879
               8.46367846               11.01609804               52.82222851                0.38315946                0.33456386                0.37256857               -1.13830907                0.01788308                0.20545231               -0.50912320
               9.46863976               10.68870686               52.55934765                0.00010000                3.39367946                0.68792620               -2.17559327               -1.90644230               14.19015189               -1.16816219
              10.53155205               10.32148329               52.57161058                0.00010000                6.80036899               -1.37491842               -2.92005528               -1.85845664               28.27007828                0.11119148
              11.60464714                9.94179194               52.57849106                0.00010000                7.11624727               -1.41901060               -3.42447555               -1.09171537               28.93562832                0.87016876
              12.67387699                9.55633344               52.58935309                0.00010000                6.64307384               -1.30399328               -3.62348608               -0.66041890               30.43337473                1.47516051
              13.73750861                9.15955096               52.61117869                0.00010000                5.96516353               -1.16578955               -3.39982464               -0.64563271               32.51461173                2.10073988
              14.79318026                8.75078680               52.64894893                0.00010000                4.87174057               -1.07103851               -2.58462238               -0.83834127               35.26940027                3.16795860
              15.83494343                8.32913672               52.71227283                0.11883579                2.92250666               -0.57460191               -0.67676474               -0.89018702               27.72614962                6.08108532
              16.85163040                7.90631546               52.58895667                0.35527118                1.21405987                0.67766336               -2.22521662               -0.76106904                9.20950863                0.80005729
              17.85922462                7.49856895               52.28105763                0.73623630                0.75942257                0.85256357               -2.82831702                0.02898542               -0.06128265               -1.33412043
               7.78635550               12.34317797               53.00216915                0.95431969                0.26494266                0.02643106               -0.31108905                0.14073096                0.28499793                0.51040575
               8.78900492               12.02017826               52.73214392                0.73496283                0.43756114                0.40802262               -1.42950631                0.15694976                0.84029584               -0.42190828
               9.79510672               11.69566404               52.47304147                0.45714915                5.26875645                0.69571710               -2.46445515               -3.40138109               15.89157500               -0.66131735
              10.89438005               11.29921672               52.50305151                0.36868054                9.27220445               -2.22665721               -3.16905537               -2.26616086               30.79823151               -0.04919192
              11.98055081               10.92468481               52.52430596                0.36015770                8.33770600               -1.71071307               -3.62414244               -0.32899027               31.43785496                0.38347257
              13.06113417               10.54082957               52.54982324                0.36735810                7.79219010               -1.55038733               -3.75262055               -0.22039941               33.14270643                0.72180754
              14.13639461               10.14576246               52.58775267                0.38977501                7.03810482               -1.37884991               -3.43755190               -0.29471458               35.65293242                1.07995591
              15.20189627                9.73716328               52.64638794                0.42720917                5.60962435               -1.36235211               -2.43182892               -0.29148851               39.25370705                1.76733420
              16.24858710                9.32250068               52.74110720                0.58533256                2.82746598               -0.66360406               -0.39697305                0.16454928               29.91584052                3.55920998
              17.25844559                8.91316692               52.60226297                0.70903940                0.89061705                0.68514674               -2.39667356               -0.08370749                9.44400364                0.70072887
              18.26639944                8.50719615               52.28954255                0.86964100                0.79538502                0.86271955               -2.92116157                0.12040412                0.69032980               -1.04933155
               4.56447264                2.47642173               54.86206111                1.00000000               -0.69752128               -0.84283112                2.92355638               -0.24755765               -0.85026565                0.83203856
               5.55749743                2.10474543               54.63412733                1.00000000               -0.53242439               -0.42139818                1.59835311               -0.18203971               -1.10903037                0.13476356
               6.55382415                1.73221972               54.40108177                1.00000000               -0.21133732               -0.01609365                0.31734071               -0.19326180               -0.99883685               -0.18979709
               7.55327068                1.35733348               54.17486463                0.66824291               -0.11986422                0.45151377               -0.99655696               -0.32800649                0.41458931               -0.78623243
               8.55142687                0.97802233               53.96881472                0.66568282                0.07757405                0.97288878               -2.30528370               -0.27172307                1.83841407                0.03425436
               9.55482216                0.59637883               53.76617767                0.61428213                0.62149594                1.30317047               -3.67111914               -0.23280355                2.17900280               -0.13249573
              10.56385679                0.21134994               53.56155015                0.39929577                1.03660096                1.73147808               -5.17235896               -0.30873014                3.04733082               -0.37310117
              11.57555418               -0.17679739               53.37086915                0.00010000               -4.92327038                2.05501565               -6.37055204              -11.83117011                9.94984550                0.08151964
              12.46539138               -0.79645157               53.30071759                0.00010000               -3.62650525                2.40682066               -6.86311247              -13.54685543               14.91423098               -2.74974323
              13.50302408               -1.36494358               53.29707645                0.85852541                2.37857419                0.60415566               -3.08382090              -11.20607885                9.17267769                0.29089144
              14.51296286               -1.70704091               53.10263278                1.00000000                0.99387871                0.83687497               -3.76372827               -0.32226926                0.08671316               -0.71613970
               4.93367337                3.46799342               54.77500207                1.00000000               -0.58953326               -0.79718532                2.60690515               -0.02483190               -0.17444500                1.11874694
               5.92777803                3.10053144               54.54701556                1.00000000               -0.40379301               -0.38049888                1.28073990                0.03558003               -0.25000491                0.21512256
               6.92559751                2.73205879               54.31762507                1.00000000               -0.03443591                0.02602408               -0.01575659                0.03301085               -0.11719192               -0.31969403
               7.92708932                2.36184862               54.09205542                0.48053783                0.17947293                0.47696244               -1.33968539               -0.07821869                1.76747060               -1.07016132
               8.92918697                1.98775121               53.89971909                0.52950843                0.43705028                0.93498852               -2.61862130               -0.09515748                3.13337711                0.08521144
               9.93583032                1.60941054               53.69965558                0.47799492                0.90853154                1.30427057               -3.92657473               -0.09510522                2.70302226               -0.13238614
              10.94735760                1.22866472               53.49563071                0.20343588                1.26564580                1.73055982               -5.30170595               -0.19309458                3.66657267               -0.59684698
              11.96114324                0.84375277               53.31131477                0.00010000               -1.16808365                1.71092801               -6.01058407              -12.26173342               15.64981170                1.35937425
              12.92399592                0.22761663               53.34501834                0.00010000               -5.74426414                1.39175911               -2.85959522              -21.29588767               23.62148604                0.06992990
              13.84625796               -0.35890202               53.37017049                0.94845258               -3.60792115                0.42042057               -1.54884860              -12.15487283               11.13229804                0.51306820
              14.85183750               -0.69867216               53.17162042                1.00000000                0.55795450                0.66832793               -2.30011144               -0.18703814                0.13437904               -0.45911437
               5.29889995                4.46047802               54.69395179                1.00000000               -0.47562886               -0.70157900                2.25551547               -0.02293316                0.04397226                1.37395240
               6.29414366                4.09713545               54.46149794                1.00000000               -0.28663778               -0.28940950                0.95159992                0.03411927                0.14741616                0.21731169
               7.29316719                3.73274020               54.23125378                0.81354730                0.09351108                0.11985465               -0.34247840                0.01810543                0.37453217               -0.62472845
               8.29601388                3.36687273               54.00316602                0.00010000                0.43973063                0.54089704               -1.64542968               -0.15059384                3.28943959               -1.32782343
               9.30196181                2.99672210               53.83078171                0.00010000                0.79963361                0.77048868               -2.89955714               -0.67034203                4.62143461                0.58468994
              10.31200655                2.62246424               53.63152812                0.00010000                1.18454287                0.80461446               -4.22693093               -1.22010087                2.92537060                3.01804837
              11.32565266                2.24596113               53.42377266                0.00010000                0.96805236                0.43621568               -5.57792666               -2.45595176                5.81209988                6.60783938
              12.33136760                1.85742117               53.28000662                0.00010000               -4.17621215               -1.69543015               -4.08869778              -15.68603275               23.19242904               11.42692500
              13.24212842                1.23138361               53.42679873                0.06895553               -7.25760956                2.68582019               -5.82360373              -25.03516079               31.57040261                4.86523155
              14.18621541                0.64346483               53.44207688                0.65043026               -2.66830243                0.09290479               -0.45286501              -12.44968364               11.06568402                0.51148148
              15.18876237                0.30632565               53.23945300                1.00000000                0.25469617                0.38849604               -1.29704323               -0.16348474                0.21395924               -0.44884658
               5.65989985                5.45396184               54.61219186                1.00000000               -0.37016130               -0.59388955                1.89106781               -0.03758934                0.16325249                1.19403536
               6.65619824                5.09474325               54.37436769                0.79887341               -0.18387598               -0.17782307                0.61068800                0.01144893                0.39645873               -0.06824068
               7.65622233                4.73445588               54.14133631                0.24275520                0.19486552                0.23787326               -0.64607047               -0.02501319                0.96225716               -1.10072367
               8.66009555                4.37266656               53.91457948                0.00010000                0.19831421                0.66999763               -1.95861508               -0.44726468                5.38982999               -1.19894437
               9.66018861                4.00316099               53.76957299                0.00010000                0.10468593                0.74064001               -2.92109329               -1.18873889                9.38979377                2.14264331
              10.66218927                3.62550283               53.62590816                0.00010000                0.15465076                0.34529182               -3.86011618               -2.17545365               10.36519727                6.10862127
              11.66328163                3.23738903               53.50016928                0.00010000               -0.00945784               -0.85789593               -4.28377049               -4.71719750               14.88924063               11.32647871
              12.66200011                2.80984417               53.44256748                0.00010000               -1.30162906               -3.25043092               -4.37501176              -11.28871056               22.34808411               13.65296480
              13.63724905                2.28133304               53.45709947                0.00010000               -6.98389359                3.50066847               -5.20090744              -17.20105902               27.44126355                2.70081711
              14.52232224                1.64295607               53.51344147                0.06198745               -5.72014409                7.55950197                0.36735086               -6.04736235               13.48050490               -7.27790714
              15.52284617                1.30909776               53.30652038                0.60334539                0.05239290                1.94348916               -0.77670134                7.38251429                0.36157746               -7.76084378
               6.01658533                6.44860023               54.52765768                1.00000000               -0.27067305               -0.48094268                1.53213567               -0.04496701                0.14344473                0.92931316
               7.01387860                6.09357899               54.28309388                0.49304434               -0.09208529               -0.05043819                0.24898194               -0.00018089                0.47018000               -0.45464988
               8.01474362                5.73749767               54.04513935                0.04761738                0.22424422                0.38468389               -0.98507090               -0.03447786                1.84166752               -1.64443701
               9.01836348                5.38027269               53.82768777                0.00010000                0.53035722                0.76072841               -2.04946840               -0.27996850                9.08249775                2.45016808
              10.02535077                5.01153490               53.73440746                0.00010000                0.79529776                0.68573537               -2.90745317               -0.74423765               14.61620274                3.57530228
              11.03426944                4.62937008               53.62789231                0.00010000                1.08083031                0.19081108               -3.60560388               -1.40656745               15.20080774                5.81118069
              12.04696737                4.22880322               53.54315539                0.00010000                1.36899754               -0.81804738               -4.01095529               -2.96382953               18.36338160                7.56893440
              13.06164939                3.79241256               53.49276970                0.00010000                0.90139810               -1.26333146               -4.17217547               -6.25093745               21.92673089                6.35545957
              14.06499533                3.30139698               53.47300564                0.00010000               -1.20729759                1.91395773               -3.78885500               -7.94080835               22.70893040                1.62359058
              15.03750343                2.79465487               53.42908163                0.10188846               -3.04330283               10.61575483               -5.23126090               -0.31140972               13.94700625               -5.66861241
              16.00412928                2.34519544               53.22757743                0.62922608               -3.33741578                5.59117966               -4.68253806                2.69902857                4.71745268              -10.30193987
               6.36904300                7.44434298               54.44067675                0.99577182               -0.17458161               -0.37716767                1.17930496               -0.03732629                0.01250642                0.74219462
               7.36729718                7.09373449               54.18824045                0.36777148               -0.01019612                0.06608463               -0.06145889                0.00730621                0.42948506               -0.62363241
               8.36883907                6.74214956               53.94414804                0.00010000                0.65808851                0.53497393               -1.30093307               -0.09852177                6.45228795               -1.99632451
               9.38045895                6.38788113               53.81167899                0.00010000                1.36836967                0.67834310               -2.06757284               -0.11642083               13.41687858                3.75276593
              10.39620647                6.01687569               53.70554045                0.00010000                1.81653235                0.39874457               -2.98344218               -0.74846766               16.16619740                3.67933917
              11.41678960                5.62931905               53.62531536                0.00010000                2.23780476               -0.10772811               -3.59705827               -1.44650051               18.57422612                4.84570760
              12.44096256                5.22102808               53.56220538                0.00010000                2.37990006               -0.65030632               -3.96244765               -2.81790309               20.83203062                5.42262733
              13.46438760                4.78457754               53.51938241                0.00010000                1.76140010               -0.44359146               -4.06006076               -4.83700234               23.06388552                4.56558227
              14.47619057                4.31961219               53.49091460                0.00010000                0.39539929                1.64617938               -4.16047375               -5.30758559               24.84197381                2.31147456
              15.47229559                3.85527117               53.47350975                0.15703942               -0.02224765                4.06096185               -4.67072024               -1.85787425               14.04164902                2.31852526
              16.47574561                3.42092136               53.22210225                0.66187255                0.34500272                5.25430434               -4.59584647                1.65262701                2.23780707               -2.51492524
               6.71705579                8.44105688               54.35245528                0.95221045               -0.08376397               -0.28648155                0.86769048               -0.03968328                0.03297539                0.69284332
               7.71621815                8.09490068               54.09367302                0.31472997                0.07853794                0.16019948               -0.35215645                0.02164277                0.34274833               -0.61010798
               8.71862655                7.74819715               53.84106517                0.00010000                1.25453901                0.64915648               -1.58141101               -0.29094389                8.91166091               -2.12495545
               9.74130893                7.39383955               53.75297282                0.00010000                2.51584754                0.50357291               -2.43914117               -0.49550801               17.85158734                1.05157111
              10.76894350                7.01950979               53.67654529                0.00010000                2.99390543                0.12408653               -3.16460508               -1.10424874               19.48451200                2.98455151
              11.80118704                6.62721552               53.61617697                0.00010000                3.32036615               -0.28520759               -3.70873857               -1.72342633               21.44189268                3.95503096
              12.83535082                6.21579709               53.57197591                0.00010000                3.25690992               -0.46359321               -4.00432613               -2.68094580               23.35979191                4.49770993
              13.86632523                5.78354073               53.54120080                0.00010000                2.63995853               -0.03702727               -4.07562118               -3.75966032               25.03848547                4.33502246
              14.88814999                5.33432056               53.52085330                0.01628966                1.63557744                1.06973022               -3.90711550               -4.10573169               26.64704855                3.52705421
              15.89903678                4.87587411               53.51375969                0.20915964                0.88657269                1.55673898               -3.02695487               -1.73515534               14.20436291                2.18342717
              16.90588144                4.45028152               53.23862200                0.68904550                0.68446605                2.17332839               -3.48285099                0.08563397                0.86089954               -0.61942855
               7.06056173                9.43861335               54.26454352                0.92870421                0.00280392               -0.20256457                0.58471227               -0.03962619                0.02263388                0.71271657
               8.06058977                9.09693848               53.99912491                0.30505371                0.17598012                0.24123993               -0.63590173                0.04117855                0.23048904               -0.60089897
               9.06408133                8.75513269               53.73781740                0.00010000                1.93231928                0.70918367               -1.83066015               -0.62573294               10.88232402               -2.11941478
              10.09923615                8.39795259               53.68464710                0.00010000                3.83320974                0.25292265               -2.71879653               -1.10233786               21.81423739                0.33872485
              11.14074552                8.01935742               53.63746053                0.00010000                4.33988093               -0.23469337               -3.40719483               -1.52776758               22.99609196                2.04979420
              12.18603377                7.62361490               53.60124554                0.00010000                4.51364573               -0.52326362               -3.85874931               -1.77056605               24.62987736                3.19196904
              13.23101844                7.21175622               53.57828883                0.00010000                4.23185738               -0.49626030               -4.02180895               -2.21024537               26.29877713                4.03106270
              14.27067092                6.78383699               53.56602350                0.00010000                3.53620555               -0.10340237               -3.88449572               -2.82240745               27.41354633                4.82902061
              15.30174255                6.34100679               53.55604654                0.04862443                2.54803016                0.39203152               -3.47205603               -3.35987512               27.52913351                5.08346152
              16.32163152                5.88640595               53.53768493                0.25651111                1.34504585                0.90148384               -2.28416315               -1.65718431               13.85428890                1.29141244
              17.32864347                5.46438792               53.24861336                0.70874857                0.70119453                1.16144672               -2.87606489               -0.01759649                0.34074138               -0.94352221
               7.39961301               10.43700559               54.17676260                0.92402631                0.09093766               -0.11663592                0.29703149               -0.04030867                0.00795715                0.70724870
               8.40052238               10.09972548               53.90472816                0.33402499                0.27423853                0.31525088               -0.91658462                0.04471606                0.12644242               -0.57882844
               9.40509778                9.76238082               53.63498116                0.00010000                2.72575241                0.72069236               -2.07451545               -1.17282857               12.67194759               -1.84977890
              10.45503743                9.39889800               53.61306203                0.00010000                5.38140305               -0.24898656               -2.98118719               -1.84779043               25.45882077                0.11128456
              11.51272584                9.01481592               53.59234266                0.00010000                5.91697439               -0.84792413               -3.63753127               -1.65383892               26.38723168                1.42158191
              12.57337692                8.61675025               53.58006908                0.00010000                5.90989880               -0.92270681               -3.99594185               -1.44428968               27.99463437                2.40103659
              13.63092381                8.20587188               53.58113934                0.00010000                5.36247956               -0.81211709               -3.96307102               -1.48142723               29.93569670                3.39698370
              14.68062651                7.78147268               53.59694724                0.00010000                4.37298580               -0.53380955               -3.41262819               -1.77934591               31.08286837                4.92943463
              15.71838353                7.34216119               53.61133285                0.08117472                3.09427281               -0.22317247               -2.61132454               -2.19404694               27.78011011                8.21195184
              16.74251197                6.89390379               53.55347940                0.29953625                1.55910166                0.71109015               -2.11178097               -1.39263609               12.30124742                0.87466959
              17.74956556                6.47351046               53.25280859                0.72120481                0.70535967                0.84824902               -2.64905338                0.01373797                0.15049012               -1.34957806
               7.73431577               11.43628063               54.08881397                0.89014714                0.17930829               -0.02670460                0.00549501               -0.04420247                0.01249790                0.60734125
               8.73610885               11.10324350               53.81050146                0.36495642                0.35682332                0.39054027               -1.20548068                0.01407243                0.25100317               -0.49754659
               9.74145224               10.76954653               53.53684089                0.00010000                3.68681963                0.72440728               -2.32691883               -2.06150178               14.40995489               -1.13440699
              10.80984524               10.39297286               53.54093399                0.00010000                7.41821330               -1.50881185               -3.22729703               -2.00977405               28.64747437                0.09451095
              11.88981650               10.00239894               53.54230319                0.00010000                7.81233848               -1.55177775               -3.84332807               -1.20767090               29.49229195                0.79544405
              12.96609201                9.60516076               53.55097728                0.00010000                7.34254794               -1.42300663               -4.10806332               -0.75420959               31.27200551                1.37507519
              14.03666746                9.19551388               53.57526472                0.00010000                6.63513371               -1.27140262               -3.87261459               -0.72318820               33.80844927                2.05978769
              15.09879469                8.77316080               53.62201923                0.00010000                5.43815221               -1.18654431               -2.91844121               -0.92572982               37.40938688                3.38426510
              16.14543050                8.33654335               53.70626667                0.12808847                3.18174250               -0.62343643               -0.60548778               -0.91017901               28.55620331                7.01353948
              17.16242954                7.90062775               53.56704322                0.35760257                1.21371905                0.67307256               -2.20751894               -0.82476008                8.68480007                0.70435062
              18.16970489                7.48135291               53.25395169                0.72439964                0.72753472                0.78689506               -2.61788959                0.02695964               -0.03011146               -1.20795314
               8.06480323               12.43647149               53.99915173                0.94868366                0.27347028                0.01908604               -0.28970798                0.15522499                0.28189580                0.51378138
               9.06753793               12.10753628               53.71745345                0.72410327                0.46675762                0.42927860               -1.50521642                0.16278167                0.88359346               -0.41797851
              10.07413838               11.77686897               53.44763307                0.45459690                5.72258052                0.73224333               -2.61946755               -3.67211137               16.13516114               -0.65181370
              11.18198954               11.36872176               53.46991681                0.36854822               10.11230689               -2.42510942               -3.47092851               -2.44000030               31.25160066               -0.01548582
              12.27638452               10.98378037               53.48623004                0.36029462                9.15941246               -1.86185771               -4.02333088               -0.36478076               32.10086906                0.38695492
              13.36517779               10.58829011               53.51036456                0.36712831                8.60377444               -1.68706467               -4.19791470               -0.25824896               34.10067303                0.72050342
              14.44846001               10.18044383               53.55179554                0.38874204                7.79523280               -1.50700476               -3.84515466               -0.34816118               37.11031091                1.12270791
              15.52108245                9.75774179               53.62158766                0.42566077                6.21264955               -1.54190086               -2.64104509               -0.30879229               41.51357157                2.00503466
              16.57271300                9.32969247               53.73808509                0.59246763                3.00623790               -0.68508792               -0.31362996                0.20942169               30.48399791                3.90055509
              17.58120721                8.90736524               53.57887020                0.71267044                0.79707262                0.67374842               -2.33331436               -0.14443870                8.62446628                0.62580722
              18.58865445                8.48924836               53.26175099                0.86379826                0.74472461                0.78954522               -2.65871254                0.08326867                0.68778002               -0.94062268
               4.79084603                2.57318358               55.89153559                1.00000000               -0.69823083               -0.85296284                2.95841830               -0.25672822               -0.79421693                0.79379164
               5.78386372                2.19476279               55.65008292                1.00000000               -0.52133176               -0.41921163                1.58784637               -0.19231685               -1.02820576                0.12880644
               6.78041940                1.81551160               55.40391914                1.00000000               -0.17199388               -0.00080828                0.25377545               -0.20150279               -0.91960353               -0.17579807
               7.78042385                1.43412964               55.16421266                0.65854102                0.00908049                0.47188360               -1.12099158               -0.31201613                0.43705700               -0.75788335
               8.78060101                1.04907218               54.94422182                0.64349427                0.28730536                1.01404346               -2.57237542               -0.28169910                1.73930959                0.05081225
               9.78616995                0.66264123               54.72737154                0.58012149                0.82118162                1.37923834               -4.02457154               -0.23856419                1.93048221               -0.15548425
              10.79702464                0.27348901               54.50783035                0.34434201                1.10494057                1.81286040               -5.51139334               -0.36043973                2.88042987               -0.48086517
              11.80826876               -0.11975350               54.30746436                0.00010000               -6.98734463                2.01090065               -6.35207226              -17.29743821               10.70794322               -0.15528675
              12.65727775               -0.85363868               54.24923025                0.00010000               -5.61387497                4.64625320               -5.70643402              -18.30292814               16.83378666               -0.05752014
              13.69599127               -1.44167813               54.25894241                0.77304080                2.73133710                1.00443373               -5.02478257              -11.68821905                9.91562637                0.60040394
              14.71190449               -1.79088229               54.05721066                1.00000000                1.59132231                1.30458027               -5.85524187               -0.50846014                0.11575736               -0.76701405
               5.16669954                3.56465396               55.80129513                1.00000000               -0.59229971               -0.80590712                2.63999034               -0.02863449               -0.14883925                1.07095317
               6.16077655                3.19057067               55.55978129                1.00000000               -0.39893004               -0.37736507                1.26861080                0.03130932               -0.20548746                0.20636958
               7.15872094                2.81550352               55.31714037                1.00000000               -0.01265747                0.04229503               -0.07724015                0.03082625               -0.07370579               -0.30449752
               8.16052340                2.43884848               55.07800140                0.47085596                0.24036402                0.50184801               -1.45886707               -0.04490595                1.78997614               -1.02411450
               9.16352822                2.05921261               54.87204848                0.50966578                0.55262488                1.00460446               -2.89933922               -0.09093530                3.15689923                0.10939877
              10.17157589                1.67643361               54.65846551                0.44844868                1.05446914                1.39404385               -4.28967574               -0.08135668                2.69633172               -0.19289383
              11.18461761                1.29161761               54.44079008                0.15897407                1.36411656                1.82094481               -5.66418738               -0.30567550                4.09339277               -0.77100383
              12.19885823                0.90035550               54.25237722                0.00010000               -2.47034143                0.97313597               -5.81432802              -16.96035678               17.20223716                2.22799747
              13.13521078                0.19282385               54.29591231                0.00010000               -7.55636722                3.74963457               -5.11297913              -25.48805984               27.08751997                3.06873203
              14.04773088               -0.43163379               54.35200427                0.77905700               -3.95933639                0.69352530               -2.60647901              -13.59102512               13.04354295                0.83115694
              15.05602405               -0.77783649               54.14579462                1.00000000                0.82931681                1.00188762               -3.49730240               -0.30288490                0.39610975               -0.51387421
               5.53843991                4.55706544               55.71673218                1.00000000               -0.47995585               -0.70739594                2.29010757               -0.02653535                0.06534699                1.30750818
               6.53364035                4.18721549               55.47096324                1.00000000               -0.28408940               -0.28584787                0.93870936                0.03198016                0.17891013                0.19778724
               7.53275812                3.81635750               55.22750296                0.80896514                0.10881436                0.13628794               -0.40274100                0.02485806                0.40632635               -0.59894259
               8.53581663                3.44416660               54.98607811                0.00010000                0.42195256                0.56826681               -1.75527765               -0.06722731                3.30851908               -1.27165087
               9.54119717                3.06916426               54.80026035                0.00010000                0.81605913                0.73234976               -3.22416400               -0.61457264                4.73114794                0.75387631
              10.55213782                2.69052210               54.58737986                0.00010000                1.28960331                0.61900355               -4.61762713               -1.17736621                3.05795159                3.27583601
              11.56698924                2.30990790               54.36616166                0.00010000                0.78587854               -0.10145940               -5.95819609               -3.21934337                7.76312692                7.20529210
              12.56785539                1.89970922               54.24505128                0.00010000               -4.37416955               -3.24230490               -2.60225487              -18.70156378               24.28954363               10.36223199
              13.47950584                1.22135401               54.37026663                0.04838999               -8.65121411                4.23176175               -5.15827211              -29.08804454               33.56704890                4.11533950
              14.39483111                0.57219238               54.43739191                0.58879946               -4.06268295                0.20889215               -0.71698479              -15.10833353               14.25393090                0.49212843
              15.39825219                0.22915546               54.22574139                1.00000000                0.34210792                0.52920500               -1.94391888               -0.15958417                0.52694633               -0.96526816
               5.90586874                5.55050604               55.63132372                1.00000000               -0.37446530               -0.59709101                1.92629191               -0.03936476                0.18187054                1.12635500
               6.90212409                5.18485372               55.38039933                0.77398441               -0.18008760               -0.17613492                0.59459881                0.01528102                0.43204192               -0.10422008
               7.90226699                4.81822928               55.13452759                0.22760637                0.21239988                0.25229466               -0.70787824               -0.00975058                0.98288766               -1.08163991
               8.90637209                4.45021381               54.89439621                0.00010000                0.13071392                0.68844627               -2.05638059               -0.46741135                5.53877754               -1.03027019
               9.90488127                4.07385961               54.73926759                0.00010000                0.04564216                0.53736449               -3.11675866               -1.24658798                9.70586298                2.36380899
              10.90728493                3.68881368               54.58587266                0.00010000                0.30811781               -0.15605779               -4.12556245               -2.40371233               11.04796764                6.51341505
              11.91104363                3.28958842               54.45653516                0.00010000                0.30479558               -1.91653367               -4.40559353               -5.77489128               16.12838216               11.80521648
              12.91338084                2.83550940               54.39868001                0.00010000               -1.50384499               -4.31232283               -4.35682819              -12.87005906               23.27403883               12.19505982
              13.88096673                2.27745909               54.40712518                0.00010000               -8.78090393                3.67458189               -4.61844905              -20.64531703               30.80182556                1.84601428
              14.73776276                1.57254405               54.51728782                0.04820753               -7.10302633                8.91220863                0.35134746               -6.84026026               16.86154947              -10.79182297
              15.73890620                1.23274761               54.29734211                0.60517927                0.11434354                2.26431643               -1.26087829                8.85339521                0.46742910              -10.74409635
               6.26895725                6.54512362               55.54319412                1.00000000               -0.27345242               -0.48312111                1.56749468               -0.04395237                0.13155738                0.86744398
               7.26622273                6.18369279               55.28547424                0.47725987               -0.08771216               -0.05252154                0.22637350                0.01288523                0.49007767               -0.47358009
               8.26720301                5.82140339               55.03495540                0.03561074                0.23076756                0.38735907               -1.04955802               -0.00800864                1.98096497               -1.63034525
               9.27083808                5.45793553               54.80683751                0.00010000                0.52312670                0.67944014               -2.08674267               -0.39847576                9.36911776                2.69706828
              10.27766554                5.07991155               54.70425918                0.00010000                0.87483363                0.44759019               -3.09603192               -0.92046977               15.06185348                3.63935975
              11.28833475                4.68740095               54.59050153                0.00010000                1.35650711               -0.30120142               -3.85003414               -1.77333044               15.92555933                5.82612862
              12.30479569                4.27157723               54.50149594                0.00010000                1.71243956               -1.54415382               -4.30686063               -3.83713409               19.38841913                7.23229661
              13.32258354                3.81346276               54.44922973                0.00010000                1.23845862               -1.65425978               -4.51459388               -7.67898784               23.27022817                5.48008176
              14.32956486                3.29484565               54.43193875                0.00010000               -0.99230819                1.83038400               -4.38690902               -9.54555914               23.22490213                0.51793104
              15.30273738                2.75043655               54.37372719                0.08657640               -3.73259437               12.91642464               -5.64251121               -0.30193667               14.13796758              -10.22512753
              16.25491297                2.27444179               54.17727875                0.62865224               -4.78244088                7.59476118               -5.54456609                3.13132362                5.97317639              -14.41749569
               6.62785136                7.54084361               55.45261468                0.97867619               -0.17493368               -0.37955624                1.21311260               -0.03614294                0.02590538                0.70768538
               7.62610202                7.18380329               55.18750393                0.35685057                0.00063617                0.06197652               -0.08618273                0.01965860                0.44306740               -0.60893575
               8.62786408                6.82597646               54.93074323                0.00010000                0.68961955                0.51966023               -1.37391189               -0.14830424                6.66840189               -1.95650883
               9.63989441                6.46380262               54.78972470                0.00010000                1.45711863                0.53495036               -2.28783575               -0.30371234               13.75708282                3.71498271
              10.65700645                6.08281141               54.67445562                0.00010000                2.01291164                0.16973404               -3.21142051               -1.04593610               16.59838974                3.53919119
              11.68015265                5.68278965               54.58769886                0.00010000                2.56163388               -0.48218424               -3.91420937               -1.95913913               19.24634922                4.54609175
              12.70823913                5.25870535               54.52043591                0.00010000                2.81900106               -1.04642005               -4.39388708               -3.67739933               21.73884702                4.87888628
              13.73653267                4.80242421               54.47582616                0.00010000                2.24213106               -0.64498833               -4.67812144               -5.99867048               24.02827944                3.71681828
              14.75308175                4.31406677               54.44509269                0.00010000                0.77976130                1.93594336               -5.05965356               -6.40323074               25.37309653                1.10967766
              15.75212789                3.83087254               54.41870861                0.13368510                0.02202199                5.65220537               -6.47864220               -2.28166643               14.79430640                1.93468599
              16.75352219                3.38464283               54.17123887                0.65124433                0.13943003                7.74500500               -5.95793141                2.33003938                3.39602415               -3.48894210
               6.98231505                8.53753250               55.36129160                0.94065891               -0.08319953               -0.28785146                0.90535198               -0.03748368                0.04425845                0.69914405
               7.98148306                8.18493232               55.08997363                0.30590962                0.09612707                0.15701351               -0.38789557                0.02577720                0.34996343               -0.58800602
               8.98423759                7.83179660               54.82476286                0.00010000                1.32229124                0.62944530               -1.67155761               -0.39583766                9.08598687               -2.06651512
              10.00792888                7.46863453               54.72748808                0.00010000                2.67610964                0.40942641               -2.64299946               -0.75874655               18.20363728                0.85802257
              11.03775979                7.08330624               54.64331853                0.00010000                3.26645746               -0.04956101               -3.46829934               -1.51402215               19.93846596                2.68744544
              12.07325803                6.67775726               54.57705580                0.00010000                3.69266777               -0.50949689               -4.11723571               -2.30644449               22.05173528                3.52239157
              13.11161314                6.25064883               54.52930196                0.00010000                3.69953412               -0.65075266               -4.55834471               -3.47144628               24.13706086                3.93203134
              14.14724871                5.80056299               54.49705734                0.00010000                3.07193833               -0.02505577               -4.82696005               -4.67925514               25.97135685                3.68348490
              15.17305191                5.33356452               54.47752074                0.00467116                1.96396362                1.52158467               -4.93063915               -4.75443066               28.02577828                3.03448793
              16.18652799                4.86348066               54.47933782                0.18541087                1.04606346                2.39216028               -4.24835374               -1.94477173               15.34581915                3.03971253
              17.19397318                4.42934189               54.20172602                0.67389318                0.74451922                3.15879178               -4.16688531                0.14865139                1.44341094               -0.03648633
               7.33230204                9.53508659               55.27056153                0.91989775                0.00514260               -0.20393618                0.61759797               -0.03995717                0.02038337                0.73175023
               8.33235346                9.18694356               54.99254273                0.29559313                0.19715390                0.24207299               -0.67872518                0.03732380                0.24153296               -0.57908643
               9.33624511                8.83856536               54.71889968                0.00010000                2.04281911                0.70449206               -1.94379234               -0.77320508               11.04589804               -2.06085751
              10.37320985                8.47199114               54.65618317                0.00010000                4.06790843                0.20096730               -2.96810344               -1.41124402               22.12382809                0.16303748
              11.41760328                8.08182019               54.60153579                0.00010000                4.67356578               -0.33261213               -3.77893612               -1.95891845               23.42488827                1.71675292
              12.46668116                7.67259971               54.56026885                0.00010000                4.92005961               -0.62794183               -4.35682165               -2.30951735               25.21828819                2.75780635
              13.51600448                7.24569030               54.53516799                0.00010000                4.66753578               -0.53033987               -4.65963642               -2.83466790               27.08407158                3.58811624
              14.56003188                6.80192309               54.52378744                0.00010000                3.95354998                0.03070139               -4.68078693               -3.43639171               28.42626464                4.60234861
              15.59507548                6.34449846               54.51784561                0.04218023                2.87116055                0.72235519               -4.35289902               -3.76348578               29.12869157                5.24694724
              16.61745509                5.87871575               54.51340505                0.23768154                1.48486407                1.21340532               -2.73377394               -1.77796826               14.94294732                1.69479675
              17.62477276                5.44781867               54.21961083                0.69221157                0.73176696                1.42365498               -3.04206134               -0.05445963                0.52785340               -0.47027547
               7.67780197               10.53345377               55.17988562                0.91681641                0.09487853               -0.12076193                0.32810358               -0.04192753                0.00902491                0.72281843
               8.67875075               10.18977378               54.89528771                0.32147534                0.29619671                0.32391284               -0.97048388                0.03754032                0.15517258               -0.56363489
               9.68372590                9.84588644               54.61353778                0.00010000                2.88492112                0.74007229               -2.20832224               -1.34793476               12.83658315               -1.80455323
              10.73644918                9.47265388               54.58177466                0.00010000                5.71234726               -0.27362078               -3.27964851               -2.17015272               25.73683448               -0.02636176
              11.79797285                9.07665399               54.55385626                0.00010000                6.33742007               -0.90033730               -4.07528889               -2.03045250               26.80635258                1.15022460
              12.86319758                8.66519843               54.53747980                0.00010000                6.38117779               -0.95301225               -4.56340353               -1.84687745               28.62467901                2.05915001
              13.92559640                8.24004203               54.53854837                0.00010000                5.82575670               -0.77998890               -4.64145950               -1.86951139               30.91605273                3.12922851
              14.97971271                7.80117702               54.55996618                0.00010000                4.76965667               -0.40457027               -4.12332759               -2.08481180               32.36533232                5.04838571
              16.02098954                7.34801162               54.58252385                0.08160766                3.39678503               -0.09215917               -3.31794764               -2.37301171               29.07445637                9.48739175
              17.04764841                6.88774876               54.53194634                0.28797234                1.68443034                0.81479584               -2.26299640               -1.50051702               12.91626244                0.88854511
              18.05467814                6.45781499               54.22691132                0.70437886                0.70297316                0.88244102               -2.58036874                0.00825720                0.20200420               -1.09502399
               8.01882347               11.53267135               55.08900787                0.88074532                0.18481302               -0.03378486                0.03453330               -0.04555320                0.01553933                0.61947680
               9.02067160               11.19342181               54.79811890                0.34654958                0.37914242                0.40704591               -1.26990850                0.00700815                0.29967116               -0.49303718
              10.02640632               10.85336681               54.51280927                0.00010000                3.91838181                0.75784808               -2.47976388               -2.26411984               14.59679077               -1.11646580
              11.09903924               10.46651873               54.50706464                0.00010000                7.90216841               -1.58562551               -3.55859189               -2.25937201               28.93549669                0.03089010
              12.18444969               10.06381344               54.50162449                0.00010000                8.36581667               -1.60418881               -4.32119741               -1.44158355               29.94750959                0.64564454
              13.26635557                9.65353947               54.50719183                0.00010000                7.90929825               -1.43666743               -4.70910466               -0.96691871               32.00498955                1.18213045
              14.34263565                9.23009052               54.53372640                0.00010000                7.20052400               -1.24435230               -4.54277634               -0.89632277               35.03993626                1.93416019
              15.41036605                8.79383169               54.59058011                0.00010000                5.92039226               -1.15249558               -3.52651851               -1.06348985               39.67958265                3.58379021
              16.46104350                8.34265528               54.70016307                0.13914329                3.36376644               -0.55683326               -0.69359426               -0.94125227               29.43244758                8.08703204
              17.47764138                7.89501167               54.54480629                0.35632046                1.18809762                0.71401705               -2.29892620               -0.87835962                8.05149305                0.59090585
              18.48480545                7.46546749               54.22869984                0.70781140                0.71640704                0.74850534               -2.45526894                0.03134817                0.01168145               -1.06824585
               8.35538997               12.53277808               54.99637499                0.94316779                0.28054799                0.01067288               -0.26326810                0.17031247                0.28339695                0.52298289
               9.35819545               12.19791470               54.70203959                0.71304243                0.49783076                0.44928862               -1.57743383                0.16565148                0.93745010               -0.41913940
              10.36534659               11.86104340               54.42065212                0.45193206                6.13098246                0.76765920               -2.78042863               -3.95463955               16.36154178               -0.65383625
              11.48081510               11.44094137               54.43363294                0.36835718               10.83869241               -2.55773593               -3.80157146               -2.64607280               31.63837506                0.00514114
              12.58212044               11.04457022               54.44383934                0.36036551                9.83835134               -1.92432264               -4.49051389               -0.45673977               32.69021402                0.36195137
              13.67758213               10.63646508               54.46586494                0.36688815                9.26286458               -1.70743919               -4.77141974               -0.34810569               34.98264586                0.68477905
              14.76737773               10.21515499               54.51084957                0.38780772                8.41480118               -1.49355299               -4.46109609               -0.44269088               38.55209928                1.14035423
              15.84587815                9.77812711               54.59356704                0.42403375                6.68033926               -1.57045796               -3.11524497               -0.36279139               43.85518608                2.27424791
              16.90098451                9.33687496               54.73483460                0.60163525                3.06954278               -0.57803221               -0.44475962                0.18920132               31.01803118                4.14408037
              17.90726901                8.90202910               54.55559668                0.71497764                0.67044727                0.70174382               -2.37462058               -0.24173025                7.72016981                0.53415046
              18.91439346                8.47278509               54.23636830                0.85514020                0.71244506                0.73176050               -2.42807017                0.03439992                0.68940490               -0.82706956
               5.03149365                2.67277849               56.92122947                1.00000000               -0.69438909               -0.85626028                2.96819705               -0.26230560               -0.74475444                0.76060150
               6.02454976                2.28792482               56.66588425                1.00000000               -0.50956543               -0.41463077                1.56823104               -0.19853083               -0.95784248                0.12375060
               7.02130234                1.90226131               56.40615728                1.00000000               -0.14203065                0.01237139                0.19809872               -0.20623209               -0.85756370               -0.16219127
               8.02170915                1.51459832               56.15244480                0.64866060                0.08759166                0.49025609               -1.21721732               -0.31664460                0.40910674               -0.72810584
               9.02305418                1.12338525               55.91736721                0.62210167                0.40570620                1.05154080               -2.75864760               -0.29518828                1.59817718                0.04626518
              10.02982327                0.73108122               55.68568624                0.54733945                0.91591929                1.44631245               -4.26076213               -0.25939575                1.71979083               -0.19143613
              11.04137256                0.33581318               55.45132229                0.29118392                0.92449388                1.91001566               -5.74993390               -0.64638441                2.96203555               -0.57910853
              12.04831315               -0.06972883               55.24382770                0.00010000               -9.53917485                2.04546354               -6.38637432              -21.16370302               11.01166472               -0.38853144
              12.85058907               -0.89096609               55.18658891                0.00010000               -7.74784755                5.89209864               -6.89397934              -21.91349858               17.14100384                0.94500272
              13.89335620               -1.53905921               55.19658079                0.69568938                3.40762301                1.83308313               -8.13474992              -14.04012188                9.99033069                0.94004014
              14.91874153               -1.89954912               54.98552794                1.00000000                2.53853266                2.20687462               -9.29508660               -0.70524557                0.09694503               -1.05296876
               5.41372427                3.66421589               56.82780187                1.00000000               -0.59012239               -0.80894481                2.65027834               -0.03118137               -0.12568546                1.02954095
               6.40782304                3.28377851               56.57238778                1.00000000               -0.39104977               -0.37258377                1.24958954                0.02852338               -0.16598025                0.19833078
               7.40590327                2.90238503               56.31608026                1.00000000                0.00788443                0.05564126               -0.12963420                0.02994416               -0.04174242               -0.29069879
               8.40798073                2.51950088               56.06287808                0.46516154                0.29787879                0.52232942               -1.54908540               -0.03833198                1.74076569               -0.97530257
               9.41186085                2.13390066               55.84173231                0.49374885                0.65173103                1.05976258               -3.12542588               -0.08638552                3.08912453                0.08660664
              10.42101535                1.74554434               55.61386206                0.42312699                1.17264466                1.47462966               -4.59574616               -0.07731631                2.66891556               -0.27725469
              11.43531374                1.35491334               55.38234697                0.11887796                1.45252015                1.92543586               -6.00552764               -0.64736550                4.81281742               -0.92343925
              12.45006576                0.95072581               55.19502821                0.00010000               -3.45972345               -0.59540764               -5.51218421              -21.11090421               18.85550456                3.75037180
              13.36611927                0.16795490               55.24275876                0.00010000               -9.64096291                4.67218081               -5.43084319              -30.04572439               29.76408585                3.42482307
              14.25724650               -0.52072838               55.31804091                0.62074261               -4.69701441                1.35415296               -4.91635115              -16.14861050               14.49731848                1.44166508
              15.27217898               -0.87748038               55.10167438                1.00000000                1.49324865                1.75109638               -6.11607845               -0.48215957                0.84481733               -0.70986419
               5.79174478                4.65659959               56.73975394                1.00000000               -0.47936840               -0.70944433                2.30467406               -0.02955682                0.08585685                1.24889573
               6.78695109                4.28047315               56.48027213                1.00000000               -0.27829601               -0.28153271                0.92103574                0.02933533                0.20893448                0.17787601
               7.78617886                3.90337414               56.22319896                0.80195167                0.12378904                0.14928081               -0.45206559                0.02758517                0.43715427               -0.57655884
               8.78942687                3.52504491               55.96806047                0.00010000                0.45520769                0.59004372               -1.83078114               -0.03216364                3.21953653               -1.20938394
               9.79528301                3.14458051               55.76629843                0.00010000                0.89186996                0.62688359               -3.52291198               -0.67512631                4.69114453                0.96693410
              10.80726427                2.76057381               55.53917557                0.00010000                1.39803881                0.35525602               -4.99186195               -1.26964542                3.15337899                3.60120548
              11.82324379                2.37432190               55.30460874                0.00010000                0.28946171               -0.83771275               -6.32713295               -5.22413040               10.78179245                7.99720533
              12.81305351                1.91836302               55.22796152                0.00010000               -5.10575101               -5.05794501               -1.20592708              -22.25096291               25.81148482                8.50525040
              13.72112877                1.20247753               55.32363328                0.02856087               -9.86171219                4.43131507               -4.38903611              -33.08903462               34.79215203                3.44793280
              14.61581926                0.48802385               55.42773718                0.53685220               -4.92632171                0.57563574               -1.55274583              -17.74574606               16.95261172                0.78246873
              15.62260233                0.13547280               55.20057462                1.00000000                0.67830688                1.00794280               -3.56865176               -0.25974502                0.80992904               -1.62572192
               6.16538603                5.65002700               56.65071770                1.00000000               -0.37508221               -0.59707211                1.94387308               -0.04234093                0.20134831                1.06559861
               7.16163521                5.27814786               56.38625967                0.74615496               -0.17514108               -0.17351799                0.57695251                0.01557112                0.47104812               -0.14445131
               8.16188321                4.90537064               56.12717874                0.21072183                0.22479411                0.26504940               -0.75720949               -0.00126534                1.01758584               -1.07325092
               9.16613109                4.53130176               55.87345187                0.00010000                0.04731072                0.69203246               -2.11952318               -0.59585647                5.67233371               -0.82556416
              10.16282942                4.14643833               55.70723782                0.00010000               -0.01250189                0.22767814               -3.25465901               -1.55057456                9.97375092                2.65861805
              11.16588105                3.75264946               55.54339691                0.00010000                0.51062497               -0.82536774               -4.32701739               -2.99998316               11.78448941                6.99987470
              12.17304192                3.33815908               55.41205741                0.00010000                0.55049078               -3.23867476               -4.48068422               -7.51593955               17.54145761               12.32527507
              13.17689087                2.84956691               55.35543091                0.00010000               -1.91820858               -4.67474914               -4.36589672              -14.90101255               24.73839323                9.57520674
              14.13467775                2.25658120               55.36473049                0.00010000              -10.37772853                3.56552791               -4.01207683              -23.74577087               34.35700935                0.09613362
              14.96933630                1.49078434               55.52046842                0.04353856               -8.12957890               10.03538417                0.04618918               -7.73995973               20.27400369              -14.54154247
              15.97208617                1.14267848               55.28130282                0.61668136                0.27498754                2.37379769               -2.33172537                9.88378160                0.80050580              -14.27213027
               6.53465624                6.64465815               56.55900757                1.00000000               -0.27373692               -0.48138929                1.58661912               -0.04570881                0.11997739                0.81689355
               7.53191887                6.27700279               56.28762135                0.45930020               -0.08282973               -0.05457374                0.20322853                0.02058715                0.51756014               -0.49776412
               8.53299965                5.90867512               56.02414819                0.02253166                0.22615885                0.39206352               -1.10667988               -0.00070433                2.18575291               -1.63536501
               9.53644205                5.53888556               55.78595292                0.00010000                0.49620831                0.51142246               -2.05078967               -0.68919653                9.65344192                2.86668114
              10.54292382                5.14913407               55.67248682                0.00010000                0.95509048                0.10809195               -3.21733304               -1.37242116               15.44322847                3.66359412
              11.55554386                4.74406646               55.55089163                0.00010000                1.65418664               -0.94814280               -4.03458426               -2.48652134               16.63178571                5.77928893
              12.57600755                4.30954840               55.45701817                0.00010000                2.05336390               -2.36796447               -4.56249825               -5.23140718               20.41366612                6.66913343
              13.59661114                3.82486804               55.40247783                0.00010000                1.44941862               -1.92403042               -4.82564503               -9.61773916               24.54863901                4.16687834
              14.60499592                3.27378808               55.38526746                0.00010000               -1.08441764                1.98212776               -4.92117747              -11.50221026               23.95236268               -1.64261417
              15.57492279                2.68873153               55.31623140                0.07516180               -4.42531214               14.87849613               -5.89555005               -0.90700450               14.46937104              -16.00333880
              16.51648968                2.18294876               55.11668611                0.63378807               -5.84331088                9.20083846               -6.61430515                2.74769246                7.15918530              -19.13133391
               6.89978259                7.64039922               56.46493900                0.96096566               -0.17526098               -0.37826252                1.24327300               -0.03825083                0.03403635                0.68844615
               7.89802998                7.27705638               56.18651680                0.34589365                0.01018789                0.05494890               -0.11076499                0.03199842                0.46454920               -0.60152471
               8.89998635                6.91321191               55.91666980                0.00010000                0.69291185                0.50176333               -1.43700183               -0.28470000                6.86484380               -1.94085962
               9.91188822                6.54153021               55.76592227                0.00010000                1.51068794                0.28279830               -2.42866518               -0.71138902               14.09021231                3.55859108
              10.93020011                6.14860017               55.64131204                0.00010000                2.19240381               -0.14777733               -3.37937512               -1.63111606               17.02306942                3.29309877
              11.95573629                5.73368661               55.54703117                0.00010000                2.87060455               -0.94865514               -4.18736096               -2.85529671               19.85085401                4.09405922
              12.98761220                5.29079979               55.47432764                0.00010000                3.22800550               -1.49213858               -4.80808486               -5.02586754               22.51866937                4.09632700
              14.02029640                4.81108630               55.42581998                0.00010000                2.65789273               -0.78094432               -5.32433236               -7.68267957               24.78415838                2.46212511
              15.04077005                4.29622375               55.38972153                0.00010000                1.08695655                2.42346608               -6.07018791               -8.06714450               25.32104559               -0.68366678
              16.04203553                3.78835426               55.34393690                0.10818942               -0.10822400                7.66201916               -8.46215745               -3.13517006               15.32238078                0.09740408
              17.03860557                3.32669525               55.10294362                0.64233451               -0.34299626               10.91155396               -8.12496785                2.50827823                5.05584365               -5.57105792
               7.26057689                8.63709290               56.37056232                0.92882223               -0.08307445               -0.28724396                0.94283758               -0.03789345                0.04296800                0.71166466
               8.25974615                8.27810176               56.08591511                0.29781748                0.11274670                0.14931426               -0.41940020                0.03348934                0.36197462               -0.57495660
               9.26283183                7.91871039               55.80763401                0.00010000                1.35399321                0.59643538               -1.74753654               -0.60938679                9.24924420               -2.03733277
              10.28682601                7.54454153               55.70011284                0.00010000                2.76566356                0.26982764               -2.80854211               -1.26717421               18.51319828                0.59807601
              11.31814510                7.14617852               55.60717931                0.00010000                3.47061484               -0.27227142               -3.73068320               -2.22453360               20.33288897                2.24893099
              12.35623831                6.72509335               55.53383226                0.00010000                3.99727033               -0.76697906               -4.50662238               -3.27209257               22.55014383                2.89808204
              13.39809050                6.27970563               55.48080902                0.00010000                4.06476398               -0.82638280               -5.14075010               -4.71375559               24.72114950                3.10395948
              14.43753359                5.80924915               55.44466159                0.00010000                3.41472844                0.09444097               -5.69340246               -6.06130170               26.58889272                2.68337753
              15.46638507                5.32225741               55.42224052                0.00010000                2.21071513                2.23594386               -6.27679144               -5.66742611               28.95834986                2.10829114
              16.48174789                4.84197192               55.42879262                0.15578368                1.17940958                3.96695521               -6.64280567               -2.21939275               16.58932515                3.86600576
              17.48997326                4.40117984               55.15528429                0.65806097                0.82253736                5.15509305               -5.73230059                0.32996270                2.67913374                0.60647799
               7.61700700                9.63465434               56.27689548                0.91129984                0.00752789               -0.20386402                0.64883232               -0.04054552                0.02006255                0.75380320
               8.61708228                9.28004267               55.98555041                0.28670995                0.21759247                0.23874241               -0.71752599                0.03569030                0.25928640               -0.56623172
               9.62135885                8.92514062               55.69894155                0.00010000                2.09971624                0.68348879               -2.04380339               -1.03026232               11.18173639               -2.03567805
              10.65907660                8.54692676               55.62528503                0.00010000                4.18993802                0.14738857               -3.19790614               -1.96781247               22.36288821               -0.11424823
              11.70515761                8.14315474               55.56188180                0.00010000                4.88453655               -0.42234058               -4.13721455               -2.67885408               23.75785226                1.23147703
              12.75676733                7.71834702               55.51410911                0.00010000                5.20118390               -0.70415394               -4.87243588               -3.19712599               25.65264658                2.11809358
              13.80918129                7.27427214               55.48509610                0.00010000                4.98756302               -0.49037927               -5.38544401               -3.83519600               27.63177878                2.89170162
              14.85651859                6.81297512               55.47240776                0.00010000                4.27587394                0.31992861               -5.70435966               -4.34527106               29.15436228                4.12026097
              15.89469876                6.34094263               55.46898856                0.03172927                3.11033268                1.36670823               -5.68951699               -4.18871651               30.73644891                5.21788700
              16.91872525                5.86769336               55.48300946                0.21121409                1.60451086                1.91507696               -3.75057158               -1.82218337               16.26605929                2.50727626
              17.92678898                5.42979711               55.18777214                0.67321258                0.80637349                2.06705671               -3.59108005               -0.10450457                0.95015889                0.28726622
               7.96898932               10.63301562               56.18332467                0.90953339                0.09843537               -0.12367720                0.35897235               -0.04402663                0.00880695                0.74640339
               8.96997367               10.28287661               55.88531848                0.30910916                0.31765856                0.32941012               -1.02086293                0.02915688                0.18728856               -0.56047717
               9.97534249                9.93238017               55.59081471                0.00010000                2.97409837                0.74811320               -2.33877657               -1.61519254               12.95968599               -1.79702912
              11.02945564                9.54748930               55.54746906                0.00010000                5.89026319               -0.25971900               -3.58018712               -2.69925522               25.91774206               -0.26083368
              12.09314775                9.13773171               55.51083688                0.00010000                6.58613794               -0.89129933               -4.53105564               -2.64985624               27.10102949                0.73717594
              13.16117840                8.71101027               55.48880101                0.00010000                6.68053685               -0.89643997               -5.19462417               -2.52555508               29.07114912                1.53347427
              14.22675849                8.26989804               55.48831015                0.00010000                6.13896381               -0.61881290               -5.47866245               -2.52329668               31.67123086                2.65296533
              15.28395767                7.81564772               55.51448069                0.00010000                5.05670049               -0.08696857               -5.13733911               -2.54376975               33.41238550                5.00992968
              16.32789250                7.34959157               55.54497390                0.08064392                3.62460354                0.25153030               -4.45723972               -2.51098787               30.47511624               10.96328988
              17.35644974                6.88027345               55.50821947                0.26939629                1.78915908                1.05510848               -2.59379167               -1.54366063               13.75956084                1.01744345
              18.36367568                6.44252097               55.20120122                0.68337048                0.72259365                1.03669504               -2.66199452               -0.00712654                0.29230720               -0.69744571
               8.31640449               11.63218079               56.08950464                0.87148456                0.18963830               -0.04093623                0.06591989               -0.04735954                0.01810329                0.63946268
               9.31830087               11.28663087               55.78510329                0.32837765                0.40189116                0.42177492               -1.33149100               -0.00208839                0.34965202               -0.49956958
              10.32444231               10.94010288               55.48724562                0.00010000                4.07195424                0.78631932               -2.64210500               -2.52325555               14.73800595               -1.12898355
              11.39973995               10.54173238               55.46976215                0.00010000                8.20985989               -1.59006574               -3.91524993               -2.63299727               29.11602718               -0.09303820
              12.48863951               10.12532876               55.45587924                0.00010000                8.71749713               -1.55710047               -4.84877188               -1.82525550               30.26393211                0.40668200
              13.57408990                9.70041822               55.45679519                0.00010000                8.27191975               -1.31854087               -5.42035156               -1.33953998               32.54757312                0.87424242
              14.65407790                9.26189588               55.48440920                0.00010000                7.59298879               -1.04467347               -5.43211598               -1.20705336               36.06807520                1.68638229
              15.72594967                8.81123575               55.55148886                0.00010000                6.28876868               -0.91974174               -4.48368389               -1.28395883               41.99174018                3.71691676
              16.77985328                8.34597324               55.69239479                0.15407061                3.44864802               -0.31802812               -1.06487630               -0.96443651               30.29568998                9.28833719
              17.79492263                7.88879553               55.52106470                0.35159462                1.11490708                0.80970050               -2.49744372               -0.89075338                7.30509515                0.45358746
              18.80215142                7.45053101               55.20484631                0.68562178                0.72287846                0.74245300               -2.34422589                0.03472874                0.07887266               -0.87211656
               8.65914197               12.63219690               55.99388637                0.93747194                0.28678435                0.00161046               -0.23218763                0.18526937                0.28836035                0.54039808
               9.66200981               12.29131211               55.68590478                0.70256189                0.53169498                0.46812383               -1.64724035                0.16637698                0.99867034               -0.43089652
              10.66977587               11.94810655               55.39202450                0.44922342                6.47800034                0.80036698               -2.95587713               -4.24785057               16.55461438               -0.67408452
              11.79156982               11.51568798               55.39388538                0.36813185               11.40904649               -2.60443973               -4.17037466               -2.89285625               31.93527942                0.00395264
              12.89795680               11.10658970               55.39641976                0.36038082               10.31253291               -1.87390566               -5.02802483               -0.62069739               33.15923990                0.29908257
              13.99782048               10.68463946               55.41493617                0.36661513                9.69215505               -1.57787686               -5.48418289               -0.50619835               35.69605032                0.60248694
              15.09179990               10.24900457               55.46257362                0.38676683                8.81903309               -1.28913027               -5.32792112               -0.59712881               39.84437148                1.11882911
              16.17420114                9.79725289               55.55928276                0.42184273                6.96220427               -1.39828592               -3.93463453               -0.46353183               46.16986472                2.59239707
              17.23104398                9.34323101               55.72918990                0.61424882                2.99378816               -0.27422277               -0.86668803                0.07979954               31.41192321                4.15989735
              18.23407690                8.89646746               55.53137779                0.71655889                0.49276580                0.76719323               -2.48468294               -0.37762201                6.73679917                0.40128517
              19.24089930                8.45737003               55.21318959                0.84321805                0.68223983                0.68390216               -2.20816006               -0.03495514                0.68328116               -0.67452180
               5.28664138                2.77525081               57.95089953                1.00000000               -0.68623168               -0.85305022                2.95456260               -0.26474039               -0.70201839                0.73238934
               6.27977906                2.38423076               57.68144754                1.00000000               -0.49669033               -0.40813394                1.54090339               -0.20150084               -0.89760480                0.11917930
               7.27670757                1.99242182               57.40788112                1.00000000               -0.11915059                0.02260500                0.15144826               -0.20766729               -0.80875756               -0.15027875
               8.27739605                1.59870097               57.13986831                0.63958780                0.13077673                0.50257869               -1.28302247               -0.32866525                0.35261708               -0.69714661
               9.27932311                1.20126728               56.88904887                0.60229942                0.46073200                1.07462395               -2.87117786               -0.31164319                1.45209684                0.02375857
              10.28661069                0.80246087               56.64215630                0.51621055                0.94003909                1.49383179               -4.40360224               -0.29760460                1.56086078               -0.23788352
              11.29812389                0.39985748               56.39283168                0.23974451                0.33123745                2.00048976               -5.90330870               -1.46090850                3.22677484               -0.63615252
              12.29323544               -0.02992514               56.17973688                0.00010000              -12.53895806                2.11542556               -6.37348048              -25.11468305               10.22336891               -0.88312509
              13.04734473               -0.94707834               56.11135066                0.00010000               -9.81882996                7.13542745               -7.64370017              -25.78011551               15.79788422                1.04002117
              14.09685884               -1.66579756               56.09624741                0.63463424                4.43021824                3.18406833              -12.21765013              -16.66753042                9.01185492                1.54712418
              15.13594909               -2.04423454               55.87130892                1.00000000                3.90902524                3.71540869              -13.96931834               -0.87325963               -0.14618579               -1.20111499
               5.67501403                3.76672031               57.85430069                1.00000000               -0.58354774               -0.80616408                2.63929540               -0.03312467               -0.10507004                0.99494020
               6.66917855                3.38014942               57.58477308                1.00000000               -0.38091188               -0.36648194                1.22489115                0.02612546               -0.13153462                0.19082935
               7.66739579                2.99264787               57.31454769                1.00000000                0.02540559                0.06530152               -0.17101394                0.02913148               -0.01833591               -0.27918259
               8.66968667                2.60372676               57.04701970                0.46390424                0.34654686                0.53520783               -1.60678678               -0.04612497                1.63696370               -0.92385052
               9.67432673                2.21201352               56.80953996                0.48328000                0.73264412                1.08650774               -3.26745925               -0.08728654                2.93095687                0.02683339
              10.68433955                1.81739919               56.56655058                0.40287585                1.26905396                1.52752495               -4.81372634               -0.09333734                2.58350605               -0.37295266
              11.69970781                1.41986238               56.32067953                0.08296431                1.56084866                2.01420412               -6.27756755               -1.52274145                5.89536011               -1.00523923
              12.71555652                0.99122912               56.14213353                0.00010000               -4.61140116               -3.03316711               -4.74337651              -26.18806739               20.60088599                5.06134193
              13.60747979                0.12427594               56.18729544                0.00010000              -11.83974420                5.77096413               -5.76717146              -34.84787505               30.23411646                3.16043756
              14.47876164               -0.63395688               56.25367725                0.47877723               -5.09131580                2.56059031               -9.23566797              -18.56366107               14.76261019                2.82314508
              15.50565347               -1.00708045               56.02347305                1.00000000                2.68918335                3.06235595              -10.88639904               -0.67101658                1.62860163               -0.55062206
               6.05912067                4.75912753               57.76282567                1.00000000               -0.47466529               -0.70779663                2.30022408               -0.03275373                0.10446921                1.19896210
               7.05437402                4.37690112               57.48938396                1.00000000               -0.27039042               -0.27669745                0.89966160                0.02528877                0.23663977                0.15870287
               8.05371286                3.99372785               57.21846164                0.79111322                0.13669390                0.15835830               -0.48937714                0.02673616                0.46937689               -0.55909951
               9.05710789                3.60940513               56.94946248                0.00010000                0.50960464                0.60416590               -1.87436496               -0.03286924                3.04461714               -1.14506023
              10.06390495                3.22299744               56.72980211                0.00010000                0.98935979                0.44150236               -3.70684399               -0.81546218                4.47470774                1.23343383
              11.07689509                2.83301137               56.48754262                0.00010000                1.49670890               -0.01520344               -5.25986801               -1.45201509                3.14893219                4.03363642
              12.09383913                2.44014156               56.23961900                0.00010000               -0.59172769               -1.80889460               -6.60345890               -8.67344429               14.41045345                9.02449628
              13.06506054                1.90941152               56.22093273                0.00010000               -5.91329535               -6.93659381               -1.18021796              -26.59407538               28.20623279                7.04239812
              13.97557322                1.16834094               56.28248590                0.00910677              -10.40592651                4.67358219               -4.19524679              -36.42038298               35.77505256                2.70429511
              14.85694201                0.38541424               56.40633699                0.49419939               -5.33986624                1.35879313               -2.96995505              -20.17097449               19.19321439                1.98946715
              15.86877590                0.01701258               56.15436836                1.00000000                1.18338937                1.91369834               -6.02038752               -0.46046300                0.89742126               -1.92211807
               6.43881178                5.75256438               57.67020118                1.00000000               -0.37277661               -0.59436690                1.94718698               -0.04446174                0.22161300                1.01291057
               7.43508401                5.37461547               57.39193838                0.71855394               -0.16926369               -0.17103709                0.55824707                0.01549774                0.51041817               -0.18706788
               8.43542650                4.99581503               57.11938340                0.19158946                0.23378375                0.27385960               -0.79705835                0.00341217                1.06332192               -1.07518691
               9.43975969                4.61581008               56.85200575                0.00010000               -0.05076270                0.66968069               -2.15792575               -0.82555382                5.80535258               -0.56538088
              10.43441125                4.22084357               56.67417441                0.00010000               -0.08022831               -0.19441122               -3.31320003               -2.05142578               10.22596004                3.05240388
              11.43815512                3.81709512               56.49933231                0.00010000                0.77137610               -1.68294529               -4.43244988               -3.88075294               12.57861306                7.62051419
              12.44983877                3.38368449               56.36692148                0.00010000                0.86602560               -4.87259432               -4.56491887               -9.84770985               19.08411361               13.00025887
              13.45547563                2.85249724               56.31136208                0.00010000               -2.33846854               -4.15001323               -4.50070846              -17.28452054               26.77675805                6.51511886
              14.40306940                2.21774758               56.32688364                0.00010000              -11.44025621                3.43306906               -3.87599496              -26.99964751               38.33382651               -2.06997580
              15.22667051                1.39321898               56.51821160                0.04836346               -8.49109363               11.07435246               -0.97559543               -9.13949549               23.76002270              -18.17176506
              16.23324753                1.03119352               56.25070760                0.63752100                0.65770205                2.65808626               -4.18162614               10.21802231                1.35032497              -17.95489700
               6.81412925                6.74724019               57.57492650                1.00000000               -0.26959336               -0.47532914                1.58415774               -0.04774570                0.10984398                0.77662592
               7.81143332                6.37348038               57.28953881                0.43946372               -0.07713775               -0.05682202                0.18376726                0.02715220                0.54691612               -0.52600585
               8.81258649                5.99920504               57.01282180                0.00817081                0.20674812                0.39292030               -1.14993124               -0.01763286                2.47309163               -1.65626419
               9.81556828                5.62279874               56.76582171                0.00010000                0.45024529                0.25022212               -1.92501287               -1.13995461                9.95300491                2.96796816
              10.82159140                5.21910922               56.63991252                0.00010000                1.04354186               -0.34313351               -3.25125146               -2.07492940               15.76321581                3.68327576
              11.83643912                4.79935246               56.50980984                0.00010000                1.99457058               -1.76824549               -4.14014217               -3.52102654               17.33434048                5.72364622
              12.86148281                4.34268968               56.41024598                0.00010000                2.44339586               -3.34217205               -4.76332983               -7.14781372               21.47390819                6.00284926
              13.88530703                3.82641125               56.35271683                0.00010000                1.66878598               -2.15071485               -5.14849242              -12.21705222               25.89665653                2.64358544
              14.89485853                3.23700233               56.33351520                0.00010000               -1.23004370                2.28363980               -5.45316114              -14.05968093               25.11237499               -4.54131173
              15.86070616                2.60690129               56.25581619                0.06750895               -4.88356286               16.35202143               -6.23228776               -2.40725539               15.18348049              -22.58899999
              16.79718727                2.07017431               56.04499265                0.64387409               -6.35188844               10.17149869               -7.60145367                1.49620713                8.15351092              -24.34158259
               7.18537649                7.74305779               57.47748014                0.94471004               -0.17142842               -0.37154389                1.25395976               -0.04089775                0.04039604                0.68214411
               8.18366221                7.37347903               57.18528863                0.33370085                0.01894930                0.04595992               -0.13206646                0.04165892                0.48861065               -0.59911786
               9.18575548                7.00367344               56.90200319                0.00010000                0.66971042                0.47865744               -1.49267712               -0.51131256                7.07194534               -1.95346516
              10.19705642                6.62081452               56.74115140                0.00010000                1.53017331               -0.07827212               -2.47799419               -1.33066312               14.44826264                3.27119850
              11.21635895                6.21398090               56.60686811                0.00010000                2.35488546               -0.56970625               -3.46363433               -2.49887871               17.43880303                2.96683957
              12.24415413                5.78173021               56.50395164                0.00010000                3.17323799               -1.53557470               -4.38415936               -4.14738860               20.40171798                3.54930475
              13.27982371                5.31684105               56.42427421                0.00010000                3.63339067               -2.03650616               -5.16917121               -6.92616404               23.20138286                3.15907833
              14.31682194                4.80948294               56.36933952                0.00010000                3.07810194               -0.93842440               -5.95199638              -10.05663207               25.37544786                0.90107620
              15.34138574                4.26342038               56.32368893                0.00010000                1.42657389                2.97304930               -7.15965725              -10.79970916               24.87720780               -3.10987460
              16.34535342                3.72025941               56.24946546                0.08110158               -0.23800530                9.74134646              -10.01892398               -5.21161618               15.43729395               -3.49065437
              17.33662564                3.23462349               56.00873952                0.63487230               -0.87277799               14.32343111              -10.63001354                1.30566993                6.78818096               -8.86636821
               7.55246882                8.73980931               57.38014835                0.91710751               -0.08179743               -0.28287483                0.97087748               -0.04012749                0.03838085                0.73376191
               8.55165085                8.37439958               57.08158562                0.28949945                0.12779631                0.13682591               -0.44369400                0.03998889                0.37931020               -0.57276082
               9.55502475                8.00877819               56.78981213                0.00010000                1.34983512                0.54988327               -1.81647245               -0.93882637                9.41251017               -2.05132095
              10.57864755                7.62123330               56.67131724                0.00010000                2.78366951                0.07677177               -2.92130142               -2.02960774               18.80809117                0.25722547
              11.61069814                7.20771509               56.56870486                0.00010000                3.59918230               -0.55943723               -3.92343951               -3.25075162               20.68755282                1.69160890
              12.65063120                6.76864097               56.48692336                0.00010000                4.22543275               -1.08686877               -4.83308568               -4.66949342               22.95028808                2.12928480
              13.69520680                6.30195955               56.42648696                0.00010000                4.34819317               -1.04089271               -5.69162047               -6.52402558               25.12225503                2.06380854
              14.73759506                5.80764276               56.38318929                0.00010000                3.64405421                0.25131372               -6.60475258               -8.15457596               26.86573442                1.32168492
              15.76808788                5.29646331               56.35198491                0.00010000                2.38378292                3.13512233               -7.80634097               -7.40487643               28.94298938                0.61820096
              16.78527072                4.80172822               56.34648171                0.12016305                1.32423157                6.45875059              -10.70083378               -3.05905527               17.82036280                3.87341347
              17.79457251                4.35664293               56.08708001                0.64183047                0.93017913                8.65117878               -9.23888856                0.37271771                5.28501618                0.69730900
               7.91539342                9.73740030               57.28353818                0.90290845                0.00996929               -0.20183170                0.67714625               -0.04239241                0.01913729                0.78256570
               8.91549311                9.37621555               56.97819221                0.27812985                0.23759022                0.23058933               -0.75104165                0.03132174                0.28028757               -0.56807977
               9.92014523                9.01467110               56.67802361                0.00010000                2.10171230                0.64318047               -2.13975567               -1.40606469               11.29496696               -2.06862452
              10.95752736                8.62234996               56.59222505                0.00010000                4.18955114                0.08633891               -3.39653615               -2.78723244               22.55448134               -0.49986592
              12.00393625                8.20279216               56.51879150                0.00010000                4.94962170               -0.51575089               -4.45021907               -3.71968919               24.01708248                0.60654389
              13.05651979                7.75999283               56.46282014                0.00010000                5.32025737               -0.77295679               -5.35224516               -4.51264369               25.93864899                1.29593248
              14.11034140                7.29602319               56.42745911                0.00010000                5.13534352               -0.40856554               -6.13184336               -5.36745340               27.90315332                1.93664888
              15.15922667                6.81450922               56.40970025                0.00010000                4.44306821                0.73258773               -6.88392419               -5.80993793               29.45366034                3.29670786
              16.19920276                6.32612282               56.40405527                0.01604440                3.23830148                2.37039384               -7.57385061               -4.82047966               32.07281169                4.78109870
              17.22399269                5.84943442               56.43839362                0.17573448                1.75239067                3.41570852               -6.26819092               -1.85670814               17.88356610                3.99262815
              18.23425057                5.40764707               56.14778923                0.65204896                1.02578792                3.50744831               -5.11028632               -0.17932122                2.06411706                1.54144674
               8.27399048               10.73577268               57.18706506                0.90206250                0.10160022               -0.12506997                0.38814541               -0.04639079                0.00884366                0.77894548
               9.27500648               10.37901136               56.87487045                0.29665676                0.33892852                0.33142906               -1.06616687                0.01498336                0.21603853               -0.57328082
              10.28076905               10.02164180               56.56676225                0.00010000                2.98876857                0.74531250               -2.48250122               -1.98444683               13.03634422               -1.85671457
              11.33478185                9.62296008               56.51017092                0.00010000                5.89462179               -0.20541554               -3.87980570               -3.45214650               26.02154170               -0.60902575
              12.39866148                9.19740007               56.46323515                0.00010000                6.61827196               -0.82139753               -4.97522173               -3.55096004               27.28901646                0.18139415
              13.46714729                8.75318183               56.43358732                0.00010000                6.73399301               -0.75518333               -5.83578518               -3.56772712               29.31452480                0.82063038
              14.53334134                8.29378824               56.42897512                0.00010000                6.20746916               -0.32342479               -6.41820608               -3.59626100               32.10279019                1.92021757
              15.59129667                7.82229452               56.45721940                0.00010000                5.17058691                0.44293682               -6.46454742               -3.34642287               34.04345860                4.70811784
              16.63675308                7.34387119               56.49337906                0.07614197                3.76578204                0.90416027               -6.30741751               -2.70367153               32.02671349               12.60175767
              17.66661231                6.87004239               56.48007051                0.24115537                1.89038583                1.57453364               -3.30593401               -1.48901141               15.01043375                1.49544051
              18.67456080                6.42679190               56.17367143                0.65832043                0.79484845                1.41948592               -3.08378359               -0.09659463                0.51427532               -0.00736647
               8.62798824               11.73489890               57.09032626                0.86263493                0.19354229               -0.04750536                0.09865327               -0.04898228                0.01972635                0.66998972
               9.62992367               11.38284413               56.77148908                0.31072008                0.42596644                0.43412133               -1.38892093               -0.01486460                0.38892512               -0.52086508
              10.63650757               11.02957735               56.45996717                0.00010000                4.14012448                0.81810733               -2.84969621               -2.84566270               14.82016973               -1.19346405
              11.71272615               10.61824165               56.42875964                0.00010000                8.30938630               -1.50930522               -4.30757871               -3.14347821               29.20355737               -0.29590148
              12.80269530               10.18636421               56.40464906                0.00010000                8.80254628               -1.39646175               -5.40611231               -2.38797584               30.44952238                0.07128454
              13.88877708                9.74488916               56.39878479                0.00010000                8.33040953               -1.04744858               -6.20009028               -1.93037615               32.84747184                0.43843687
              14.96930349                9.28955470               56.42508408                0.00010000                7.67190913               -0.62927591               -6.52688636               -1.74719962               36.75366651                1.27471054
              16.04221526                8.82336795               56.50090643                0.00010000                6.40389853               -0.39536393               -5.85745911               -1.69930850               44.18901649                3.72119400
              17.09738146                8.34420603               56.67886554                0.17107457                3.45382476                0.13057509               -2.02397976               -1.10339956               31.12156401               10.68261858
              18.11129176                7.88092509               56.49485741                0.34060078                1.07191061                0.96931134               -2.78120146               -0.83881294                6.59728877                0.33114070
              19.11881967                7.43603679               56.18181532                0.65788884                0.75279121                0.79081049               -2.35573741                0.00490346                0.20866429               -0.57628045
               8.97712037               12.73482257               56.99173124                0.93215309                0.29103610               -0.00763251               -0.19687397                0.20033438                0.29855906                0.56807940
               9.98003073               12.38769379               56.66909479                0.69331781                0.56689523                0.48496603               -1.71113894                0.16977515                1.05584555               -0.45592991
              10.98845828               12.03800394               56.36153457                0.44710564                6.75473508                0.84265900               -3.18870455               -4.55092024               16.69549796               -0.71840636
              12.11512543               11.59277398               56.35022545                0.36796850               11.78980860               -2.54676703               -4.59935528               -3.18672748               32.14089468               -0.03336747
              13.22425445               11.16947084               56.34327884                0.36040855               10.51119215               -1.68933690               -5.63264071               -0.87114082               33.49886081                0.19037596
              14.32534928               10.73223286               56.35618129                0.36639464                9.78320577               -1.26563055               -6.31865464               -0.75618600               36.17153023                0.46080913
              15.41991856               10.28120273               56.40429115                0.38579095                8.86549473               -0.83519706               -6.46853448               -0.83077345               40.85323732                1.03273443
              16.50265917                9.81438724               56.51487435                0.41959337                6.86046928               -0.89807121               -5.20372764               -0.69161102               48.34838403                2.99604330
              17.55712795                9.34648269               56.71750084                0.62935996                2.76730633                0.22766619               -1.67612378               -0.27328218               31.68821885                3.89620735
              18.55800530                8.88942862               56.50590302                0.71611915                0.36537690                0.85035228               -2.58668742               -0.52237531                5.80892812                0.22859402
              19.56443549                8.44260811               56.19220510                0.82824348                0.64301887                0.65713208               -2.04868758               -0.12046961                0.67811025               -0.45218631
               5.55635728                2.88062396               58.98032072                1.00000000               -0.67411949               -0.84353964                2.91943262               -0.26457962               -0.66568312                0.70918950
               6.54961608                2.48365733               58.69670232                1.00000000               -0.48254272               -0.39986494                1.50705249               -0.20213970               -0.84665594                0.11496505
               7.54670642                2.08592260               58.40918625                1.00000000               -0.10111685                0.02982458                0.11440530               -0.20688437               -0.77008862               -0.13977328
               8.54759374                1.68635262               58.12678435                0.63108906                0.15508525                0.50770822               -1.32047900               -0.33881933                0.28079264               -0.66717533
               9.54980813                1.28287824               57.85994365                0.58385812                0.48319681                1.08058508               -2.92491421               -0.32678489                1.30871624               -0.00938767
              10.55725768                0.87753498               57.59761420                0.48663680                0.92596775                1.51639881               -4.47227600               -0.34536822                1.44462843               -0.29267963
              11.56832748                0.46739442               57.33325611                0.19017589               -1.14980692                2.06268026               -5.96508295               -3.55492961                3.67727614               -0.64965819
              12.53426154               -0.01218464               57.11635809                0.00010000              -15.91456334                2.29414300               -5.94457333              -28.35188059                8.03514829               -2.10752016
              13.25003621               -1.02205523               57.03371490                0.00010000              -11.03132518                8.20836323               -7.45016911              -29.61741987               12.78165979                1.64757551
              14.31363504               -1.82297639               56.95222779                0.59599111                5.78292889                4.86213326              -15.82026057              -20.02361776                6.52778814                2.46349759
              15.36569479               -2.22789969               56.70614158                1.00000000                5.20597543                5.63474336              -18.33571082               -0.54586927               -0.78263148               -0.87245439
               5.95067810                3.87218856               58.88058778                1.00000000               -0.57327436               -0.79728024                2.60864728               -0.03497247               -0.08695283                0.96689080
               6.94494536                3.47965868               58.59688560                1.00000000               -0.36940852               -0.35877186                1.19542587                0.02320595               -0.10127537                0.18386953
               7.94328993                3.08622085               58.31265998                1.00000000                0.03911861                0.07169164               -0.20095541                0.02762328                0.00009358               -0.27009553
               8.94572773                2.69142970               58.03074234                0.46544057                0.38295825                0.54025192               -1.63518283               -0.05758747                1.50508688               -0.87205620
               9.95094910                2.29368409               57.77638312                0.47720372                0.79090864                1.08682443               -3.32812034               -0.09209181                2.71054198               -0.04469140
              10.96154590                1.89269897               57.51758753                0.38708342                1.33444476                1.54649159               -4.92446047               -0.12472604                2.43230288               -0.46115314
              11.97763799                1.48802123               57.25679561                0.05100451                1.69608277                2.05877252               -6.43008399               -3.61034570                7.58391877               -1.00298024
              12.99546756                1.01075679               57.10016068                0.00010000               -5.91900518               -4.89164607               -3.34012896              -31.39715519               21.88886435                4.34485079
              13.85925789                0.06002841               57.12741533                0.00010000              -13.95732356                6.95152277               -6.06531245              -39.19612503               27.34149961                3.32352489
              14.71632109               -0.77435506               57.13332755                0.35581909               -4.70492465                4.31276104              -15.97714457              -20.87072984               12.85639285                6.61968686
              15.76515940               -1.17155225               56.88394640                1.00000000                4.88383074                4.88477908              -18.28117219               -0.78005790                2.52216056                1.76246055
               6.34071758                4.86467835               58.78575842                1.00000000               -0.46696704               -0.70020917                2.27802487               -0.03635675                0.12155345                1.16006451
               7.33604791                4.47648189               58.49826536                1.00000000               -0.26148568               -0.27035158                0.87498867                0.01970401                0.26236101                0.14066122
               8.33548787                4.08735644               58.21341142                0.77604837                0.14654215                0.16429503               -0.51506396                0.02340579                0.50449950               -0.54839586
               9.33897875                3.69715766               57.93057317                0.00010000                0.56045795                0.61026044               -1.89044876               -0.05111582                2.83355579               -1.08268153
              10.34669703                3.30461473               57.69216155                0.00010000                1.07236344                0.18459545               -3.76809671               -0.98099450                4.14688907                1.55801362
              11.36042602                2.90846481               57.43397821                0.00010000                1.56828580               -0.49532197               -5.37540298               -1.64422533                3.04970642                4.57830503
              12.37806274                2.50856987               57.17253956                0.00010000               -1.30573819               -3.02419714               -6.73454822              -12.67129665               17.60729205               10.21486052
              13.33431126                1.88998244               57.20435717                0.00010000               -6.34185913               -8.13358009               -2.39018723              -31.72991714               31.59441659                6.34714920
              14.25122556                1.11697523               57.23972835                0.00010000              -10.32550801                5.20619893               -4.71902026              -39.57283709               37.07407869                2.29195384
              15.12780110                0.26327883               57.36833808                0.46136410               -5.33687662                2.61124479               -4.23421773              -22.13938145               20.99287417                5.87997087
              16.14448803               -0.13020410               57.08016687                0.98297938                1.66869289                3.22542498               -8.19502339               -0.90122959                0.41181746                0.19797815
               6.72634388                5.85818438               58.68966144                1.00000000               -0.36825267               -0.58833185                1.93553213               -0.04772573                0.23713845                0.96398458
               7.72266136                5.47425165               58.39742461                0.69199869               -0.16307983               -0.16747384                0.53884129                0.01181827                0.54501219               -0.22854936
               8.72308229                5.08950675               58.11123757                0.16998468                0.23928844                0.27868057               -0.82669591                0.00369838                1.11646440               -1.08539752
               9.72744712                4.70363491               57.83029335                0.00010000               -0.15301144                0.59708076               -2.17027229               -1.13490375                5.95910072               -0.21186104
              10.72002206                4.29737600               57.64097381                0.00010000               -0.13704364               -0.72544224               -3.28284094               -2.66697032               10.50842771                3.54673123
              11.72470625                3.88279253               57.45474791                0.00010000                1.13361867               -2.72723777               -4.43579409               -4.91837614               13.40301123                8.39154464
              12.74269443                3.42753728               57.32075904                0.00010000                1.38788059               -6.81586107               -4.67984357              -12.50956788               20.70396706               13.84434865
              13.75246386                2.84808519               57.26541674                0.00010000               -2.40948381               -3.51100667               -4.77202961              -20.32105570               29.03491939                4.17054079
              14.69450475                2.16415238               57.28721059                0.00010000              -11.58755354                3.45906641               -4.29944189              -30.86484209               42.29631112               -3.90971827
              15.52071279                1.27786984               57.50095651                0.06234880               -8.02020380               12.12094213               -3.14102493              -11.59411421               27.08305039              -20.71731947
              16.53410068                0.89295625               57.19767029                0.66718934                1.33878856                3.41446479               -6.78030786                9.34458804                2.04514177              -20.48526080
               7.10762852                6.85291171               58.59069073                0.98329202               -0.26666146               -0.46820614                1.58099885               -0.04644808                0.11851710                0.74396475
               8.10496190                6.47313242               58.29129669                0.41936965               -0.07249710               -0.06122208                0.17169046                0.03180584                0.58254052               -0.55765946
               9.10617857                6.09293005               58.00114956                0.00010000                0.17247633                0.38227619               -1.17697090               -0.07764695                2.87311614               -1.69229207
              10.10841143                5.70909927               57.74745266                0.00010000                0.40107145               -0.10881310               -1.68615807               -1.71413727               10.28889888                3.00837671
              11.11420000                5.29010588               57.60746180                0.00010000                1.17428927               -0.91156889               -3.20112611               -2.95126759               16.01821243                3.73965338
              12.13189721                4.85392005               57.46808879                0.00010000                2.41893588               -2.76166702               -4.16847676               -4.80974622               18.03816934                5.72344458
              13.16257872                4.37225265               57.36175158                0.00010000                2.96889147               -4.48984533               -4.91335300               -9.53001022               22.51651867                5.41895114
              14.19127504                3.81976231               57.29950798                0.00010000                2.07826719               -2.47249103               -5.51452493              -15.50846620               27.25015914                1.22077171
              15.20414407                3.18615656               57.27620424                0.00010000               -1.20800467                2.57020822               -6.09843491              -17.51905603               26.60572845               -7.47655940
              16.16711495                2.50569768               57.19158565                0.06379410               -5.14685462               17.50029055               -6.46774782               -5.15266628               16.24821834              -28.77866972
              17.10120697                1.93808519               56.96465703                0.65793405               -6.59079772               10.71621386               -8.46820195               -0.67522815                9.03023148              -29.25369404
               7.48497351                7.84882025               58.49001820                0.93011586               -0.16943746               -0.36008084                1.26657873               -0.03723249                0.05888380                0.70131890
               8.48327914                7.47302721               58.18387547                0.32148233                0.02944888                0.03052762               -0.14835126                0.05193412                0.51367544               -0.60708447
               9.48556249                7.09715227               57.88681625                0.00010000                0.63547023                0.43667506               -1.53386673               -0.81983629                7.31681503               -1.99733095
              10.49598854                6.70145865               57.71636239                0.00010000                1.53067164               -0.52434453               -2.44395977               -2.11619875               14.87050921                2.84266114
              11.51617592                6.27914462               57.57203935                0.00010000                2.51880065               -1.10092848               -3.46004632               -3.59047135               17.85192170                2.61200593
              12.54636456                5.82755919               57.45934798                0.00010000                3.50380250               -2.25547519               -4.49202655               -5.79197421               20.91090964                3.02158151
              13.58625197                5.33774038               57.37094421                0.00010000                4.10130392               -2.72278777               -5.45511876               -9.36164332               23.79705166                2.24579849
              14.62839064                4.79863537               57.30678006                0.00010000                3.59681448               -1.22200918               -6.53073441              -13.20542765               25.78891574               -0.66814895
              15.65818826                4.21555655               57.24652838                0.00010000                1.86700981                3.40492657               -8.15633292              -14.64756708               24.45628322               -5.75284339
              16.66573083                3.62787565               57.14355842                0.05356400               -0.11835910               11.24071738              -10.77506973               -8.61654604               15.12242724               -8.75381221
              17.65582108                3.10728052               56.89034335                0.62889451               -0.99097499               16.89955553              -12.27191780               -1.39601202                7.50001095              -13.08297285
               7.85846996                8.84571010               58.38997987                0.90669495               -0.08013909               -0.27156594                0.98865205               -0.04130441                0.03008394                0.77275261
               8.85766856                8.47374297               58.07704123                0.28114779                0.14402271                0.11845181               -0.46127305                0.04384533                0.39184300               -0.58380445
               9.86135041                8.10166355               57.77130456                0.00010000                1.32132706                0.48328696               -1.87684516               -1.37338658                9.58775559               -2.11276376
              10.88409511                7.69861238               57.64168681                0.00010000                2.74698148               -0.16914423               -2.97990118               -3.00832196               19.13411809               -0.16320763
              11.91629004                7.26808731               57.52871052                0.00010000                3.66834339               -0.91946450               -4.03119897               -4.55367930               21.04132870                1.07665912
              12.95746197                6.80881055               57.43717055                0.00010000                4.39898165               -1.49787372               -5.06251285               -6.48911358               23.29281462                1.33422198
              14.00426967                6.31779690               57.36697661                0.00010000                4.59441725               -1.36117131               -6.15230798               -8.96880793               25.37710249                0.97825497
              15.04935032                5.79532212               57.31256654                0.00010000                3.88413839                0.31218976               -7.46229108              -11.14684011               26.87684315               -0.20356283
              16.08195244                5.25425509               57.26611370                0.00010000                2.68548669                3.98069551               -9.40451843              -10.77683710               27.44161624               -1.34570431
              17.10306005                4.73051202               57.21477594                0.08005622                1.62622726                9.30407360              -14.88815419               -5.56235038               18.15540321                2.30428001
              18.11447699                4.27607630               56.97050652                0.62580000                1.14169328               13.33770452              -14.99232304               -0.77062065                8.87654071               -0.58103007
               8.22808168                9.84338893               58.29043840                0.89491074                0.01209143               -0.19518252                0.69937882               -0.04499611                0.01731552                0.81913848
               9.22820259                9.47539625               57.97052958                0.26970544                0.25718335                0.21855778               -0.77730324                0.01788834                0.29538158               -0.58737637
              10.23322535                9.10681801               57.65614644                0.00010000                2.05978728                0.58193844               -2.23800134               -1.89509945               11.38928398               -2.17846524
              11.26939834                8.69807576               57.55735430                0.00010000                4.08394116                0.00809042               -3.56294535               -3.83721096               22.74562129               -0.99159670
              12.31490417                8.26075533               57.47287742                0.00010000                4.87371803               -0.62926379               -4.69132493               -5.06262046               24.26701738               -0.10415376
              13.36687270                7.79760171               57.40706420                0.00010000                5.27300365               -0.86761635               -5.73725201               -6.29857146               26.14022417                0.39362758
              14.42036424                7.31051695               57.36245923                0.00010000                5.10614708               -0.35597358               -6.80886829               -7.59050051               27.95161021                0.83193749
              15.46899564                6.80487916               57.33472928                0.00010000                4.35486886                1.16408862               -8.09944857               -8.21369530               29.28104834                2.15566302
              16.50746162                6.29517046               57.31751155                0.00010000                3.18334837                3.62806806               -9.68032431               -6.36494102               32.45350645                3.67594386
              17.53266261                5.81395712               57.35764564                0.13083553                2.09092443                6.16032256              -12.03955499               -2.39149272               19.87889694                6.07182412
              18.54928011                5.37403462               57.08556641                0.62994301                1.66174996                6.61356253               -9.59030333               -0.37813346                5.30489433                3.40900196
               8.59355541               10.84180645               58.19108758                0.89521665                0.10418417               -0.12372626                0.41381712               -0.04964713                0.00731469                0.82284496
               9.59459725               10.47811413               57.86399515                0.28465325                0.36067453                0.32964950               -1.10404558               -0.01341300                0.22250677               -0.60602426
              10.60076890               10.11330232               57.54116469                0.00010000                2.94081574                0.73216333               -2.66630113               -2.44950701               13.05575295               -2.03344889
              11.65341357                9.69877419               57.46987294                0.00010000                5.73713901               -0.11579708               -4.19274852               -4.40347023               26.10158307               -1.08799832
              12.71551168                9.25550204               57.41133245                0.00010000                6.41576781               -0.70222873               -5.38041215               -4.73076681               27.45825102               -0.48562687
              13.78172892                8.79145822               57.37208531                0.00010000                6.48352636               -0.55043591               -6.40682684               -5.05465022               29.42726154               -0.01414660
              14.84518221                8.31067743               57.35994603                0.00010000                5.93469901                0.07785532               -7.35279061               -5.30944878               32.20340491                0.95455759
              15.90042291                7.81860389               57.38518974                0.00010000                5.01967248                1.15627573               -8.01281544               -4.84540391               34.05495288                4.02153111
              16.94557566                7.32681645               57.41882555                0.06283098                3.79715684                2.01666818               -9.15391870               -3.20067338               33.82078782               14.21433512
              17.97636604                6.85371847               57.44210079                0.20011905                2.05918363                2.78143551               -5.27865676               -1.36064357               17.02252046                2.99587166
              18.98675933                6.40834755               57.13952554                0.63083529                1.03932907                2.32185587               -4.43569823               -0.38065285                1.28152238                1.32385399
               8.95447338               11.84091441               58.09147770                0.85391456                0.19650839               -0.05289580                0.13055511               -0.05098512                0.01941261                0.71413090
               9.95643846               11.48198924               57.75732487                0.29617748                0.45508807                0.44339868               -1.43930878               -0.03634970                0.37563119               -0.56020847
              10.96357514               11.12146128               57.43025169                0.00010000                4.13453756                0.86506525               -3.16761466               -3.22215765               14.81436279               -1.35937370
              12.03912922               10.69575982               57.38361058                0.00010000                8.20148301               -1.33425857               -4.77494055               -3.77603257               29.26045596               -0.60151945
              13.12760480               10.24671076               57.34775700                0.00010000                8.57375461               -1.11821956               -5.98329383               -3.13501683               30.60479484               -0.35131029
              14.21060431                9.78659299               57.33279338                0.00010000                7.97123972               -0.61977841               -6.95504226               -2.80634247               32.95887257               -0.09845123
              15.28702960                9.31207406               57.35387147                0.00010000                7.26721164                0.02838512               -7.73357374               -2.67994716               36.99720127                0.68007279
              16.35594854                8.82800468               57.43433967                0.00010000                6.06519885                0.53170116               -7.75273040               -2.45170071               46.05755371                3.48880676
              17.40833357                8.33550382               57.65191519                0.18057516                3.39850470                0.85340541               -3.98620018               -1.51074071               32.19713776               12.49378676
              18.42391863                7.86958583               57.46544067                0.31638826                1.20376603                1.26148290               -3.18577846               -0.79234637                6.35106820                0.41914515
              19.43240889                7.42047173               57.15773157                0.62689498                0.84902594                0.95995917               -2.72603800               -0.15650974                0.47812003               -0.13551174
               9.31038606               12.84074853               57.98994889                0.92704904                0.29373321               -0.01658783               -0.15888162                0.21462456                0.31672283                0.61025612
              10.31332339               12.48698210               57.65168200                0.68700713                0.60845525                0.49928640               -1.76776182                0.18124711                1.06018394               -0.49702943
              11.32255516               12.13060362               57.32825041                0.44754759                6.96600252                0.91423431               -3.54624051               -4.84665189               16.74204316               -0.81561121
              12.45264344               11.67208902               57.30189827                0.36777964               11.97115063               -2.36708026               -5.15296306               -3.52187635               32.29046990               -0.12544682
              13.56197818               11.23313765               57.28376694                0.36049532               10.37976670               -1.35731102               -6.32413454               -1.21398090               33.78838674                0.03248421
              14.66023877               10.77906265               57.28856307                0.36619178                9.40967033               -0.75303382               -7.20410308               -1.13117922               36.43943523                0.25963917
              15.75017158               10.31124513               57.33320293                0.38476470                8.38601757               -0.08289288               -7.83764963               -1.17703831               41.45619956                0.84834234
              16.82795913                9.82923792               57.45520821                0.41720035                6.18040538                0.12332396               -7.15735491               -1.16697002               50.38557602                3.45931479
              17.87377969                9.34388456               57.69566742                0.64107244                2.37960391                0.83807354               -2.97416536               -0.96987765               32.34740658                3.76582044
              18.87555120                8.87894813               57.47964404                0.70889641                0.40388249                0.93622982               -2.67643895               -0.65363413                5.23728532                0.07214546
              19.88185734                8.42754674               57.17221584                0.81160067                0.63061357                0.70750037               -2.17123770               -0.19529499                0.72952797               -0.16664152
               5.84056453                2.98890049               60.00928819                1.00000000               -0.65841028               -0.82800566                2.86465669               -0.26221677               -0.63503831                0.69039659
               6.83398042                2.58616350               59.71158859                1.00000000               -0.46703771               -0.38997303                1.46759075               -0.20103818               -0.80365742                0.11100883
               7.83122377                2.18267888               59.41016923                1.00000000               -0.08629616                0.03419084                0.08680751               -0.20438557               -0.73925684               -0.13046799
               8.83225450                1.77744149               59.11345873                0.62334493                0.17219086                0.50553324               -1.33261365               -0.34283787                0.19829373               -0.64001082
               9.83466759                1.36820059               58.83055058                0.56666182                0.49681505                1.07012076               -2.93180818               -0.33656535                1.16051787               -0.04627975
              10.84219080                0.95666060               58.55271078                0.45833592                0.91289656                1.51515049               -4.48241284               -0.38253253                1.35538381               -0.35214799
              11.85292552                0.53978532               58.27353002                0.14237029               -4.43555906                2.07340146               -5.94569672               -8.22831322                4.60613469               -0.64493194
              12.75347962               -0.03968071               58.06084541                0.00010000              -19.29086471                2.98077672               -4.36902144              -29.14220324                4.66346845               -4.13751284
              13.46710823               -1.10152769               57.96234728                0.00010000               -9.92458438                8.62606784               -6.84037293              -31.54885387                9.09012114                3.73356932
              14.55498793               -1.97872714               57.77984220                0.58371403                7.26803369                6.10537008              -17.30255467              -23.35122873                3.00778716                2.84397024
              15.61246890               -2.41729326               57.50459471                1.00000000                5.74809674                7.14367342              -20.47125114                0.38239712               -1.55620657               -0.64729150
               6.24067934                3.98062043               59.90647364                1.00000000               -0.55984960               -0.78226622                2.55993349               -0.03699871               -0.07079578                0.94510016
               7.23508084                3.58226377               59.60868159                1.00000000               -0.35692092               -0.34940843                1.16185485                0.01940876               -0.07402097                0.17705878
               8.23354092                3.18302079               59.31052858                1.00000000                0.04922095                0.07517302               -0.22019350                0.02521590                0.01593105               -0.26389035
               9.23606526                2.78249682               59.01431604                0.46910253                0.40757278                0.53794990               -1.63778698               -0.06723047                1.36244849               -0.82173358
              10.24169238                2.37890180               58.74297755                0.47443104                0.82539248                1.06832138               -3.32422341               -0.09573056                2.45904191               -0.11210714
              11.25257311                1.97181211               58.46806137                0.37485686                1.35603329                1.53782445               -4.93444716               -0.15310297                2.24273539               -0.53310742
              12.26881304                1.56051933               58.19207785                0.02248445                1.50704882                2.03450191               -6.44104430               -7.95022752               10.13965595               -0.95407020
              13.28271409                0.99012706               58.07533095                0.00010000               -7.38350720               -4.46104280               -2.06731507              -34.97529415               21.62156676                1.44643687
              14.12114290               -0.01526701               58.06598919                0.00010000              -15.16778292                7.79562285               -6.30824557              -41.09174187               19.96584533                4.30142082
              14.97935843               -0.91767344               57.93413435                0.25404751               -3.31419504                5.70559179              -22.63135213              -22.46082401                7.95803256               15.16372905
              16.05485900               -1.34585653               57.65784961                1.00000000                7.55005674                6.22707568              -25.64937985               -0.77402039                2.46133924                9.15972434
               6.63653786                4.97325516               59.80838616                1.00000000               -0.45696239               -0.68543337                2.23928803               -0.04053911                0.13615069                1.12975653
               7.63196824                4.57917533               59.50688373                1.00000000               -0.25214121               -0.26253128                0.84735190                0.01272275                0.28626203                0.12335378
               8.63149504                4.18418234               59.20816036                0.75553167                0.15303180                0.16740749               -0.52993788                0.01856381                0.54403904               -0.54637219
               9.63502888                3.78820049               58.91165351                0.00010000                0.59713250                0.60982716               -1.88176676               -0.07375607                2.62124692               -1.02331642
              10.64343769                3.38956702               58.65444017                0.00010000                1.12411668               -0.12119248               -3.73846533               -1.11752614                3.77989195                1.93809658
              11.65751121                2.98741709               58.38003456                0.00010000                1.60841644               -1.04983363               -5.35227125               -1.76173273                2.90234174                5.20163419
              12.67560602                2.58047535               58.10492804                0.00010000               -1.38755660               -4.45799449               -6.71799903              -16.59412105               20.07000919               11.44002796
              13.62976008                1.87109843               58.17312899                0.00010000               -6.12660695               -7.46849069               -3.82332364              -36.95411040               34.94879650                5.30851285
              14.55307388                1.05438477               58.18810550                0.00010000               -9.66995542                5.91721664               -5.82700008              -42.17003905               38.89263022                2.72936296
              15.43636097                0.13538470               58.32165264                0.43856020               -4.98595993                3.66492311               -4.18620646              -23.43115689               22.84481413               14.80829375
              16.45335468               -0.29275175               57.99046789                0.96750834                1.69937118                4.14273339               -8.18374680               -1.52045467               -0.66836645                7.95351872
               7.02802821                5.96691176               59.70891182                1.00000000               -0.36200903               -0.57462158                1.90854948               -0.05237172                0.25257772                0.93405386
               8.02440812                5.57701315               59.40271521                0.66605256               -0.15705836               -0.16495037                0.51938233                0.00571124                0.57590836               -0.26714101
               9.02488705                5.18636894               59.10284948                0.14585662                0.23986691                0.27990886               -0.84577604                0.00390124                1.17782365               -1.10420220
              10.02920546                4.79469336               58.80860030                0.00010000               -0.23808978                0.43483771               -2.15712342               -1.49429207                6.15820886                0.28366788
              11.02012525                4.37647795               58.60851759                0.00010000               -0.13876681               -1.33651368               -3.17971346               -3.29980480               10.85815412                4.13448880
              12.02643012                3.95081544               58.41061643                0.00010000                1.65620151               -3.90979074               -4.36084380               -5.98585000               14.20363435                9.29951960
              13.05324928                3.47135944               58.27332460                0.00010000                2.16461722               -8.97959143               -4.79749640              -15.26351078               22.22486699               14.86745226
              14.06972247                2.84075724               58.21592148                0.00010000               -1.98967137               -3.08175308               -5.18415528              -24.10923230               31.07938381                2.93789947
              15.01345585                2.10307732               58.24089480                0.00010000              -10.59253287                3.68842874               -5.02779702              -35.16553342               45.07083918               -4.68637745
              15.85787181                1.15562503               58.45539111                0.08562094               -6.63665228               12.66706433               -6.36476825              -15.26112089               29.39139312              -20.63901598
              16.88072281                0.73699814               58.11510144                0.70502389                2.28509957                4.25895621               -9.76670788                7.05203389                2.59550837              -20.33020929
               7.41528766                6.96176273               59.60654648                0.96651687               -0.26623690               -0.45583649                1.58084358               -0.04806960                0.11686530                0.73725450
               8.41262529                6.57587633               59.29297262                0.39955168               -0.06974063               -0.07101727                0.16415399                0.03736618                0.61319445               -0.59374073
               9.41389285                6.18978052               58.98928238                0.00010000                0.12043651                0.36014391               -1.18807818               -0.21306369                3.43485156               -1.74103064
              10.41503402                5.79689724               58.73209855                0.00010000                0.37133380               -0.56298830               -1.33577610               -2.34528620               10.67924262                2.98353241
              11.42131952                5.36283675               58.57589000                0.00010000                1.39393493               -1.57528265               -3.10148120               -3.86947136               16.18472685                3.87837620
              12.44291272                4.90922128               58.42644031                0.00010000                2.95372357               -3.88676787               -4.13819155               -6.24579428               18.71325449                5.85801558
              13.48039400                4.40088353               58.31197892                0.00010000                3.64724159               -5.74137268               -5.02170136              -12.23372592               23.42090113                5.12450963
              14.51585755                3.80946337               58.24242633                0.00010000                2.72507167               -2.88479233               -5.87335539              -19.27182846               28.30827510                0.31679995
              15.53489543                3.12815334               58.21154650                0.00010000               -0.93199080                2.76883635               -6.90932245              -22.02300989               28.11335147               -9.45876937
              16.49721774                2.38872599               58.12646123                0.06423860               -5.16231447               18.31839224               -6.31240086               -9.48053901               17.21753589              -33.31577117
              17.43164914                1.79242737               57.87562861                0.67530119               -6.55685966               11.50582053               -9.62159025               -4.01320103                9.78050857              -32.12205486
               7.79883963                7.95779503               59.50281171                0.91745972               -0.17019666               -0.34592850                1.28110982               -0.03721731                0.05683754                0.72856444
               8.79713766                7.57559280               59.18232161                0.30851674                0.03826152                0.00965247               -0.15625640                0.06572506                0.53225248               -0.62429548
               9.79960486                7.19357181               58.87132585                0.00010000                0.60529229                0.37061050               -1.55709818               -1.19588830                7.62126615               -2.07090928
              10.80924351                6.78343360               58.69227220                0.00010000                1.54034649               -0.99600028               -2.36609811               -2.98547887               15.38368095                2.27242912
              11.83041179                6.34497230               58.53766719                0.00010000                2.71119769               -1.72132723               -3.39084351               -4.78160343               18.26868464                2.31516711
              12.86346746                5.87308008               58.41411111                0.00010000                3.89604395               -3.08060455               -4.52232782               -7.65658143               21.37305137                2.66610372
              13.90833267                5.35653199               58.31517183                0.00010000                4.67743116               -3.54369468               -5.65151844              -12.15299136               24.25803093                1.61608286
              14.95701608                4.78306140               58.23872483                0.00010000                4.27001875               -1.69205432               -7.01359997              -16.89703307               25.98594168               -1.79089154
              15.99373304                4.15845405               58.16056228                0.00010000                2.34854584                3.52063608               -8.81800393              -19.06265747               24.26804685               -7.95379353
              17.00398700                3.52199287               58.03396407                0.02809029               -0.03385140               12.25003109              -11.14334319              -12.22856338               14.88006292              -14.54387011
              17.99305601                2.96711455               57.76330116                0.62442306               -1.09309867               17.86859465              -13.02146980               -4.03818055                7.26762041              -17.85012453
               8.17894778                8.95484416               59.39992139                0.89740199               -0.07847652               -0.25598386                0.99646497               -0.04159063                0.02580250                0.81442401
               9.17816301                8.57606938               59.07236016                0.27288514                0.15932545                0.09606502               -0.47021501                0.04518067                0.40113332               -0.60386997
              10.18213428                8.19719273               58.75227523                0.00010000                1.28804756                0.38349294               -1.93029202               -1.87954096                9.78276844               -2.23365108
              11.20392396                7.77697724               58.61171922                0.00010000                2.69533456               -0.45508569               -2.99150413               -4.11586124               19.52568572               -0.62920953
              12.23604098                7.32841020               58.48808088                0.00010000                3.71487201               -1.34425723               -4.05958681               -6.01065701               21.43740936                0.51496738
              13.27822140                6.84760919               58.38567310                0.00010000                4.56559364               -2.00647295               -5.18424355               -8.60627821               23.62104148                0.70990685
              14.32735285                6.33000963               58.30344080                0.00010000                4.88867139               -1.84197342               -6.48195799              -11.93055202               25.52592284                0.13786679
              15.37599483                5.77562229               58.23394346                0.00010000                4.36789779                0.09689400               -8.15462005              -14.93321661               26.59096106               -1.47818727
              16.41471080                5.19856606               58.16389454                0.00010000                3.39955694                4.42379018              -10.91323944              -15.51360941               25.05853769               -3.19939652
              17.44398597                4.63372661               58.04871862                0.03861969                2.29656860               11.07765924              -16.45824132               -9.96190140               16.10302214               -1.50178203
              18.46064218                4.14979927               57.78723355                0.61085279                1.66562080               16.98467658              -18.80457675               -3.82018910                9.01695899               -3.09897924
               8.55555738                9.95267536               59.29752576                0.88780805                0.01353264               -0.18269411                0.71338974               -0.04743253                0.01404592                0.86709474
               9.55569271                9.57751410               58.96264615                0.26195244                0.27743986                0.20131050               -0.79274964               -0.01085956                0.28997397               -0.62313605
              10.56110618                9.20124167               58.63326359                0.00010000                2.00080487                0.48374209               -2.34910652               -2.46550973               11.45948767               -2.40508816
              11.59570881                8.77433188               58.52096614                0.00010000                3.92302589               -0.10166989               -3.70435393               -5.02163638               22.98551438               -1.57848088
              12.63956670                8.31808715               58.42496500                0.00010000                4.70168302               -0.78011210               -4.84710821               -6.59040519               24.59407273               -0.79563303
              13.68974247                7.83295062               58.34807510                0.00010000                5.10709146               -1.02197326               -5.98829755               -8.47685496               26.36309258               -0.37807826
              14.74170853                7.31969252               58.29128175                0.00010000                5.00264268               -0.42712360               -7.33406782              -10.54995911               27.88035365               -0.13848337
              15.78979532                6.78499928               58.24771127                0.00010000                4.18240026                1.37462296               -9.19458797              -11.76206436               28.85642756                0.96102772
              16.82535653                6.24692985               58.21044878                0.00010000                3.18602249                4.75940899              -11.66552353               -9.99531178               30.48766783                1.95795220
              17.85351577                5.74354606               58.19760252                0.07942905                2.95751923                9.42190927              -19.44246111               -4.88725060               21.13335063                7.85018306
              18.88450692                5.30680808               57.95598316                0.60884694                3.09911465               11.56522770              -19.24045344               -1.43881962               11.30050496                5.50360343
               8.92832163               10.95119028               59.19534141                0.88921861                0.10578698               -0.11775777                0.43246120               -0.05322985                0.00346136                0.87976265
               9.92937950               10.58009559               58.85278954                0.27580307                0.38423382                0.32195022               -1.12888519               -0.06765583                0.16424961               -0.66044791
              10.93600631               10.20686757               58.51343623                0.00010000                2.86331270                0.70312430               -2.91640430               -2.98744063               12.97921388               -2.40539106
              11.98664575                9.77494384               58.42631595                0.00010000                5.48039153               -0.00729778               -4.56362740               -5.46692221               26.22188539               -1.73139583
              13.04561414                9.31280796               58.35562691                0.00010000                6.02165909               -0.55918249               -5.74328926               -6.08662110               27.76447183               -1.19986095
              14.10707894                8.82716972               58.30545078                0.00010000                5.93454351               -0.32541210               -6.82499145               -6.96216034               29.59144929               -0.77740682
              15.16430501                8.32146716               58.28191931                0.00010000                5.32186365                0.51033675               -8.14457026               -7.90311406               32.11323127               -0.02896679
              16.21351621                7.80311475               58.29696309                0.00010000                4.59763904                1.90631724               -9.65440579               -7.60928116               33.34033437                2.92397052
              17.25625779                7.29375424               58.31030068                0.03603351                3.64232594                3.51550215              -12.45876534               -4.80416310               35.52140067               15.03560371
              18.28636273                6.82216479               58.37449737                0.14586059                2.45419748                5.41093445              -11.55115496               -1.68347209               20.39446223                6.78696045
              19.30534174                6.38110382               58.08495747                0.60440528                1.89790102                4.69140886               -9.21260682               -1.14142939                4.37481702                4.41919470
               9.29668217               11.95032020               59.09293737                0.84606173                0.19801343               -0.05524791                0.15810483               -0.05336008                0.01590783                0.77544260
              10.29866230               11.58395311               58.74270290                0.29044780                0.49134738                0.44716768               -1.47673330               -0.07313241                0.22374023               -0.62269329
              11.30650911               11.21530416               58.39661488                0.00010000                4.08838338                0.94133580               -3.64931065               -3.63453106               14.62710817               -1.68935921
              12.38042997               10.77418593               58.33326083                0.00010000                7.95496385               -1.06270917               -5.43210360               -4.48140576               29.36571558               -1.06973887
              13.46560839               10.30690350               58.28498318                0.00010000                8.07050450               -0.73536668               -6.62628499               -4.00001545               30.95847204               -0.83744596
              14.54184006                9.82644238               58.25968395                0.00010000                7.10464142               -0.06417301               -7.57485404               -3.96905948               33.13948722               -0.61119118
              15.60770122                9.32989925               58.27041261                0.00010000                6.17412771                0.90197468               -8.77984630               -4.26121728               36.85292915                0.00043736
              16.66532261                8.82312562               58.34585182                0.00010000                5.12610003                1.93608616              -10.15199687               -3.91346842               47.21932167                2.85344929
              17.71022322                8.31723989               58.59914154                0.16801407                3.35870685                2.02702018               -8.14785203               -2.39892099               34.02805338               14.67859326
              18.73249675                7.85176475               58.43114184                0.27110067                1.67885271                2.01499908               -4.10395367               -0.83818907                7.39474234                1.50133168
              19.74380028                7.40063626               58.12729456                0.59728423                1.13035249                1.46014549               -4.10013626               -0.68581309                1.21165686                0.70255770
               9.65998862               12.95008532               58.98855361                0.92226740                0.29442773               -0.02348803               -0.12133147                0.22600689                0.34263396                0.67195115
              10.66293289               12.58903894               58.63373955                0.68884232                0.65471240                0.50858333               -1.81125013                0.20750735                0.92616433               -0.56162285
              11.67308286               12.22569428               58.29060976                0.45500111                7.12427016                1.03901242               -4.03351682               -5.11008939               16.56729892               -1.00956181
              12.80541830               11.75368965               58.24716619                0.36753732               12.01372588               -2.04962747               -6.04075392               -3.88085018               32.39381704               -0.30100511
              13.91335738               11.29810063               58.21679615                0.36055232                9.96418499               -0.88028767               -7.22146884               -1.61527075               34.26082210               -0.17094557
              15.00470200               10.82588626               58.21209923                0.36599385                8.45200182               -0.05561162               -8.02633118               -1.64350494               36.78062096                0.03110081
              16.08239742               10.33950665               58.24753816                0.38380037                7.16021021                0.96073997               -9.12648309               -1.73286987               41.60021750                0.55950692
              17.14790620                9.84183647               58.37172725                0.41491245                4.86214138                1.87108467              -10.11212496               -2.00224163               52.22865499                3.85766950
              18.17964025                9.33429465               58.65801754                0.63862515                1.91481922                1.70547522               -5.67513675               -2.02688223               34.15028476                4.64361797
              19.18620258                8.86246478               58.45237424                0.68861572                0.71211049                1.07000294               -3.01900056               -0.82881240                5.61630505                0.03777557
              20.19388246                8.41030673               58.14878035                0.79612984                0.76798704                0.96704731               -3.13233226               -0.20758656                1.08425533                0.21590674
               6.13905570                3.10006098               61.03761386                1.00000000               -0.63938115               -0.80683941                2.79181274               -0.25789048               -0.60896249                0.67540004
               7.13266189                2.69169150               60.72605414                1.00000000               -0.45022815               -0.37867811                1.42320915               -0.19851104               -0.76700905                0.10713041
               8.13005114                2.28259454               60.41092240                1.00000000               -0.07418161                0.03573643                0.06840370               -0.20038904               -0.71433942               -0.12221742
               9.13117826                1.87183779               60.10013208                0.61612899                0.18576468                0.49624684               -1.32150886               -0.33984513                0.10834786               -0.61635916
              10.13376643                1.45709870               59.80130749                0.55050843                0.51038305                1.04536541               -2.89809373               -0.34053116                0.99616499               -0.08214492
              11.14138592                1.03979083               59.50796594                0.43133599                0.92745536                1.49222065               -4.44080236               -0.39348953                1.26056526               -0.40860363
              12.15231554                0.61740012               59.21434218                0.09671870              -10.13361380                2.01416812               -5.85932139              -16.10024147                6.67896632               -0.66657390
              12.93871365               -0.12390598               59.02897766                0.00010000              -21.97368484                5.13079311               -2.11759654              -27.07599897                3.83637991               -4.80867505
              13.71284185               -1.15466767               58.89690744                0.00010000               -5.35851457                7.49662697               -6.52130439              -28.84580997                5.79534471                7.70936438
              14.83154335               -2.07468128               58.60617670                0.60296532                8.61119033                6.17903754              -16.17452810              -24.42658588               -0.34014810                2.26351151
              15.88506565               -2.54735532               58.29671655                1.00000000                5.35222976                7.31243756              -19.51751003                0.92159767               -2.03908519               -0.79508153
               6.54484628                4.09199259               60.93178645                1.00000000               -0.54362782               -0.76128400                2.49459817               -0.03929897               -0.05624151                0.92850425
               7.53941000                3.68790472               60.62012270                1.00000000               -0.34360868               -0.33880720                1.12468893                0.01481871               -0.04886366                0.17007796
               8.53797411                3.28295190               60.30825611                1.00000000                0.05588619                0.07567767               -0.22941403                0.02216323                0.03069893               -0.26093026
               9.54052773                2.87680025               59.99798660                0.47432629                0.42052472                0.52846425               -1.61681868               -0.07269611                1.21996273               -0.77419317
              10.54638460                2.46755236               59.70989865                0.47410938                0.83862951                1.03689568               -3.27047495               -0.09699218                2.19854179               -0.16784472
              11.55730032                2.05471303               59.41889859                0.36540621                1.33884650                1.50758043               -4.86302295               -0.17057418                2.05033566               -0.58565887
              12.57316153                1.63754180               59.12797473                0.00010000               -0.16563836                1.93617777               -6.32174810              -14.66290646               13.09345912               -0.91811220
              13.55398755                0.92740195               59.05881437                0.00010000               -8.66950676               -1.02659264               -2.64570718              -35.29235601               20.66189859               -0.50364882
              14.39977140               -0.07970140               59.00125042                0.00010000              -13.51831133                7.56622719               -6.85726773              -38.62900938               10.63220348                6.91874576
              15.28362132               -1.01289091               58.68070051                0.17615030               -1.64078650                5.64346201              -24.40282758              -22.18689567                1.06089151               28.13162185
              16.36695567               -1.47423095               58.37095880                1.00000000                8.33343434                5.94848799              -27.70711898               -0.71277667                1.12225177               22.12993427
               6.94644546                5.08483530               60.83054418                1.00000000               -0.44465124               -0.66437242                2.18477892               -0.04487553                0.14873636                1.10811909
               7.94199895                4.68491535               60.51521239                1.00000000               -0.24232963               -0.25423861                0.81733698                0.00523283                0.30868487                0.10690618
               8.94159887                4.28410809               60.20281266                0.72909166                0.15624671                0.16743938               -0.53449762                0.01356384                0.58820315               -0.55433119
               9.94512388                3.88240707               59.89293783                0.00010000                0.61574705                0.60314853               -1.85026047               -0.09280089                2.42749538               -0.96928879
              10.95391381                3.47783662               59.61739224                0.00010000                1.14305543               -0.44682034               -3.64772484               -1.18401140                3.42355328                2.36023758
              11.96798499                3.06994244               59.32693279                0.00010000                1.62273435               -1.61679298               -5.22861844               -1.75206641                2.75134112                5.85095124
              12.98636850                2.65612368               59.03817958                0.00010000               -0.89376339               -5.98531766               -6.58142490              -20.28275431               21.77858044               12.58415883
              13.95010972                1.85556217               59.12789069                0.00010000               -5.29069908               -4.49280569               -5.08385562              -40.34865047               37.38238791                4.52647373
              14.88055452                0.99665688               59.12318835                0.00010000               -8.38873669                6.33426141               -6.95282661              -43.03468448               41.81030597                5.03224892
              15.78233499                0.03818796               59.28461395                0.42697723               -4.35321607                3.65859188               -3.00854397              -23.71648742               25.66238369               28.31335256
              16.79349019               -0.42838556               58.91649193                0.95888834                1.11552036                3.77111447               -5.92510156               -1.67562678               -1.38863825               21.73959330
               7.34378866                6.07870514               60.72783243                1.00000000               -0.35467948               -0.55391919                1.86825371               -0.05511476                0.26670111                0.91921497
               8.34024187                5.68281995               60.40781225                0.64013522               -0.15174967               -0.16320751                0.49978392                0.00432475                0.60112508               -0.30263231
               9.34075367                5.28630069               60.09432205                0.11910707                0.23506584                0.27624829               -0.85448340                0.00970398                1.24531101               -1.13002068
              10.34494318                4.88886322               59.78715089                0.00010000               -0.27923304                0.13454750               -2.12043432               -1.87099797                6.41289684                0.95705768
              11.33516901                4.45861595               59.57737955                0.00010000               -0.04856277               -1.96564017               -3.04401074               -3.84235366               11.27671827                4.79408008
              12.34397193                4.02237717               59.36753103                0.00010000                2.33588542               -5.11783735               -4.24468997               -6.93460542               14.91370997               10.31146837
              13.38188672                3.51783545               59.22480911                0.00010000                3.12547056              -11.16140306               -4.87576178              -17.80945596               23.39105270               16.13852614
              14.40648134                2.83754584               59.16173364                0.00010000               -1.27173997               -2.61336029               -5.59277640              -28.15441927               32.59355463                3.11793813
              15.35645192                2.04698383               59.18665465                0.00010000               -8.60736626                4.03284101               -5.71704106              -38.77216125               45.81643338               -3.60995764
              16.23433401                1.06028093               59.37366115                0.11904988               -4.49308744               11.13106676               -9.41357611              -19.03719586               29.72429061              -17.25615054
              17.26659017                0.60119134               59.00233613                0.75119090                3.22561532                3.79149711              -11.94978468                4.34065096                2.45147356              -17.31730257
               7.73711355                7.07375692               60.62230760                0.95189701               -0.26236602               -0.43442516                1.56051717               -0.04548089                0.11011963                0.74618291
               8.73448989                6.68165120               60.29457977                0.38006503               -0.06819410               -0.08330961                0.15756887                0.05221599                0.64178911               -0.62821727
               9.73574967                6.28963306               59.97738800                0.00010000                0.04493864                0.32202736               -1.18355144               -0.46348151                4.19346819               -1.80419912
              10.73538866                5.88509802               59.72073714                0.00010000                0.39015585               -1.07883301               -0.99339872               -2.93657997               11.14732514                2.94430558
              11.74355279                5.43852381               59.54543217                0.00010000                1.73423603               -2.26794364               -3.00337193               -4.64853139               16.22727778                4.13767338
              12.77007339                4.96758569               59.38532496                0.00010000                3.57289651               -5.03643537               -4.08005248               -7.66395944               19.30734654                6.20619226
              13.81501072                4.43289562               59.26131755                0.00010000                4.38997862               -6.96176486               -5.07934315              -14.96892876               24.08148436                5.30288475
              14.85787296                3.80329496               59.18204087                0.00010000                3.36827402               -3.31227154               -6.10602174              -22.96721153               28.78794071                0.32802113
              15.88237620                3.07731370               59.13801779                0.00010000               -0.52446974                2.85744025               -7.53356828              -27.53138110               29.43725721               -9.63562582
              16.84738356                2.26080929               59.06533763                0.07089937               -4.19469057               17.72299641               -6.40986244              -15.18050630               17.35627448              -34.59569197
              17.79848239                1.64744438               58.77222523                0.69631047               -4.89011764               11.87408775              -11.28563115               -7.54103432                9.17737604              -30.29708542
               8.12709047                8.07001663               60.51564039                0.90655721               -0.16804233               -0.32361913                1.27391531               -0.03654289                0.04997254                0.76342952
               9.12541005                7.68115375               60.18075034                0.29674871                0.04733770               -0.01550850               -0.15446986                0.07860507                0.54337698               -0.64478631
              10.12803722                7.29274124               59.85567429                0.00010000                0.59553920                0.27098690               -1.56710125               -1.59850680                7.97387905               -2.18940061
              11.13732083                6.86728656               59.66904043                0.00010000                1.58367442               -1.38818850               -2.30523833               -3.80348279               15.98369142                1.60341224
              12.15971071                6.41325708               59.50422248                0.00010000                2.95000543               -2.37174836               -3.30806157               -5.90532683               18.69210157                2.19245181
              13.19632094                5.92164847               59.36890143                0.00010000                4.35440798               -3.92704957               -4.50716554               -9.51037110               21.76730462                2.63699401
              14.24679887                5.37860015               59.25791384                0.00010000                5.31990449               -4.42256474               -5.74979350              -14.94205084               24.52610834                1.51505133
              15.30271903                4.77130040               59.16650806                0.00010000                5.07555466               -2.32615136               -7.29393254              -20.58123406               25.94076938               -2.07669092
              16.34830996                4.10413264               59.07016830                0.00010000                2.89370896                3.15334759               -9.07784614              -23.52938540               23.98420998               -9.00525994
              17.36059321                3.41474086               58.92069156                0.00897496               -0.29053297               13.80143172              -11.29802732              -15.55308033               14.50773282              -18.82934695
              18.34249930                2.83867310               58.62991395                0.62342016               -1.80939026               18.69851671              -13.59479094               -6.64157935                6.58946593              -20.38915524
               8.51410846                9.06728453               60.40990916                0.88992589               -0.07710675               -0.23529109                0.99422772               -0.04278248                0.02104938                0.86215110
               9.51333739                8.68134103               60.06763693                0.26610794                0.17691328                0.06751972               -0.46708168                0.03112305                0.38894952               -0.63177870
              10.51764672                8.29505280               59.73269872                0.00010000                1.27328894                0.24070074               -1.97967373               -2.39744513                9.99454317               -2.43133204
              11.53880317                7.85733425               59.58185672                0.00010000                2.67188122               -0.76885745               -2.97038981               -5.19387838               19.99617500               -1.04471050
              12.57108435                7.39108885               59.44751878                0.00010000                3.78598599               -1.79802173               -4.04018949               -7.41617957               21.88635515                0.15644261
              13.61452289                6.88904470               59.33348567                0.00010000                4.77167079               -2.56930019               -5.22581319              -10.75738277               23.95223765                0.47805890
              14.66651776                6.34444432               59.23733745                0.00010000                5.30964521               -2.46656895               -6.66563245              -15.03682481               25.58412571               -0.13532072
              15.72071579                5.75677193               59.14947414                0.00010000                5.09151373               -0.51101564               -8.61459484              -18.99127713               25.92837662               -2.03869296
              16.76834804                5.14038065               59.04784891                0.00010000                4.05328513                4.18953635              -11.71451542              -20.04601214               23.06454701               -4.43393527
              17.80178150                4.53683793               58.88561112                0.00195492                2.47191404               11.52205885              -15.92147115              -13.48819492               13.82745098               -6.48466789
              18.81778632                4.02141471               58.59441498                0.59902474                1.60048231               17.38548310              -18.63031446               -5.74083992                7.23495370               -7.88286348
               8.89812182               10.06531081               60.30470620                0.88231140                0.01424259               -0.16472216                0.71582781               -0.04967088                0.00885758                0.92299070
               9.89826424                9.68250415               59.95467459                0.25801299                0.29866431                0.17536878               -0.79035775               -0.06527625                0.23490419               -0.67076774
              10.90409510                9.29755525               59.60916431                0.00010000                1.95714838                0.33952044               -2.47038859               -3.07073422               11.47811032               -2.77194357
              11.93740721                8.85190942               59.48326723                0.00010000                3.77907839               -0.27413319               -3.78890676               -6.17005918               23.28329584               -2.24576467
              12.97967667                8.37729664               59.37593526                0.00010000                4.52052983               -0.98011028               -4.93001546               -8.05325051               25.03948963               -1.32162324
              14.02781781                7.87026246               59.28729825                0.00010000                4.93292339               -1.23717322               -6.12195631              -10.76426225               26.69119973               -0.73166328
              15.07833514                7.32926877               59.21577788                0.00010000                4.95696742               -0.67385457               -7.69397896              -13.98828041               27.80796207               -0.55759850
              16.12695716                6.76108009               59.15083752                0.00010000                4.44942943                1.10854116               -9.94483090              -16.16064937               28.22403723                0.20268639
              17.16732373                6.18792336               59.08420107                0.00010000                4.14190437                4.92275590              -13.65727414              -15.28883518               26.44713430                0.48143652
              18.20979524                5.64518203               58.96879641                0.02870403                4.56026004               10.95402182              -22.09759127               -9.68617990               17.55178946                6.78845766
              19.25852893                5.18638276               58.70075734                0.59160677                4.87336850               15.20026690              -25.75972483               -4.10246944               10.78899962                5.80672503
               9.27872837               11.06399009               60.19973680                0.88414733                0.10590545               -0.10498767                0.43954729               -0.05723596               -0.00357337                0.94948924
              10.27978742               10.68484841               59.84141744                0.27547003                0.40492002                0.30406065               -1.13161701               -0.15876859               -0.01786788               -0.73517140
              11.28682677               10.30184320               59.48283660                0.00010000                2.79365849                0.64726535               -3.19579933               -3.57662742               12.69799277               -3.02414635
              12.33566059                9.85185159               59.37860040                0.00010000                5.24197590                0.08026959               -5.06541694               -6.48442753               26.38060369               -2.69816740
              13.39166629                9.37148664               59.29646666                0.00010000                5.58024592               -0.42520250               -6.08344793               -7.34379500               28.33467397               -1.87251403
              14.44726551                8.86430123               59.23558548                0.00010000                5.21341187               -0.12708690               -7.08448639               -9.01862972               30.00140563               -1.16785940
              15.49593453                8.33096723               59.19705463                0.00010000                4.57913512                0.85975901               -8.67875107              -11.28866553               32.07369734               -0.49672384
              16.53884822                7.77894276               59.19210163                0.00010000                4.12674329                2.46147058              -11.38375190              -12.37412885               32.36641651                1.92421519
              17.57846939                7.23883577               59.16965024                0.00010000                3.53751428                4.67177363              -14.70996363               -9.33717509               34.76123971               14.26020578
              18.60959850                6.75591836               59.21107769                0.08489689                3.74330433                8.82767825              -23.01031553               -3.97752477               24.30710279               12.45751603
              19.65333548                6.32542005               58.95527341                0.58372601                4.37369774                9.21586244              -22.65135769               -2.75944725               12.58094398               10.14669104
               9.65526046               12.06321106               60.09463980                0.83864641                0.19752973               -0.05175104                0.17553880               -0.05564569                0.00735635                0.85788245
              10.65723576               11.68858536               59.72779020                0.30478615                0.51494593                0.44139712               -1.49257340               -0.13537009               -0.17889932               -0.71078497
              11.66555938               11.31050056               59.35726548                0.00010000                4.04197338                1.02897059               -4.13859043               -4.07114105               13.99951765               -2.20815513
              12.73807522               10.85351481               59.27496851                0.00010000                7.73958730               -0.67966914               -6.67763336               -5.15175850               29.48107348               -1.88846502
              13.82035112               10.36879259               59.21523130                0.00010000                7.49447000               -0.26969258               -7.45731901               -4.75993947               31.82708693               -1.33579645
              14.88796462                9.86772073               59.18129630                0.00010000                5.87845911                0.52764432               -7.96299249               -5.22424815               33.79645449               -0.87310232
              15.93792031                9.34646395               59.17827454                0.00010000                4.18207083                1.86084691               -9.50166207               -6.53989206               36.68298648               -0.37730555
              16.97160604                8.81030950               59.23129974                0.00010000                3.28421566                3.78488476              -12.30394124               -7.09502428               47.51133776                1.98108751
              18.00360462                8.28135884               59.48895815                0.12354503                3.60272113                4.00845797              -17.59137705               -4.54524505               38.39944536               16.25099502
              19.04366046                7.82173560               59.38336159                0.20484916                3.03659919                4.06602442               -7.92140669               -1.15714180               11.87095787                5.89921412
              20.06433660                7.37070001               59.07572884                0.57547406                2.06761397                3.17366196               -8.69788082               -2.23382141                3.79920209                3.49135291
              10.02686685               13.06295507               59.98752226                0.91798720                0.29236683               -0.02559896               -0.09000624                0.23276765                0.38134371                0.76059633
              11.02979052               12.69367635               59.61545700                0.70547986                0.68038245                0.50909917               -1.83007663                0.22885386                0.58668282               -0.65494479
              12.04047450               12.32242262               59.24758007                0.47706690                7.22714343                1.19220570               -4.37009514               -5.27939498               15.84792941               -1.34752974
              13.17433339               11.83825820               59.18108319                0.36742901               12.08935388               -1.52566033               -8.04467627               -4.19067477               32.30631779               -0.55363576
              14.28226158               11.36609279               59.13933757                0.36058771                9.53878992               -0.26998040               -8.45889091               -1.97915859               35.42742798               -0.42704958
              15.36510919               10.87485412               59.12803645                0.36575110                7.01431630                0.71333945               -8.62835939               -2.18097464               37.69068132               -0.14240663
              16.42254791               10.36818417               59.15067327                0.38285339                4.84718292                2.17202137              -10.00834162               -2.54792345               41.54541868                0.31813361
              17.46205285                9.85464045               59.25296571                0.41261697                2.67952443                4.43309474              -13.35497047               -3.41428140               53.97294300                3.36603719
              18.47613840                9.31900493               59.58216468                0.61381511                1.75308224                3.76460910              -14.20478515               -3.61670249               39.16058847                8.92748069
              19.49711449                8.83723885               59.41926403                0.65299103                1.72959181                1.55032513               -4.85892400               -1.16017893                8.84950120                0.61254246
              20.51073023                8.38889329               59.10956919                0.78560042                1.36157391                1.81932829               -6.56267735               -0.19519311                2.79964541                0.88656096
               6.45150472                3.21406330               62.06512444                1.00000000               -0.61730176               -0.78031076                2.70215433               -0.25170055               -0.58621432                0.66316914
               7.44533170                2.80016899               61.74005277                1.00000000               -0.43228402               -0.36619185                1.37444795               -0.19458931               -0.73491742                0.10322501
               8.44285904                2.38556710               61.41153730                1.00000000               -0.06476688                0.03448220                0.05907304               -0.19499104               -0.69346163               -0.11484158
               9.44403636                1.96940526               61.08702855                0.60988953                0.19489935                0.48019443               -1.28822532               -0.33102549                0.01284822               -0.59600944
              10.44675703                1.54937536               60.77258871                0.53561876                0.51655256                1.00847880               -2.82363722               -0.33968158                0.81223449               -0.11478924
              11.45436742                1.12662323               60.46389473                0.40547656                0.93680486                1.45088526               -4.34153201               -0.39569768                1.14315342               -0.45710584
              12.46549312                0.69918874               60.15634359                0.05307654              -15.33627313                1.91309498               -5.70293117              -23.58021125                9.66002155               -0.74947455
              13.14764195               -0.19552763               60.01849348                0.00010000              -22.98385199                7.66686832               -1.41413756              -25.25731337                9.58381307               -1.92030806
              14.00581608               -1.15602636               59.83192119                0.00010000                0.03669535                5.28533598               -6.21873739              -23.74037019                3.77589306               12.15098968
              15.14837586               -2.08250453               59.45635164                0.65606594                9.23957019                4.90262772              -12.98682604              -23.03344897               -2.44097393                1.57853582
              16.19060749               -2.58167939               59.11424451                1.00000000                4.22316272                5.86461635              -15.87709711                0.70051157               -2.01680772               -0.59060047
               6.86288202                4.20626019               61.95636560                1.00000000               -0.52481125               -0.73458674                2.41369509               -0.04173973               -0.04283300                0.91599119
               7.85763391                3.79650707               61.63117537                1.00000000               -0.32955139               -0.32725461                1.08438583                0.00967431               -0.02508562                0.16289144
               8.85629099                3.38591192               61.30594030                1.00000000                0.05940335                0.07313383               -0.22909361                0.01873787                0.04510121               -0.26106410
               9.85882198                2.97420720               60.98197967                0.48114464                0.42301152                0.51225835               -1.57374108               -0.07444666                1.08150792               -0.72940230
              10.86475123                2.55946015               60.67756805                0.47585937                0.83408875                0.99577582               -3.17532533               -0.09591729                1.94074034               -0.21005013
              11.87550375                2.14113208               60.37080092                0.35803305                1.30076088                1.45902214               -4.72842181               -0.18785908                1.87863036               -0.61889378
              12.89076644                1.71831969               60.06564289                0.00010000               -2.64136916                1.80677067               -6.12028214              -20.76322169               14.99295009               -0.92518893
              13.82267637                0.88114105               60.02241681                0.00010000               -8.94328056                2.71181388               -4.51307379              -33.83677869               22.78601435                1.75213710
              14.71190083               -0.10317300               59.92884384                0.00010000               -9.59042420                6.28259397               -7.28842908              -34.39393254                4.60970237               11.47119684
              15.63086788               -1.03347825               59.44607780                0.12510792               -0.75566859                4.55978225              -20.07342177              -20.59655131               -5.14561848               41.36978614
              16.69678746               -1.52303322               59.10370723                1.00000000                6.59195751                4.61710831              -22.96071422               -0.39457326               -0.19246367               36.62352240
               7.27017616                5.19937157               61.85208174                1.00000000               -0.43027029               -0.63637740                2.11527750               -0.04873835                0.15936283                1.09356564
               8.26587346                4.79362390               61.52323047                1.00000000               -0.23212488               -0.24569745                0.78536031               -0.00173494                0.32927027                0.09175431
               9.26553367                4.38702978               61.19747041                0.69600660                0.15628698                0.16406317               -0.52885159                0.00950837                0.63604171               -0.57218405
              10.26899920                3.97965043               60.87464830                0.00010000                0.61900678                0.59140033               -1.79743114               -0.10774831                2.25759223               -0.91946999
              11.27791380                3.56929088               60.58148568                0.00010000                1.13757492               -0.75702644               -3.51736935               -1.16592549                3.10009634                2.79989299
              12.29175070                3.15580367               60.27546219                0.00010000                1.61529606               -2.12397248               -5.04126917               -1.60978594                2.61964143                6.48488186
              13.31021972                2.73532415               59.97329954                0.00010000                0.03241846               -7.36638491               -6.36763105              -23.04968704               22.82931983               13.58715356
              14.29239907                1.85870865               60.07145188                0.00010000               -3.88314921               -1.60876106               -5.85259878              -41.43134894               38.76145430                6.06612544
              15.23255674                0.96962552               60.04904897                0.00010000               -6.80470045                5.96108608               -7.32987974              -42.20306775               45.83844695                9.78809236
              16.15630506                0.00869111               60.26148176                0.42729168               -3.53653877                3.16282965               -2.01543121              -22.65772450               29.37666690               42.21419934
              17.16182596               -0.48933722               59.87196586                0.95634886                0.55209043                2.89760075               -3.44261911               -1.02209120               -1.10623665               37.32359703
               7.67340259                6.19353264               61.74627690                1.00000000               -0.34615856               -0.52465703                1.81264775               -0.05547488                0.27875578                0.91481212
               8.66994100                5.79159312               61.41271089                0.61471067               -0.14739763               -0.16250021                0.47973579                0.00838765                0.61857203               -0.33394682
               9.67045463                5.38919318               61.08575981                0.09015901                0.22324520                0.26572600               -0.85232078                0.02566324                1.31705856               -1.16093900
              10.67440591                4.98603521               60.76619161                0.00010000               -0.25875829               -0.28783088               -2.06035877               -2.19682051                6.70671319                1.74100780
              11.66527947                4.54431962               60.54763738                0.00010000                0.14344283               -2.52718010               -2.92662399               -4.20095576               11.71705451                5.50287355
              12.67727476                4.09865263               60.32572263                0.00010000                3.07941309               -6.19144734               -4.12218705               -7.59520300               15.48442906               11.37665991
              13.72686773                3.57099199               60.17580937                0.00010000                4.12366301              -13.07438332               -4.88455117              -19.72993790               24.09532755               17.70748227
              14.75974802                2.84896583               60.10406596                0.00010000               -0.45053609               -2.37296355               -5.78104543              -31.62131060               33.56579396                4.77638799
              15.71785701                2.01604872               60.12655398                0.00010000               -6.15359430                4.11508239               -6.04280003              -40.57002096               45.14148529               -0.17081439
              16.63667614                1.02977834               60.26711958                0.16548039               -2.27273511                7.05453106              -10.68447577              -21.36495991               28.17307703              -12.20527245
              17.67240231                0.53491879               59.87610575                0.80774758                3.57261703                2.41225352              -12.03230626                2.49382056                1.52545633              -13.00273542
               8.07294571                7.18887842               61.63775682                0.93909280               -0.25650318               -0.40352943                1.52040847               -0.03962309                0.10228195                0.76557272
               9.07038067                6.79037390               61.29612399                0.36201267               -0.06704311               -0.09766032                0.15256212                0.07480857                0.66493747               -0.65853101
              10.07160484                6.39234430               60.96561135                0.00010000               -0.02221618                0.26399456               -1.16484319               -0.80711851                5.07297541               -1.88098970
              11.06993635                5.97389381               60.71223058                0.00010000                0.48362097               -1.58264765               -0.88895389               -3.38168883               11.66884621                3.02459738
              12.08127726                5.51874728               60.51582256                0.00010000                2.16189606               -2.87924502               -2.96113212               -5.14028654               16.17820485                4.52498475
              13.11317427                5.03197473               60.34483926                0.00010000                4.20152528               -6.04966978               -4.02670034               -8.85316819               19.77547509                6.79432098
              14.16530777                4.47383649               60.21039205                0.00010000                5.08709262               -8.00894366               -5.07371287              -17.31724398               24.49265759                6.01103653
              15.21491612                3.81124937               60.12030590                0.00010000                3.75180208               -3.74357621               -6.12170718              -25.90401658               28.85372277                1.43017285
              16.24034381                3.05192717               60.06087514                0.00010000               -0.23901663                2.62345034               -7.43032282              -33.00454553               30.26241326               -8.09523697
              17.21013579                2.14978174               59.99826398                0.08833178               -1.94611699               14.76770544               -7.36292766              -19.76497221               16.59826197              -29.56562744
              18.20142147                1.55890785               59.64991599                0.72474109               -0.87143210               10.11114480              -11.75382220               -7.38747632                5.50655264              -22.65099215
               8.46961918                8.18546206               61.52829002                0.89744676               -0.16478817               -0.29285236                1.24701501               -0.03383734                0.04352038                0.80459636
               9.46797130                7.78963992               61.17923221                0.28767907                0.05865828               -0.04321689               -0.14531097                0.08913930                0.53744025               -0.66414776
              10.47079235                7.39447308               60.83998383                0.00010000                0.61989214                0.13658853               -1.56578024               -1.95285754                8.32129503               -2.35310822
              11.48036915                6.95438226               60.64616743                0.00010000                1.68002351               -1.60187906               -2.30425355               -4.43236491               16.62240663                1.00196297
              12.50439282                6.48673472               60.47150596                0.00010000                3.23765229               -2.94605006               -3.27388017               -6.79305770               19.11191860                2.32728142
              13.54512219                5.97765924               60.32396780                0.00010000                4.84276917               -4.66005944               -4.49501584              -11.08241942               22.07066551                3.00314662
              14.60124820                5.41081312               60.20017596                0.00010000                5.92274086               -5.21986516               -5.76047706              -17.29129028               24.61139662                2.04789596
              15.66357701                4.77409431               60.09284618                0.00010000                5.89927670               -3.03652048               -7.27914748              -23.65803082               25.67808574               -1.45747166
              16.71923374                4.06851773               59.97900535                0.00010000                3.54095011                2.19637101               -8.93431536              -27.47204495               23.35161887               -8.29785401
              17.73439601                3.32513245               59.80800352                0.00240154               -0.64165926               15.30733308              -10.54978258              -18.37714574               13.75007873              -20.69529065
              18.70640055                2.73714169               59.49140534                0.63000417               -2.79954584               18.11953788              -13.52854863               -9.48347370                6.38307094              -19.82080660
               8.86391323                9.18302138               61.41980594                0.88396922               -0.07607939               -0.20772614                0.97603488               -0.04225329                0.01652167                0.91307072
               9.86315244                8.78950956               61.06301853                0.26402067                0.19460589                0.03391578               -0.44809520                0.00080324                0.33956898               -0.66024469
              10.86780535                8.39507607               60.71268176                0.00010000                1.29374818                0.05959238               -2.00833193               -2.81849672               10.18905580               -2.69332671
              11.88902740                7.94185623               60.55231142                0.00010000                2.71668880               -1.08546697               -2.96896899               -6.05075791               20.48842391               -1.29096501
              12.92213913                7.45982628               60.40727709                0.00010000                3.92100425               -2.20139574               -4.03379464               -8.55750240               22.32280924                0.12781643
              13.96744749                6.93877354               60.28115683                0.00010000                5.04538837               -3.07208458               -5.25547727              -12.58927226               24.25587081                0.76044920
              15.02304690                6.36943918               60.17012815                0.00010000                5.83017034               -3.09948730               -6.74580910              -17.75871380               25.53321829                0.30675700
              16.08405090                5.75051897               60.06165157                0.00010000                5.84089368               -1.38343931               -8.73963713              -22.56543683               25.14217038               -1.59050442
              17.13986477                5.09585459               59.92960424                0.00010000                4.49590111                3.31197615              -11.52412563              -23.87419922               21.38238605               -5.03919680
              18.17396892                4.45592840               59.73028920                0.00010000                2.39343745               11.43580936              -14.85193276              -16.04783495               12.22939848               -9.31806157
              19.18773352                3.92129861               59.41462726                0.59375760                1.37646001               16.24712341              -17.24420986               -6.96475378                5.96747638              -10.86660695
               9.25579776               10.18130753               61.31184231                0.87810709                0.01349207               -0.13874594                0.70255805               -0.05014768                0.00470871                0.98191201
              10.25593268                9.79031823               60.94683899                0.26230215                0.31389930                0.13834920               -0.76292665               -0.14363556                0.10373173               -0.72093550
              11.26207574                9.39566492               60.58385581                0.00010000                1.93355482                0.16037033               -2.55012607               -3.63337295               11.42515002               -3.23123735
              12.29460378                8.93267292               60.44518801                0.00010000                3.71248589               -0.62885103               -3.77786611               -7.06788741               23.60198964               -2.85139644
              13.33632546                8.44270681               60.32636469                0.00010000                4.45600326               -1.18823188               -5.00495358               -9.16359834               25.51575252               -1.52671650
              14.38372384                7.91621755               60.22563597                0.00010000                4.90015195               -1.44795268               -6.23933386              -12.74059204               27.06458944               -0.47086461
              15.43432850                7.34882337               60.13740217                0.00010000                5.10645128               -1.02015828               -7.92731916              -17.17880572               27.84059189               -0.12475623
              16.48585287                6.74642552               60.04881466                0.00010000                5.10059103                0.53089331              -10.38392234              -20.49340472               27.10362828                0.17082634
              17.53634032                6.13475725               59.93730330                0.00010000                5.10712132                3.91733465              -14.72144442              -19.99675680               23.30991650                0.28589162
              18.58799529                5.55384864               59.75565070                0.00010000                5.00123675               10.04107694              -20.54997848              -12.98801976               13.70296313                1.51191508
              19.63636506                5.06208416               59.44078867                0.58208031                4.83697639               14.38837675              -24.51354806               -5.13466464                7.19728863                0.05626624
               9.64488888               11.18024646               61.20413235                0.88067897                0.10334601               -0.08075734                0.42893199               -0.06045502               -0.01296358                1.02755017
              10.64592234               10.79227654               60.83015720                0.29377771                0.39471643                0.26898103               -1.09865264               -0.27185142               -0.35082413               -0.82313065
              11.65278321               10.39828347               60.44952024                0.00010000                2.73527155                0.53663324               -3.30267486               -4.28759583               12.02295923               -3.73326900
              12.70062777                9.92927921               60.32500761                0.00010000                5.12696625                0.06304563               -5.43839468               -7.23699936               26.30567608               -4.35782363
              13.75532253                9.43606164               60.23395795                0.00010000                5.29456574               -0.26950701               -6.53000970               -7.99839240               29.04130695               -2.31004978
              14.80651909                8.90981448               60.16376105                0.00010000                4.69701377                0.01559073               -7.29664605              -10.80117806               30.64878493               -0.88864642
              15.84926281                8.34903602               60.10834429                0.00010000                4.08649178                0.99555650               -9.08084283              -14.58243206               32.03702737               -0.06522220
              16.88824892                7.76113683               60.06928805                0.00010000                4.16218546                2.77288848              -12.80598755              -17.79109217               32.12932151                2.07474346
              17.93250652                7.17420128               60.01610141                0.00010000                4.93163493                4.74940513              -16.74752139              -15.72884729               29.52750473               10.60778381
              18.98688162                6.65674994               59.91429106                0.03085976                6.80313339               10.38570266              -29.24062421               -8.49926061               20.21017510               16.03938721
              20.06856919                6.20906614               59.63193032                0.57403352                8.16875662               12.70416875              -33.92726729               -4.83414098               13.59148357               12.60673852
              10.03052849               12.17969239               61.09644814                0.83248127                0.19301448               -0.03570680                0.17253500               -0.05659594               -0.01329761                0.96064986
              11.03245864               11.79569785               60.71285144                0.35590446                0.43963345                0.41649579               -1.46712189               -0.23041998               -0.79376977               -0.82142385
              12.03932116               11.40639759               60.31384307                0.00010000                3.98134917                0.99155142               -4.02359073               -4.50659891               12.43288445               -2.66763141
              13.11208562               10.93393383               60.19970816                0.00010000                7.82505878                0.05541799              -10.17166367               -5.49607665               29.18912035               -3.60394011
              14.19582234               10.43731667               60.13583680                0.00010000                7.13201408                0.26427266               -8.20595316               -4.88871588               33.26626498               -1.61487122
              15.25472590                9.91652936               60.10042410                0.00010000                4.77675883                0.98716736               -8.17345871               -6.39606648               34.82310431               -0.63685627
              16.29135751                9.36873450               60.08037937                0.00010000                2.50699282                2.60179306              -10.14318967               -8.77661753               37.05856069               -0.05230341
              17.30486576                8.80188329               60.09977300                0.00010000                1.73963789                5.23442185              -14.17809691              -11.56822125               44.95981993                1.85551579
              18.32615027                8.22974535               60.24731400                0.05299376                3.91397305                7.61149579              -28.22010664               -8.81367134               45.44696592               14.40805029
              19.38314522                7.76156269               60.27271371                0.13160121                5.44497765                7.30804066              -22.65060001               -3.23356720               23.45229199               13.85749143
              20.43504982                7.31616753               59.95333694                0.56828059                5.19046046                7.56455508              -23.48894658               -4.50472309               11.18003743               10.15652903
              10.41174602               13.17953232               60.98675348                0.91390920                0.28627142               -0.01600635               -0.08193030                0.22916668                0.43101818                0.88194172
              11.41460874               12.80060646               60.59713802                0.74701845                0.63346141                0.49086031               -1.79272467                0.14411905                0.20638777               -0.78180673
              12.42441525               12.41811450               60.20320786                0.52323256                7.25892093                1.17169131               -4.03866988               -5.00153533               13.73728146               -1.59532554
              13.55978716               11.93038757               60.08627266                0.36714305               12.52687161               -0.35462638              -13.33218707               -4.06821672               31.15982394               -0.46505571
              14.67495269               11.44134709               60.04761833                0.36061900                9.36963827                0.40304252               -9.28364709               -2.12845197               37.30693320               -0.80693418
              15.74717992               10.92955783               60.03953204                0.36555908                5.67119228                1.30284701               -9.03054730               -2.76835870               39.13987295               -0.13025393
              16.78837653               10.40107188               60.04737132                0.38179710                2.43468599                3.23373772              -10.93504847               -3.48472649               41.81814783                0.36394687
              17.79587364                9.86582527               60.10462784                0.41035538                0.40885807                6.39419787              -15.47537425               -4.63124568               53.62749413                1.60149197
              18.79655369                9.32643120               60.37392183                0.56902622                1.99572285                9.66858426              -30.24386443               -6.10538390               50.51368115               13.67209863
              19.83578810                8.80291075               60.35519576                0.60890015                3.63556743                4.13480603              -16.30857746               -3.03940969               21.21083101                6.08888699
              20.86926504                8.36035724               60.01752680                0.78356888                3.34769411                4.41897131              -18.04595030               -0.83382892                9.28197350                2.90185463
               6.77747476                3.33084204               63.09165695                1.00000000               -0.59240712               -0.74869287                2.59666179               -0.24359134               -0.56538929                0.65245281
               7.77155069                2.91151080               62.75354310                1.00000000               -0.41343153               -0.35259486                1.32169800               -0.18922518               -0.70547994                0.09921193
               8.76920613                2.49149171               62.41210386                1.00000000               -0.05834348                0.03057968                0.05859684               -0.18820021               -0.67437387               -0.10811024
               9.77038382                2.07001537               62.07436757                0.60451316                0.19694099                0.45770921               -1.23373788               -0.31774300               -0.08145115               -0.57813750
              10.77314495                1.64484423               61.74483475                0.52209589                0.50551464                0.96101608               -2.70753483               -0.33562997                0.61959666               -0.14518508
              11.78049411                1.21683634               61.42113530                0.38095235                0.88861388                1.39313528               -4.17695563               -0.42121131                1.01660113               -0.50010650
              12.79091722                0.78381204               61.10028356                0.01205801              -16.28409033                1.82700394               -5.47103570              -26.30101595               12.11537598               -0.87097323
              13.45481230               -0.17015880               61.00069491                0.00010000              -22.02078390                7.96450973               -2.46198045              -25.29580190               16.89058707                2.48579653
              14.35050155               -1.10549316               60.77253270                0.00010000                2.27941296                3.80879310               -5.48538229              -20.83991369                3.30872978               15.52217685
              15.50040056               -2.02256289               60.34644018                0.74001773                8.92211098                3.19375867               -9.02260768              -21.08548079               -3.27712339                1.08905172
              16.52894377               -2.53809278               59.97917461                1.00000000                2.85432039                3.86109306              -11.10809034                0.33738785               -1.57627160               -0.18790407
               7.19437008                4.32335511               62.98006035                1.00000000               -0.50364873               -0.70233589                2.31816618               -0.04400068               -0.03022716                0.90573744
               8.18933360                3.90798485               62.64181041                1.00000000               -0.31491234               -0.31479362                1.04135725                0.00436994               -0.00233386                0.15543864
               9.18807184                3.49179751               62.30367424                1.00000000                0.05982658                0.06765935               -0.21963463                0.01516813                0.05948405               -0.26364547
              10.19053013                3.07459246               61.96651178                0.48973919                0.41531612                0.48951763               -1.50956155               -0.07332359                0.95072492               -0.68699555
              11.19637816                2.65445439               61.64639215                0.47945616                0.81339815                0.94604617               -3.04240843               -0.09339349                1.69130247               -0.24268730
              12.20679809                2.23076770               61.32433015                0.35250979                1.25132391                1.39410063               -4.53932349               -0.21512318                1.71758745               -0.63635926
              13.22140464                1.80208208               61.00556909                0.00010000               -3.01456039                1.69441149               -5.87817126              -23.26167083               15.89649672               -0.95134462
              14.14650688                0.90948629               60.96855290                0.00010000               -7.65500926                3.26971654               -5.43278692              -33.73551150               26.75456597                5.92733299
              15.06830445               -0.06740523               60.85548184                0.00010000               -7.03306611                5.01008730               -6.81120494              -32.16597848                2.63192994               16.34158700
              16.00584556               -0.99062530               60.27923208                0.09957133               -1.02284589                4.19965256              -13.39118961              -19.27628697               -8.97799034               51.18926629
              17.04784753               -1.49948185               59.91174451                1.00000000                4.20019734                4.18903197              -15.47064174                0.18702012               -0.63093799               48.19001338
               7.60733526                5.31679532               62.87284973                1.00000000               -0.41395793               -0.60144050                2.03108755               -0.05175400                0.16806227                1.08287787
               8.60319569                4.90521492               62.53091960                1.00000000               -0.22166949               -0.23686817                0.75181303               -0.00768117                0.34759093                0.07809523
               9.60290187                4.49284490               62.19223563                0.65583971                0.15323901                0.15717317               -0.51286150                0.00665381                0.68554030               -0.59873551
              10.60626047                4.07980572               61.85698921                0.00010000                0.60999838                0.57543192               -1.72499015               -0.12049998                2.10953403               -0.87270079
              11.61510184                3.66376515               61.54704486                0.00010000                1.11517465               -1.00589242               -3.35648187               -1.07432234                2.80956052                3.21412104
              12.62856396                3.24471836               61.22610740                0.00010000                1.59316837               -2.51171936               -4.81159024               -1.36872278                2.49843817                7.07413648
              13.64696521                2.81770027               60.91082696                0.00010000                1.05127116               -8.35947469               -6.10450169              -24.27187623               23.53122491               14.46787944
              14.64958938                1.89523553               61.01083872                0.00010000               -1.98358178               -1.26333597               -5.95764018              -42.12229813               39.66416452                9.18592852
              15.60729357                0.99470858               60.97659075                0.00010000               -5.13189717                4.95733038               -6.78010885              -40.29409117               49.90406842               15.48372515
              16.54695144                0.06143016               61.24430533                0.43963721               -2.84481562                3.50092801               -1.67143458              -20.33112480               32.96571322               52.99125007
              17.55039726               -0.45431214               60.84763955                0.95727705                0.34458236                3.13341782               -1.98755027               -0.01025901               -0.35557737               50.32124963
               8.01649579                6.31132630               62.76408539                1.00000000               -0.33654001               -0.48700348                1.74153054               -0.05340202                0.28905284                0.91511810
               9.01313039                5.90324749               62.41740697                0.59050354               -0.14408401               -0.16278321                0.45961380                0.01765507                0.62664869               -0.35986813
              10.01361411                5.49494097               62.07727564                0.00010000                0.20347413                0.24721728               -0.83764015                0.05271676                1.38967697               -1.19498620
              11.01719988                5.08610110               61.74594371                0.00010000               -0.18175175               -0.70957886               -1.97976809               -2.41552580                6.99828873                2.44442455
              12.00997908                4.63433654               61.51884707                0.00010000                0.41443217               -2.93051092               -2.86714971               -4.30807143               12.09252443                6.20384134
              13.02548852                4.18053331               61.28508729                0.00010000                3.77354311               -6.97457065               -4.02975075               -7.84972621               15.90008668               12.43270000
              14.08544994                3.63489258               61.12711808                0.00010000                5.07820423              -14.44752571               -4.84269608              -20.69408586               24.46447723               19.45851584
              15.12705261                2.88421958               61.04611273                0.00010000                0.53890271               -2.60586666               -5.70437053              -33.41381308               34.19761735                7.33598628
              16.09622800                2.03174137               61.06579865                0.00010000               -3.94044089                3.41245035               -5.85722644              -40.12267564               44.17708009                4.85070228
              17.04824379                1.07939326               61.15997163                0.23106382               -0.85505179                3.35913221               -9.58981312              -21.25991757               25.81249209               -7.76518463
              18.07912696                0.56318651               60.76169001                0.87891829                3.08831725                1.67185440               -9.88883166                1.12493332                0.42126164               -8.34989617
               8.42242485                7.30705525               62.65271577                0.92845267               -0.24907382               -0.36334282                1.46257415               -0.03056441                0.09383394                0.78825327
               9.41993411                6.90195926               62.29763101                0.34742823               -0.06611290               -0.11356116                0.15114335                0.10343186                0.67903795               -0.68094849
              10.42110259                6.49778924               61.95409113                0.00010000               -0.06898658                0.18338485               -1.13234817               -1.12156641                5.87072664               -1.96999691
              11.41855438                6.06561415               61.70295806                0.00010000                0.67028057               -1.94280615               -1.26599258               -3.57936776               12.30388534                3.42808984
              12.43450820                5.60515493               61.48620953                0.00010000                2.62295052               -3.29941837               -2.96106579               -5.31087805               16.10884327                4.98019939
              13.47101339                5.10522694               61.30479095                0.00010000                4.74445111               -6.75697444               -4.02191437               -9.64147308               20.09717602                7.55506894
              14.52939723                4.52874975               61.15984329                0.00010000                5.67254677               -8.75353025               -5.03786118              -18.87051352               24.70822550                7.12367017
              15.58446433                3.84311820               61.05960673                0.00010000                4.01345762               -4.17071372               -5.92456894              -27.76967075               28.92714167                3.38080451
              16.60966638                3.06295759               60.98941134                0.00010000                0.29218132                1.88525420               -6.69863117              -35.52741929               30.44670367               -5.43850487
              17.59030795                2.12861281               60.91807908                0.12535367               -0.21784751                9.47082845               -7.30209294              -20.44408173               16.18666803              -18.99732359
              18.60530943                1.57912495               60.53714878                0.76801593                1.50014756                5.71795943               -9.28680461               -3.73727978                1.74973621              -13.51517089
               8.82607649                8.30405944               62.54058069                0.89054086               -0.16114489               -0.25307983                1.20039336               -0.02887476                0.03714489                0.84511938
               9.82446504                7.90097626               62.17784412                0.28374834                0.07257069               -0.07149495               -0.12709956                0.09340348                0.50318996               -0.67473557
              10.82752790                7.49860867               61.82435869                0.00010000                0.68908984               -0.02374835               -1.54758097               -2.13494660                8.59435250               -2.54583013
              11.83824683                7.04724498               61.62295536                0.00010000                1.83104103               -1.65598847               -2.33612662               -4.74192845               17.16882403                0.62499935
              12.86414872                6.56834817               61.43874488                0.00010000                3.54087029               -3.31842467               -3.33270058               -7.38321211               19.46792285                2.71657110
              13.90906424                6.04539382               61.27900111                0.00010000                5.29998498               -5.13207180               -4.53774409              -12.13751697               22.24474933                3.67199181
              14.97014842                5.45982198               61.14270430                0.00010000                6.41935567               -5.76982467               -5.73285790              -18.86491763               24.58522926                3.08733764
              16.03745135                4.80080530               61.02092511                0.00010000                6.50182896               -3.70624140               -7.00154328              -25.53783673               25.33511324               -0.06612883
              17.10018500                4.06944646               60.89148200                0.00010000                4.28717202                0.91705886               -8.24130990              -30.71518633               22.77419177               -6.12428969
              18.12319479                3.26880983               60.70969591                0.01779687                0.15860412               13.71083553               -8.49754870              -21.04311358               12.46182106              -19.21980750
              19.10335708                2.67754570               60.35934298                0.65192862               -1.98377120               13.77871511              -11.33573460              -10.96889803                5.50677287              -15.53236896
               9.22801372                9.30199365               62.42942986                0.87980813               -0.07607614               -0.17183992                0.93691949               -0.03912191                0.01294339                0.95994786
              10.22725296                8.90052936               62.05867502                0.27043653                0.20606137               -0.00147478               -0.41095947               -0.04095191                0.24275125               -0.67763778
              11.23213495                8.49731428               61.69253209                0.00010000                1.33616767               -0.12583241               -1.98134640               -3.06568985               10.28041719               -2.95195930
              12.25397631                8.03249438               61.52247734                0.00010000                2.82800874               -1.25298404               -2.93860801               -6.49182742               20.88340647               -1.26527798
              13.28869512                7.53878644               61.36684289                0.00010000                4.14064693               -2.41333584               -4.11461361               -9.22569152               22.63760514                0.39277984
              14.33678925                7.00258551               61.22837613                0.00010000                5.39961375               -3.35764344               -5.35892594              -13.82126494               24.42909010                1.45060269
              15.39668739                6.41335326               61.10242127                0.00010000                6.36469315               -3.56322323               -6.79512876              -19.58861347               25.42173972                1.33087303
              16.46408311                5.76899337               60.97468140                0.00010000                6.53353665               -2.19725833               -8.52842447              -25.01886290               24.45552615               -0.35099544
              17.52735813                5.08129877               60.81736640                0.00010000                4.86316666                1.88487816              -10.54313974              -26.98314173               20.17624793               -4.45036549
              18.56134644                4.40282952               60.58857246                0.00010000                2.05508016               11.13043232              -13.16242747              -18.47125843               10.99680570              -10.32379089
              19.56845973                3.85469925               60.24953079                0.60216158                0.71132862               14.63296649              -15.52472919               -8.37094262                4.88548725              -11.59045075
               9.62822263               10.30062264               62.31875736                0.87554962                0.01027425               -0.10291950                0.66718161               -0.04730364                0.00245012                1.03416354
              10.62832538                9.90094677               61.93941605                0.28292300                0.30132272                0.09219951               -0.70469273               -0.22002634               -0.09822848               -0.75460590
              11.63424909                9.49609202               61.55816179                0.00010000                1.93063745               -0.00618535               -2.45802411               -3.92304350               11.27733485               -3.55801938
              12.66693812                9.02218530               61.40770990                0.00010000                3.76473359               -1.11597096               -4.01982171               -7.63252348               23.72097108               -3.29975225
              13.70954376                8.52008146               61.27583619                0.00010000                4.55669987               -1.14864499               -5.18707895               -9.94502398               25.75880595               -1.45781462
              14.75807212                7.97824095               61.16251158                0.00010000                5.12122663               -1.54226662               -6.46136483              -14.12291579               27.31112252                0.28589770
              15.81196829                7.38855751               61.05723149                0.00010000                5.55282330               -1.33338354               -8.12086904              -19.34600695               27.78927412                0.93572190
              16.86912859                6.75686013               60.94315907                0.00010000                5.73588620                0.02429577              -10.55910415              -23.59095415               26.13036744                0.84885790
              17.92668602                6.10714402               60.78977219                0.00010000                5.56202767                2.98409903              -14.19400910              -23.43916561               20.82964862                0.22033139
              18.98036914                5.49141847               60.55779685                0.00010000                5.27563741                7.84067885              -18.57599600              -15.01561711               11.24526200               -2.38061962
              20.03219876                4.97020502               60.21048638                0.58666649                5.18296225               10.51536489              -21.68010164               -6.04999923                5.76339012               -5.73449988
              10.02641940               11.29993526               62.20831544                0.87863528                0.09636520               -0.04098599                0.39230135               -0.05792695               -0.02007508                1.09832066
              11.02738305               10.90237335               61.81944439                0.34254578                0.30080714                0.21146501               -1.01461746               -0.35523171               -0.71991587               -0.89510732
              12.03243554               10.49719057               61.41678311                0.00010000                2.49766765                0.36841457               -2.88440972               -4.95435707               11.16810259               -3.94322963
              13.07733641               10.01017496               61.26983250                0.00010000                5.06517209               -0.10071722               -5.46561729               -7.42256278               26.09459099               -7.14745179
              14.13373899                9.51581354               61.16586647                0.00010000                5.42592351                0.13766647               -7.29479145               -8.15090266               29.44434120               -2.08545721
              15.18585488                8.97174018               61.08965256                0.00010000                4.87045442                0.04858318               -7.57782586              -12.36579649               31.20466891                0.01454483
              16.23114807                8.38668559               61.01543777                0.00010000                4.39113216                0.89166673               -9.58920330              -16.72432813               31.81916121                0.94074265
              17.27367752                7.76947928               60.93598188                0.00010000                4.64342017                2.76099482              -13.43664623              -20.54828113               31.31105373                2.62141031
              18.32401648                7.14098075               60.83469982                0.00010000                6.21477895                5.22777000              -19.09924250              -19.84594897               25.59924351                5.63789603
              19.39797310                6.55964309               60.62626521                0.00111246                8.29350822                8.32811280              -27.46466866              -12.48299895               14.29336208               11.48721069
              20.48988664                6.06500655               60.27672806                0.58100258                9.19135433               10.90145393              -32.97962999               -4.73904834                7.94830991                7.50613726
              10.42218792               12.29980292               62.09809050                0.82855568                0.17775162                0.00239787                0.13190260               -0.04774834               -0.05077091                1.05918867
              11.42396543               11.90517607               61.69844776                0.45718307                0.25862107                0.35468523               -1.35821781               -0.31308819               -1.17528747               -0.91260097
              12.42736034               11.50346031               61.27679366                0.10019329                3.79492330                0.72979771               -2.93895152               -4.56775853                8.28545635               -2.59062671
              13.49986390               11.02017095               61.07153523                0.00010000                7.88000741                2.28265670              -17.02186281               -5.24212696               25.25456635               -6.31098521
              14.58496049               10.52283478               61.05111223                0.00010000                7.00101218                0.52887486               -8.10110843               -4.97782265               35.41196674               -1.14264901
              15.63988414                9.97921262               61.01782713                0.00010000                4.73910672                1.11464953               -8.73389489               -7.70725783               35.50474443                0.06616484
              16.67974262                9.40639085               60.97541075                0.00010000                3.19918312                2.73968005              -10.96430426              -10.22328000               37.04015392                0.66415524
              17.70386781                8.81208003               60.94773780                0.00010000                2.99303016                5.37406603              -16.22273807              -13.01583611               39.71564190                2.49852132
              18.73960323                8.21169942               60.92455602                0.00010000                5.14077774                9.91252440              -29.97264620              -12.11358402               42.52290316                6.48282211
              19.80668336                7.65798073               60.93034959                0.07597219                9.35438321               11.72046981              -41.56994017               -7.18561359               29.26115728               15.46693324
              20.92669089                7.18823410               60.60594991                0.58009180               12.00075283               12.67720589              -45.74071439               -2.88361356               18.33763666               10.46886973
              10.81471815               13.29998322               61.98588366                0.91057900                0.27457514                0.01802968               -0.13824540                0.20140665                0.47280556                1.00566683
              11.81746390               12.90946706               61.57960250                0.81946643                0.56836682                0.42909898               -1.62647311               -0.05998817                0.14196977               -0.89696402
              12.82608549               12.51178652               61.16680668                0.59947613                6.78277466                0.83262123               -3.04015071               -2.80943358                7.71429074               -1.46165037
              13.95311939               12.05582809               60.91443945                0.36696681               12.45276918                3.56571385              -18.02025526               -3.94422504               24.82546615               -3.50763979
              15.07514087               11.52639104               60.95366463                0.36057445                9.75171317                0.35562516               -9.48701016               -4.07170810               40.39209901               -0.93311351
              16.14815366               10.99403317               60.94742550                0.36539412                5.93370947                1.48205504               -9.73544622               -3.41864105               39.63068914               -0.08336305
              17.19381506               10.44147919               60.93197230                0.38095717                2.99492823                3.50883417              -12.20610379               -4.44638449               42.19017895                0.32408454
              18.20805222                9.87696060               60.94345822                0.40812163                2.10145199                6.48805725              -17.89250738               -4.69395612               46.70247476                1.54971586
              19.23584410                9.33923123               60.97728740                0.51751810                3.48369607               12.75318130              -35.67254207               -4.52131835               53.32759184                4.69577915
              20.27772614                8.79405249               61.09309248                0.57081173                6.79317609               13.60717608              -41.48088302               -3.92975021               36.82203041               14.65128269
              21.37170762                8.31855066               60.74865019                0.79165361                9.39814768               13.03165613              -44.32828463               -3.04850937               21.44887400                8.31755249
               7.11642463                3.45030554               64.11705768                1.00000000               -0.56494437               -0.71233831                2.47636667               -0.23342143               -0.54512730                0.64169235
               8.11077519                3.02561860               63.76648673                1.00000000               -0.39387748               -0.33792558                1.26526243               -0.18225496               -0.67686106                0.09498696
               9.10854708                2.60026413               63.41270924                1.00000000               -0.05493676                0.02431143                0.06640445               -0.18000268               -0.65507003               -0.10180127
              10.10967646                2.17355410               63.06235380                0.60046257                0.19170737                0.42915612               -1.15955359               -0.30115221               -0.16910047               -0.56119789
              11.11238123                1.74335686               62.71843801                0.51009619                0.47870864                0.90394381               -2.55309878               -0.32836818                0.43489811               -0.17351619
              12.11925063                1.31023139               62.38035562                0.35785179                0.79299001                1.32014013               -3.95246052               -0.46513870                0.90589315               -0.53925740
              13.12824103                0.87119821               62.04692287                0.00010000              -15.30230365                1.75511817               -5.17545787              -25.96469324               13.77174092               -0.98568199
              13.81320456               -0.08152767               61.96925387                0.00010000              -20.09978093                7.10715788               -3.75550450              -24.66892838               20.43955750                4.41682275
              14.72624541               -1.01148111               61.72221355                0.00010000                3.14934613                3.10817959               -4.81199614              -19.47749714                3.51837446               17.68270558
              15.87619148               -1.92630729               61.27589949                0.85137994                8.36838888                1.87492126               -5.60094536              -20.06941566               -3.21980326                0.69837085
              16.89361319               -2.45057728               60.89208270                1.00000000                1.74217132                2.28793812               -6.92364970                0.12606489               -1.03948808                0.03624923
               7.53877736                4.44318216               64.00272893                1.00000000               -0.48040166               -0.66507238                2.20906979               -0.04562984               -0.01824176                0.89525611
               8.53397335                4.02223934               63.65200252                1.00000000               -0.29990272               -0.30146748                0.99607021               -0.00053600                0.01948109                0.14756225
               9.53277931                3.60050724               63.30154760                1.00000000                0.05726115                0.05947699               -0.20149341                0.01170474                0.07385167               -0.26767150
              10.53511857                3.17784566               62.95178844                0.50030571                0.39897964                0.46051930               -1.42544556               -0.07033757                0.82905458               -0.64622896
              11.54075890                2.75239630               62.61671989                0.48491486                0.77799971                0.88807630               -2.87458450               -0.09036377                1.45539233               -0.26741743
              12.55067856                2.32343280               62.28001445                0.34867231                1.18573664                1.31489360               -4.29816490               -0.24800836                1.55473437               -0.64185683
              13.56447363                1.88874940               61.94807946                0.00010000               -2.14118144                1.59672645               -5.59228866              -23.30085075               16.58243276               -0.96322978
              14.50785493                0.98954391               61.91376107                0.00010000               -5.53066907                2.31975295               -5.44044674              -33.12173519               28.96413230                8.21332330
              15.45386025                0.01960068               61.79261974                0.00010000               -5.64047652                4.02321642               -5.78101285              -31.30879530                2.35629679               19.80753322
              16.39504540               -0.90755808               61.17825401                0.09751160               -1.73582142                5.70419257               -7.86561985              -18.94597662              -10.61219166               56.98027719
              17.41914382               -1.42769790               60.79429440                1.00000000                2.40984199                5.88597765               -9.18128608                0.70765779               -0.55496063               55.51177371
               7.95739767                5.43700409               63.89270349                1.00000000               -0.39582850               -0.56065929                1.93310922               -0.05332888                0.17502599                1.07196219
               8.95343938                5.01958925               63.53826673                1.00000000               -0.21114025               -0.22774956                0.71740869               -0.01200229                0.36313708                0.06582641
               9.95317486                4.60145367               63.18721318                0.60897850                0.14706342                0.14653551               -0.48596237                0.00536803                0.73360202               -0.63133909
              10.95638065                4.18276448               62.84014850                0.00010000                0.59059773                0.55545969               -1.63440845               -0.13268010                1.97912596               -0.82800040
              11.96498682                3.76111838               62.51435604                0.00010000                1.07783548               -1.15822592               -3.16651799               -0.95038701                2.54462684                3.55346277
              12.97793736                3.33652927               62.17923039                0.00010000                1.55630449               -2.74048530               -4.54415881               -1.08293634                2.37393051                7.57944241
              13.99611291                2.90313274               61.85120950                0.00010000                2.09906009               -8.88017126               -5.79316792              -24.05018377               24.15000015               15.24434226
              15.01991856                1.96486739               61.95229907                0.00010000                0.05292932               -2.13131791               -5.73082345              -41.84923268               40.58687043               11.95531654
              15.99717149                1.06898322               61.91344679                0.00010000               -3.76740188                4.03207494               -5.85464991              -37.17056873               53.11297776               19.94558960
              16.94457053                0.18777656               62.22805307                0.45979210               -2.45627583                5.41294893               -1.68749005              -16.99258648               35.68937786               59.86902491
              17.94804598               -0.33285772               61.83221485                0.95778312                0.34754520                5.30547651               -1.48305710                0.84891992                0.19784358               59.06234355
               8.37254047                6.43196897               63.78110751                1.00000000               -0.32567512               -0.44279549                1.65582838               -0.04875091                0.29732533                0.91338050
               9.36928372                6.01768435               63.42190316                0.56800673               -0.14145203               -0.16357360                0.44032123                0.03078335                0.62454593               -0.37898324
              10.36971143                5.60343795               63.06900701                0.00010000                0.17582644                0.22038198               -0.80780993                0.08939836                1.45772877               -1.23074775
              11.37280025                5.18895485               62.72659625                0.00010000               -0.08625288               -0.86602613               -1.87799161               -2.33455829                7.22921197                2.75929851
              12.36798638                4.72923178               62.49029439                0.00010000                0.71026126               -3.13324644               -2.87094613               -4.18486689               12.31394089                6.85629473
              13.38700548                4.26862309               62.24512762                0.00010000                4.35727314               -7.36834896               -4.00087726               -7.72695704               16.13757042               13.38255464
              14.45513184                3.71114597               62.07895545                0.00010000                5.90071649              -15.12045352               -4.83207829              -20.65809737               24.62348818               21.13840487
              15.50501981                2.94691755               61.98997855                0.00010000                1.62039333               -3.04071503               -5.52668315              -33.34657178               34.64968595               10.02080062
              16.48753971                2.10024218               62.00940945                0.00010000               -2.39925960                2.42452515               -5.34266527              -37.62913064               43.54061332                9.58173069
              17.45703461                1.20070090               62.07532332                0.32277646               -0.50744593                1.61672146               -6.78378545              -19.01346841               23.95505034               -4.25461398
              18.47739079                0.67841163               61.67832912                0.96985038                2.03561721                1.19045934               -6.49438830                0.28261411               -0.24476508               -4.05669587
               8.78499189                7.42814818               63.66700831                0.91930293               -0.24058246               -0.31593107                1.38838865               -0.01830301                0.08629246                0.80420748
               9.78258607                7.01631777               63.29914686                0.33908332               -0.06497813               -0.12915768                0.15518415                0.13432564                0.67943036               -0.69127600
              10.78369233                6.60586131               62.94296439                0.00010000                0.06547975                0.08387833               -1.08781766               -1.15085432                6.26719241               -2.06915554
              11.78389566                6.16544396               62.68691073                0.00010000                0.89644561               -2.07959441               -1.78450768               -3.54243352               12.75315559                3.93160878
              12.80162124                5.69845345               62.45660124                0.00010000                2.87941829               -3.43994961               -3.01935535               -5.32812618               16.12087262                5.41984023
              13.84148403                5.18916229               62.26440097                0.00010000                5.15176306               -7.05545975               -4.10589665               -9.93387526               20.19107042                8.34028151
              14.90465650                4.60072367               62.10963483                0.00010000                6.12034435               -9.05820361               -5.04641117              -19.46061243               24.79453356                8.40452857
              15.96389091                3.90405309               62.00181452                0.00010000                4.30745142               -4.46102458               -5.64902139              -28.33840915               29.10657962                5.63045690
              16.99080553                3.11747372               61.92690251                0.00010000                1.11203955                0.89173438               -5.75175443              -34.27675159               31.02315015               -2.01902507
              17.98613171                2.22011099               61.85222212                0.19116258                0.37356281                3.47710084               -5.10118420              -18.38927100               16.36484746               -9.41336706
              18.99827679                1.69095146               61.46417989                0.83459409                1.21450813                1.78503352               -5.41411420               -0.92339821                0.24934580               -6.80864814
               9.19583523                8.42565035               63.55229788                0.88542271               -0.15781184               -0.20522558                1.13367056               -0.02042098                0.03333256                0.87289445
              10.19425711                8.01510120               63.17669022                0.28862357                0.08664676               -0.09664520               -0.09876309                0.08921734                0.43395021               -0.66851581
              11.19756816                7.60511552               62.80903221                0.00010000                0.75511628               -0.18137657               -1.48787090               -2.09095927                8.75037403               -2.71435484
              12.20935943                7.14736296               62.59944490                0.00010000                2.00686807               -1.68239180               -2.37445195               -4.80968330               17.49773514                0.68534817
              13.23770552                6.66043278               62.40485195                0.00010000                3.83491597               -3.39314444               -3.49025437               -7.62389312               19.59009836                3.14541613
              14.28605775                6.12751389               62.23321291                0.00010000                5.66616339               -5.24435798               -4.67356080              -12.57419998               22.22463375                4.43171395
              15.35102879                5.52998190               62.08551881                0.00010000                6.77219113               -5.95971110               -5.74532179              -19.46484603               24.49222983                4.32799942
              16.42150158                4.85769706               61.95281531                0.00010000                6.74589897               -4.13939970               -6.59520592              -25.87898292               25.17006650                1.79840399
              17.48594677                4.11807687               61.81417916                0.00010000                4.71349373               -0.44583152               -6.99037370              -32.43805031               22.83779321               -3.42987877
              18.51577145                3.27024291               61.63805255                0.06591961                1.56475503                9.06203277               -5.35737786              -21.41778120               11.35095649              -13.45638411
              19.51724187                2.71411230               61.26469065                0.69939080                0.14704206                7.36973638               -6.84473286               -7.35056957                2.77063723               -8.83509003
               9.60568178                9.42404367               63.43854433                0.87787087               -0.07765353               -0.12725613                0.87251932               -0.03117262                0.01158818                0.98829383
              10.60490524                9.01438487               63.05479934                0.29019957                0.19647997               -0.03222225               -0.35509060               -0.07516616                0.10930656               -0.66971237
              11.60961138                8.60223378               62.67305483                0.00010000                1.37397444               -0.24310029               -1.82698379               -3.04141604               10.27475485               -3.03889986
              12.63238473                8.13179612               62.49353926                0.00010000                2.96905349               -1.40201236               -2.95869798               -6.48269226               20.98954827               -1.33268929
              13.66899245                7.63059057               62.32498482                0.00010000                4.40330921               -2.29529239               -4.27494870               -9.42633054               22.59663467                0.74393119
              14.72045092                7.08427513               62.17397832                0.00010000                5.80919869               -3.34274119               -5.58624393              -14.32839435               24.35128945                2.23053391
              15.78517642                6.48152945               62.03422557                0.00010000                6.88826843               -3.77302961               -6.86873984              -20.22861707               25.23406924                2.55723071
              16.85821628                5.82126509               61.89108308                0.00010000                7.21611226               -2.77974272               -8.15403185              -25.92772077               24.13245241                1.24598145
              17.92949867                5.10855709               61.71874144                0.00010000                5.17621819                0.18767969               -9.11247984              -28.37823492               19.41327852               -2.47240947
              18.96174065                4.40135164               61.46704065                0.00795767                1.70139752                9.91502911              -10.09126510              -19.68980052               10.69594357              -11.36970349
              19.96352662                3.83834619               61.10413267                0.63556515                0.17859685               10.30422881              -12.25550496               -9.84994932                5.04059414              -11.54314341
              10.01452937               10.42310523               63.32518594                0.87498089                0.00343054               -0.05819702                0.60152395               -0.03746240                0.00445539                1.06065066
              11.01456368               10.01445675               62.93274514                0.32463235                0.23996080                0.04789062               -0.61278787               -0.23502988               -0.28444646               -0.74530383
              12.01932859                9.60025351               62.53469533                0.00010000                1.83925608               -0.07233862               -2.06746246               -3.94941328               10.70775113               -3.39095444
              13.05134880                9.11932272               62.36479157                0.00010000                3.86856597               -0.46456410               -3.95689348               -7.23375391               23.42094262               -3.51896392
              14.09669991                8.61452694               62.22262311                0.00010000                4.86010912               -0.57570591               -5.68934410              -10.16333950               25.75774558               -1.57992641
              15.14855098                8.06065907               62.09640867                0.00010000                5.63832889               -1.47426485               -6.75575978              -14.97076918               27.25844911                1.11331588
              16.20946649                7.45452131               61.97498479                0.00010000                6.36842698               -1.59289181               -8.35879328              -20.22082863               27.53256504                2.06078723
              17.27591952                6.80210220               61.83763257                0.00010000                6.44145174               -0.61393902              -10.39618834              -24.78495884               25.47136652                1.92395854
              18.33829552                6.12183046               61.65342312                0.00010000                5.81334086                2.18091395              -12.74838152              -25.44246567               19.79431573               -0.34843674
              19.39218634                5.46854350               61.38413078                0.00010000                5.39791345                5.62948790              -16.00505112              -16.63268080               10.17599766               -5.09539337
              20.44625379                4.92019688               61.00718663                0.61579265                5.40674508                6.26895837              -18.71366054               -6.68050867                4.49040167               -8.77892403
              10.42222948               11.42287973               63.21197838                0.87883408                0.08268766                0.01013587                0.32116417               -0.04024591               -0.01927540                1.12818524
              11.42305636               11.01534268               62.80986485                0.42531608                0.17638336                0.14154859               -0.87129026               -0.32033397               -0.83292103               -0.89170381
              12.42575715               10.60078700               62.39183205                0.04437489                2.51899369                0.21539852               -1.97517198               -4.01118069               10.30701427               -3.31814262
              13.47343623               10.12250484               62.21569527                0.00010000                4.93160772                2.18922313               -9.22406845               -9.51004893               24.40988222              -13.26695967
              14.52438930                9.61907645               62.08806212                0.00010000                5.38024665                0.60692962               -7.23856575              -10.33225700               29.43059296               -1.56689608
              15.58104116                9.05478983               62.01220454                0.00010000                5.74637081               -0.02896778               -8.09353075              -13.87167709               31.61128858                0.71534737
              16.63931672                8.44967161               61.91656022                0.00010000                5.70833928                0.54808855              -10.14579091              -17.65100433               31.17361370                1.90423096
              17.69520795                7.80898631               61.80055513                0.00010000                5.74456696                2.11375828              -13.44471224              -21.16912208               29.39100430                2.60371274
              18.75420806                7.15217537               61.63411656                0.00010000                6.77563332                4.74918762              -18.92060876              -21.96719457               22.84624334                2.70440235
              19.83072061                6.51394140               61.36499769                0.01172990                8.62008093                6.77652907              -25.26684642              -14.68309367               11.62030151                1.26916688
              20.92660967                5.96372536               60.97233772                0.61276456                9.58890601                6.67129596              -29.31944630               -4.80419743                5.82638267               -4.15598190
              10.82879855               12.42330794               63.09908619                0.82614121                0.14511767                0.05898093                0.03420938               -0.02527375               -0.09444057                1.07839201
              11.83024972               12.01728772               62.68568708                0.60343122                0.15721348                0.25075092               -1.11839930               -0.26388493               -0.98449818               -0.87260111
              12.83194282               11.60456148               62.25506404                0.24858937                0.63043269                0.40342334               -1.59391679               -1.80367871               -0.19004362               -2.00890862
              13.84285838               11.16310718               61.85927091                0.00010000                6.29134810                2.59607477              -12.75793607               -9.09468275               23.44925501              -11.27904144
              14.95776978               10.62666553               61.97381463                0.00010000                9.88319481               -0.07482046               -8.76541560               -8.88040744               41.35039434               -0.66227091
              16.04052228               10.06007972               61.92574620                0.00010000                7.22400700                0.69519940               -9.50542770               -9.03687908               35.18639649                0.51537568
              17.10224992                9.46548308               61.86109328                0.00010000                5.47555259                2.23794297              -11.98854100              -10.94358383               35.82119859                1.35881709
              18.15003333                8.84437737               61.77531824                0.00010000                4.58733102                4.81962119              -17.05870738              -12.96343843               35.37401020                2.01591309
              19.19399654                8.21681422               61.64786108                0.00010000                6.84705750                8.13543300              -26.15829626              -14.05200369               31.17446428                2.90151036
              20.28697448                7.60407408               61.44131491                0.06095833               12.83026940               12.82546120              -46.52221525               -9.65230575               19.09289175                4.12193690
              21.45060193                7.05362280               61.03852265                0.61481537               16.36274514               13.87911890              -54.16056617               -2.01925599                9.93133704               -2.08254882
              11.23376445               13.42405935               62.98398857                0.90832288                0.27606703                0.07514050               -0.28248432                0.12642509                0.48637752                1.01462998
              12.23652512               13.02035770               62.56460855                0.91508156                0.50498358                0.30699790               -1.28785660               -0.13265475                0.34255496               -0.83450784
              13.24386412               12.60885547               62.14240485                0.69739395                1.64567071                0.42939865               -1.95629257               -1.10443833                0.27860255               -1.10402846
              14.26943853               12.17442634               61.72586756                0.36669880               10.29722488                1.13191586              -10.74807883               -6.90575650               21.98066793               -1.74937236
              15.44980861               11.61758004               61.85787813                0.36072015               14.60237519               -0.90854909              -10.09074968               -6.08274240               44.34273089               -2.02927244
              16.56148603               11.06869382               61.84482311                0.36514751                9.31693869                0.86141034              -10.78018583               -4.06110235               39.24366176               -0.00755681
              17.63614739               10.49443047               61.80324925                0.37997601                6.15610029                2.89473968              -13.71374583               -4.77600733               40.40726622                0.41579426
              18.68460804                9.90537873               61.74677769                0.40582660                3.86619412                6.10013676              -19.68416573               -5.51985098               41.90880128                0.80440894
              19.71347127                9.31488403               61.66047099                0.47435863                5.81289384                9.80698115              -30.54228750               -4.79893241               40.04342718                0.09066387
              20.80086592                8.77045062               61.52557810                0.55313569               13.68279204               16.63765464              -56.55889135               -2.28967066               27.90280216                3.84619020
              21.98712711                8.24130774               61.13096111                0.81053378               18.62611955               18.76849358              -63.75116630                0.73822946               18.35503050               -1.92390294
               7.46771410                3.57233338               65.14118428                1.00000000               -0.53521967               -0.67189687                2.34269984               -0.22104514               -0.52434675                0.62931787
               8.46236191                3.14237896               64.77884834                1.00000000               -0.37382203               -0.32228697                1.20552129               -0.17345808               -0.64772794                0.09048090
               9.46023766                2.71177895               64.41343195                1.00000000               -0.05444368                0.01611832                0.08144512               -0.17031240               -0.63397671               -0.09569626
              10.46127303                2.27992213               64.05117650                0.59764287                0.18017121                0.39510503               -1.06796131               -0.28184893               -0.24472664               -0.54375650
              11.46384109                1.84481016               63.69377277                0.49967828                0.44270384                0.83778573               -2.36604771               -0.31753836                0.26666633               -0.19944447
              12.47012711                1.40673354               63.34208609                0.33608470                0.68063523                1.23222469               -3.68077641               -0.51063712                0.81010716               -0.56956182
              13.47745379                0.96178522               62.99677440                0.00010000              -14.09071643                1.67456265               -4.82906165              -24.69322705               14.65762033               -1.08614962
              14.18831278                0.02916325               62.92558482                0.00010000              -18.16151852                6.15443073               -4.73483420              -23.42818610               21.90975801                4.78469551
              15.11422342               -0.89265144               62.67629277                0.00010000                3.89112819                3.01636271               -4.67061257              -18.45198529                4.46151831               18.64842685
              16.26613534               -1.81330452               62.23442127                0.98610182                8.07820794                1.01311791               -3.28369828              -19.87781461               -2.45995933                0.35470374
              17.27578758               -2.34179119               61.84070162                1.00000000                0.96522346                1.24126604               -4.06676093                0.03932992               -0.55713063                0.02279332
               7.89545807                4.56561441               65.02424175                1.00000000               -0.45535278               -0.62387001                2.08794536               -0.04607156               -0.00681366                0.88194627
               8.89090454                4.13915610               64.66173182                1.00000000               -0.28475584               -0.28740795                0.94910533               -0.00437251                0.04009622                0.13914865
               9.88976295                3.71194013               64.29964437                1.00000000                0.05171989                0.04898826               -0.17528881                0.00857890                0.08792187               -0.27158707
              10.89193894                3.28387318               63.93800287                0.51274765                0.37485221                0.42578826               -1.32298034               -0.06625115                0.71883491               -0.60651220
              11.89726000                2.85318801               63.58890046                0.49204344                0.72971319                0.82248748               -2.67531468               -0.08729963                1.23790610               -0.28500414
              12.90653320                2.41905579               63.23836686                0.34617777                1.10233347                1.22302446               -4.00954484               -0.27975845                1.38986113               -0.63499513
              13.91930667                1.97853085               62.89372331                0.00010000               -1.26419764                1.49629503               -5.24641184              -22.44527478               17.10464160               -0.95428007
              14.88124925                1.09070756               62.85974396                0.00010000               -3.41846074                1.44805669               -5.45318548              -31.51209690               29.96870920                9.05557932
              15.85093745                0.13751219               62.73986158                0.00010000               -4.46610891                3.47410495               -5.16034195              -30.71525902                2.92523921               21.57413929
              16.79192707               -0.80317334               62.12191968                0.11457336               -2.31349512                8.75229331               -4.40711076              -19.55275634              -10.77398679               59.85989307
              17.80466755               -1.32937853               61.72811879                1.00000000                1.27404765                9.23455989               -5.18590977                0.89163016               -0.29251428               59.47512352
               8.31970931                5.55985598               64.91151192                1.00000000               -0.37605732               -0.51626597                1.82307675               -0.05287182                0.18036835                1.05632305
               9.31594874                5.13663081               64.54526777                1.00000000               -0.20085805               -0.21842024                0.68311055               -0.01399982                0.37558004                0.05492001
              10.31569215                4.71275871               64.18251638                0.55553729                0.13756956                0.13173395               -0.44771573                0.00598720                0.77665987               -0.66573578
              11.31870013                4.28843790               63.82430104                0.00010000                0.56101681                0.53258282               -1.52727124               -0.14705058                1.86309567               -0.78188206
              12.32691249                3.86125990               63.48371450                0.00010000                1.02444867               -1.19853913               -2.94908340               -0.83886651                2.30339684                3.77657826
              13.33918910                3.43119403               63.13522423                0.00010000                1.49920206               -2.80209845               -4.23967553               -0.82515582                2.24406425                7.94306236
              14.35689653                2.99171112               62.79496360                0.00010000                2.99502011               -8.96477478               -5.43032650              -22.96537693               24.66834888               15.85517122
              15.39908950                2.05812439               62.89622225                0.00010000                1.84513047               -2.77937080               -5.66365401              -40.32686984               41.36099691               13.82856057
              16.39379914                1.17683066               62.85949775                0.00309395               -2.85592856                3.62040379               -5.23742898              -33.28125002               55.37082412               22.66925261
              17.34197093                0.36174135               63.21055553                0.47292778               -2.38842877                8.66526303               -1.85769838              -13.37162957               37.48186322               63.42303252
              18.34603056               -0.15709999               62.81797841                0.94637427                0.40596284                8.97330383               -1.52511098                1.29349190                0.37434714               63.72862362
               8.74085099                6.55528910               64.79720195                1.00000000               -0.31291743               -0.39534803                1.55744158               -0.04192639                0.30350553                0.90323549
               9.73772181                6.13478769               64.42621339                0.55137689               -0.13876927               -0.16420610                0.42269491                0.04518090                0.61229672               -0.38947948
              10.73807560                5.71457481               64.06111944                0.00010000                0.13874618                0.18111078               -0.75971361                0.13637886                1.51722536               -1.26784234
              11.74049674                5.29452484               63.70838388                0.00010000               -0.01745352               -0.85201142               -1.75683956               -2.20385356                7.35176216                2.83603824
              12.73772653                4.82921723               63.46142814                0.00010000                0.95410651               -3.11328637               -2.90512738               -3.94940450               12.32565295                7.32189896
              13.75957887                4.36301382               63.20506975                0.00010000                4.76711218               -7.36233789               -4.03544104               -7.36848818               16.14684726               14.09425185
              14.83306878                3.79923535               63.03047652                0.00010000                6.50067253              -15.07170801               -4.92825320              -19.84579293               24.56869561               22.51934732
              15.88959232                3.03512014               62.93557907                0.00010000                2.43133558               -3.26169096               -5.46117496              -31.95381804               34.97864820               12.32659528
              16.88169549                2.20992026               62.95894534                0.00010000               -1.55835935                2.04883630               -4.86157209              -33.95327891               43.71335631               13.00803293
              17.85842513                1.37013192               63.02429592                0.44024795               -0.67377109                0.79374454               -3.70194135              -16.07380621               23.41496313               -1.80866899
              18.86822007                0.85008755               62.63180224                1.00000000                0.97949347                0.68452220               -3.27395375                0.01307467               -0.30997871               -1.24572145
               9.15987359                7.55194902               64.68048354                0.91248854               -0.23069542               -0.26538950                1.29986505               -0.00486008                0.07971772                0.80385934
              10.15756664                7.13334668               64.30073470                0.33965544               -0.05955089               -0.14171121                0.16498434                0.15599047                0.65769238               -0.68598251
              11.15868258                6.71638093               63.93233478                0.00010000                0.12069999               -0.01718395               -1.02278207               -1.01219579                6.39267220               -2.14857297
              12.15998064                6.27139767               63.66726791                0.00010000                1.03764193               -2.01007180               -2.01963052               -3.27508440               12.80632724                4.15421369
              13.17943541                5.79899418               63.42582242                0.00010000                3.09102873               -3.31721566               -3.16758067               -5.14971259               15.98581488                5.75044520
              14.22180121                5.28394728               63.22267302                0.00010000                5.42194668               -6.92815349               -4.28345687               -9.77030138               20.02731417                8.97862149
              15.28787435                4.69027696               63.05891507                0.00010000                6.37635103               -8.87220669               -5.16278721              -19.18674337               24.74290489                9.57888985
              16.34932823                3.99289057               62.94662630                0.00010000                4.59237155               -4.38076611               -5.48261034              -27.49347807               29.44292775                7.74130648
              17.37972178                3.21780739               62.87437625                0.00010000                1.54996447               -0.04551542               -4.83816921              -31.26330917               32.37726675                1.40507321
              18.38032752                2.37761624               62.81605539                0.28794005                0.33295117                0.73658472               -2.60405841              -15.99698164               16.86112551               -4.04693716
              19.38638080                1.85659045               62.42886650                0.92867341                0.60532788                0.54017837               -2.49351955               -0.23890086               -0.01888257               -2.79744312
               9.57795847                8.54998131               64.56325410                0.88255151               -0.15487491               -0.15387760                1.04865308               -0.00969029                0.03021041                0.87153049
              10.57640972                8.13195347               64.17586886                0.30485691                0.09111172               -0.11332429               -0.06219790                0.08058901                0.33946118               -0.63965142
              11.57978070                7.71423113               63.79460127                0.00010000                0.79860430               -0.27538859               -1.34905011               -1.87112587                8.73978151               -2.74450354
              12.59238180                7.25432341               63.57546632                0.00010000                2.12009881               -1.54518757               -2.43656492               -4.47507863               17.49819330                0.79960273
              13.62218268                6.76287292               63.36893979                0.00010000                4.02541259               -3.15501421               -3.70305593               -7.45596535               19.35280038                3.46035602
              14.67289005                6.22445075               63.18552990                0.00010000                5.91039715               -4.99734246               -4.90767665              -12.41543127               21.93601402                5.02935050
              15.74039062                5.62179122               63.02779787                0.00010000                6.96511406               -5.76225361               -5.85342625              -19.02781317               24.33030152                5.43416260
              16.81219233                4.94750482               62.88902099                0.00010000                6.56565062               -4.18974148               -6.24151297              -24.99466045               25.37132233                3.60980877
              17.87170363                4.20900996               62.75167452                0.00010000                4.37550479               -1.26003870               -5.52836503              -30.13484280               24.34351463               -0.87352243
              18.89970243                3.38486362               62.60254835                0.15301973                1.68949953                2.58704877               -2.51232404              -16.92861390               11.93756097               -6.98180989
              19.90549362                2.86089112               62.22244832                0.78022784                0.57911908                1.23749714               -2.94592397               -1.96191183                0.54500155               -4.73399331
               9.99573547                9.54887147               64.44688025                0.87813558               -0.08068744               -0.07898470                0.78401676               -0.01738276                0.01265192                0.97445594
              10.99492859                9.13108020               64.05157321                0.32400604                0.15773262               -0.04891438               -0.28516096               -0.06404850               -0.00382744               -0.62467433
              11.99889012                8.71087316               63.65599241                0.00010000                1.34543450               -0.23677097               -1.51294856               -2.70046524               10.04269671               -2.80007426
              13.02183728                8.24049392               63.46330338                0.00010000                3.06493202               -1.23366945               -3.02415286               -5.99659363               20.66184601               -1.09351362
              14.06018876                7.73589389               63.28134391                0.00010000                4.63685010               -1.87336456               -4.50737775               -9.27972989               22.15229223                0.76336807
              15.11457428                7.18400043               63.11665125                0.00010000                6.20376285               -3.10848517               -5.87713427              -14.14363120               23.89947110                2.81415316
              16.18426402                6.57503189               62.96504647                0.00010000                7.38210032               -3.71763055               -7.00464200              -19.69498076               24.89146227                3.54780671
              17.26221629                5.90909574               62.81160076                0.00010000                7.77010553               -3.08187826               -7.75699346              -24.72500146               24.06246530                2.72989206
              18.33966613                5.19260661               62.63511680                0.00010000                6.38288972               -1.21048944               -7.70545121              -28.76840135               19.54475727               -0.17086597
              19.38987409                4.42935721               62.38674716                0.08658440                2.77107202                5.33449748               -5.27687456              -19.04215328               10.08442727              -10.51948277
              20.39508757                3.88134040               62.00442069                0.70666890                0.52134827                3.27651925               -6.21029743               -6.28160871                3.54649836               -9.25137146
              10.41319336               10.54840161               64.33078784                0.87731389               -0.00662972               -0.01363762                0.50588058               -0.01636927                0.01108938                1.03091369
              11.41312706               10.13097518               63.92716029                0.38463248                0.15821587                0.02585668               -0.49554164               -0.14817632               -0.33508413               -0.67130695
              12.41635767                9.70949571               63.51681254                0.01426810                1.71510681               -0.02070734               -1.48147853               -3.37349336               10.31323862               -2.74683758
              13.44742919                9.22965002               63.32857203                0.00010000                3.83619488                0.49312552               -3.98856066               -6.83116977               22.40333671               -6.97047184
              14.49308157                8.72540563               63.16204930                0.00010000                5.17251185               -0.13048966               -6.06487042              -10.08580761               24.89844192               -1.34768016
              15.55087943                8.16228105               63.02739638                0.00010000                6.41570615               -1.36454160               -7.05301565              -15.14793753               26.92169264                1.49628747
              16.62139569                7.54743861               62.89005563                0.00010000                7.46190771               -1.81850897               -8.59615881              -19.72040274               26.87810452                2.83033657
              17.70011759                6.88586726               62.73523531                0.00010000                7.73392159               -1.26139316              -10.06597111              -24.04567355               24.93418233                2.88830950
              18.77607413                6.18480017               62.53480456                0.00010000                6.50039974                0.40121128              -10.95233155              -25.87405167               19.24819509                0.40669700
              19.83012558                5.49155357               62.23769582                0.07016019                4.99104799                4.92425432              -12.08723375              -17.80473884               10.25700860               -8.74870537
              20.87589509                4.92642150               61.83621317                0.68473145                4.57695047                3.46052465              -12.94633078               -6.68087292                2.70668448               -9.90589439
              10.83026095               11.54859872               64.21473872                0.88132572                0.06100168                0.04794780                0.21830404               -0.00493974               -0.01564609                1.06444929
              11.83087096               11.13159733               63.80201858                0.52781378                0.12422334                0.10025808               -0.68265975               -0.14845694               -0.63556104               -0.75105502
              12.83274541               10.71045901               63.37727967                0.14155822                1.92165053                0.16068136               -1.12973371               -2.38114673                5.35685732               -2.34673855
              13.86930397               10.25035643               63.08535113                0.00010000                4.65480798                2.73839081              -11.60970120               -8.72528491               21.54430251              -12.40206793
              14.92584157                9.73328410               63.02109515                0.00010000                6.01392873                0.71838653               -6.64712480              -12.06176628               32.28494597               -2.64243952
              15.98958255                9.15670959               62.92778194                0.00010000                7.02140910               -0.26897483               -8.55290632              -14.45841978               30.88766128                0.89109207
              17.06626976                8.53866171               62.81252195                0.00010000                7.71793568               -0.02802257              -10.55026974              -17.38214277               30.01252130                2.35626691
              18.14394126                7.88386787               62.66708763                0.00010000                7.51145138                1.01542355              -13.14416782              -20.67841223               27.38117176                2.77893798
              19.21649878                7.20063084               62.45628764                0.00010000                7.41083553                2.92875160              -16.10037839              -21.75019285               20.16158767                0.99920276
              20.29215797                6.52784230               62.12092828                0.07964224                8.76177283                4.41427445              -21.70344535              -14.11629554               10.53468125               -9.08118875
              21.39173424                5.95055089               61.69033914                0.68350908                9.95762664                3.07691170              -22.42459446               -4.97878867                1.51160161              -12.03717322
              11.24709733               12.54936057               64.09877469                0.82584950                0.12002919                0.09361697               -0.10130204                0.00921694               -0.09470524                0.94845405
              12.24829763               12.13298034               63.67607978                0.75586290                0.14391526                0.16683091               -0.78760435               -0.08117307               -0.53433500               -0.63292982
              13.24997564               11.71270934               63.24491533                0.40113093                0.09003907                0.22826648               -0.77655372               -0.54546939               -0.83168767               -1.33280242
              14.25009841               11.28441783               62.81637651                0.00010000                4.77587203                1.86454572               -2.51213719               -8.24902461               23.21139245               -7.46796531
              15.34549308               10.73977336               62.87580392                0.00010000               10.31175082               -0.78027565               -8.76790536              -10.51589605               40.96729763               -2.08330216
              16.45633342               10.15690155               62.82771857                0.00010000               10.05507396               -0.04906933              -10.04336031               -9.74109860               35.13281322                0.50986271
              17.54659456                9.54687816               62.73563993                0.00010000                8.41233961                1.34107126              -12.73495578              -10.84948899               33.67111732                1.52460371
              18.62458022                8.90617573               62.60656365                0.00010000                7.52506405                3.31309968              -16.62839213              -12.92188586               31.03726358                1.96186104
              19.69709584                8.24337520               62.40139009                0.00010000                8.66497008                5.75969215              -22.56612663              -14.24616095               20.67125491                0.39442391
              20.79787962                7.57983906               61.99990529                0.10528607               11.69031483                8.73038029              -36.10105072               -9.11406839                8.53794202               -8.83703561
              21.93090214                6.98795973               61.52273859                0.68248319               13.30225191                7.23224039              -36.28802205               -2.37253334               -2.74763920              -11.53454982
              11.66320574               13.55047106               63.98023397                0.90749259                0.26929890                0.11104905               -0.43147829                0.05712985                0.48162489                0.83366158
              12.66589873               13.13493395               63.55384537                1.00000000                0.35963966                0.19536098               -0.89186784               -0.01222547                0.45975896               -0.52449921
              13.67039853               12.71502434               63.12768082                0.78766980                0.56803685                0.23150008               -1.17885908               -0.32204081                0.12866135               -0.71246655
              14.67725947               12.28764734               62.69947788                0.36642011                8.63206989                0.32295123               -1.75031471               -7.15118179               22.96367930               -0.37063575
              15.84303993               11.71767859               62.75184963                0.36070215               15.51981542               -2.20947690               -9.19177957               -6.84127164               42.72795420               -2.05735266
              16.98765578               11.15572821               62.73182179                0.36489014               12.84829351               -0.11733446              -11.57622262               -4.47753737               38.42792077               -0.17992489
              18.10000580               10.56548314               62.65769738                0.37910868               10.06753653                1.86049790              -14.86728848               -4.93879279               37.29775915                0.34109818
              19.18900651                9.95012987               62.54977491                0.40361318                7.89532169                4.39541404              -19.84564195               -6.04029390               35.86583553                0.26007296
              20.25791224                9.31582468               62.36644165                0.44656551                8.81427817                7.24494818              -27.60013067               -6.30235844               25.55468636               -1.34173074
              21.36529207                8.70244991               61.96191466                0.56547324               13.50649890               12.26108520              -49.31449085               -4.29020403                9.46139364              -11.50820808
              22.52804221                8.09519570               61.47362686                0.84320610               16.27501446               10.72359618              -49.96191360               -1.01141337               -2.79823087              -14.35990530
               7.83060957                3.69677695               66.16391167                1.00000000               -0.50366060               -0.62835097                2.19777520               -0.20642990               -0.50257118                0.61423662
               8.82557296                3.26166127               65.79059716                1.00000000               -0.35350876               -0.30583861                1.14309705               -0.16261162               -0.61759431                0.08567050
               9.82353939                2.82592535               65.41433814                1.00000000               -0.05659310                0.00657170                0.10228078               -0.15902196               -0.61065775               -0.08966552
              10.82444110                2.38902623               65.04099457                0.59632277                0.16327882                0.35646435               -0.96223928               -0.26082988               -0.30667287               -0.52457427
              11.82680497                1.94911259               64.67111706                0.49082630                0.40050212                0.76418945               -2.15366390               -0.30257358                0.11804525               -0.22257031
              12.83245114                1.50627863               64.30674009                0.31513188                0.55448688                1.13161296               -3.37373209               -0.55658121                0.72581863               -0.59062939
              13.83789471                1.05557739               63.95034164                0.00010000              -13.02849008                1.58972020               -4.44323560              -23.29206838               14.95170508               -1.19310055
              14.57188134                0.14584795               63.87455719                0.00010000              -16.56276880                5.41701110               -5.29209106              -22.14042871               22.51498948                4.56220406
              15.50663933               -0.76565020               63.62880130                0.00010000                4.53510535                3.35286847               -4.91584425              -17.64790056                6.21600257               18.60859030
              16.66258345               -1.69421004               63.21022552                1.00000000                8.16352783                0.77155575               -2.31157768              -20.09277732               -1.01738616                0.18174004
              17.66990989               -2.22495576               62.81074748                1.00000000                0.73264398                0.94835470               -2.87609613                0.02396955               -0.18593761               -0.04088108
               8.26366095                4.69049344               66.04448783                1.00000000               -0.42883082               -0.58033026                1.95695714               -0.04486885                0.00385882                0.86377200
               9.25937265                4.25860288               65.67098462                1.00000000               -0.26971310               -0.27275998                0.90111925               -0.00644087                0.05897555                0.13022834
              10.25826669                3.82599107               65.29804183                1.00000000                0.04332676                0.03692671               -0.14191080                0.00616961                0.10120025               -0.27388237
              11.26023918                3.39259087               64.92532883                0.52717959                0.34431713                0.38598009               -1.20448854               -0.06166178                0.62042045               -0.56757323
              12.26515304                2.95675449               64.56321359                0.50098294                0.67068742                0.75048357               -2.44981321               -0.08347599                1.04222804               -0.29548685
              13.27365293                2.51759476               64.19982355                0.34462509                1.00181616                1.12044987               -3.68135512               -0.30807454                1.23215300               -0.61956584
              14.28518936                2.07147459               63.84315122                0.00010000               -0.62810413                1.39527846               -4.84633350              -21.34947662               17.34562913               -0.94152627
              15.26109085                1.20001807               63.80469736                0.00010000               -1.75000192                0.98777704               -5.63600419              -29.64365504               30.43378306                9.19162379
              16.25018932                0.26787849               63.68941290                0.00010000               -3.48911946                3.44673531               -5.33214563              -30.14485897                4.08211621               21.91140059
              17.19130846               -0.68649448               63.09011179                0.13788752               -2.46470045               12.40354994               -3.08552504              -20.51035090               -9.82183215               61.11545260
              18.20089531               -1.21547222               62.69057620                1.00000000                0.95868527               13.14935304               -3.64841566                0.64108993                0.02931404               61.39141209
               8.69349332                5.68517035               65.92916503                1.00000000               -0.35467958               -0.47156948                1.70372038               -0.05009072                0.18422656                1.03262848
               9.68994652                5.25620607               65.55192894                1.00000000               -0.19092605               -0.20875224                0.64971547               -0.01334687                0.38464446                0.04517715
              10.68967479                4.82666389               65.17825887                0.49740625                0.12489643                0.11358181               -0.39866995                0.00792635                0.81111278               -0.69624609
              11.69244445                4.39674583               64.80960307                0.00010000                0.52283864                0.50589376               -1.40463851               -0.16270074                1.75764274               -0.73472250
              12.70013157                3.96412226               64.45537437                0.00010000                0.95625480               -1.15963278               -2.70722653               -0.76988388                2.08593500                3.86775778
              13.71156954                3.52868762               64.09443688                0.00010000                1.41751485               -2.72677085               -3.89996906               -0.66990927                2.11473398                8.11767618
              14.72848186                3.08348296               63.74260297                0.00010000                3.55174007               -8.69465748               -5.01831203              -21.61385271               24.88879783               16.19265400
              15.78260435                2.16560350               63.83902599                0.00010000                3.08864154               -2.84863310               -6.00673736              -38.25826754               41.50707270               14.89735831
              16.79025470                1.30328451               63.80869821                0.02547629               -2.34386049                3.88229291               -5.60934003              -29.44209399               57.05441966               24.11075004
              17.73572714                0.55386096               64.19089910                0.44276937               -2.47837657               12.27610653               -2.43367728              -10.20423487               38.88196530               64.52665574
              18.74068716                0.03803130               63.80171263                0.89713067                0.49600282               12.90406653               -2.02060314                1.18119649                0.33775126               65.36030016
               9.12058770                6.68106205               65.81225634                1.00000000               -0.29755296               -0.34985663                1.44988627               -0.03389085                0.30688254                0.87942491
              10.11761217                6.25442784               65.43035706                0.54141032               -0.13511219               -0.16317044                0.40682134                0.05714029                0.59144587               -0.39072512
              11.11788546                5.82826271               65.05381273                0.00010000                0.09573097                0.13720662               -0.69134055                0.18093389                1.56086880               -1.29543827
              12.11952679                5.40270875               64.69145946                0.00010000               -0.00359455               -0.76500198               -1.61183251               -2.03053794                7.33998247                2.78730146
              13.11781357                4.93356183               64.43219184                0.00010000                1.06836280               -2.90857759               -2.91220191               -3.69242734               12.10127135                7.50181304
              14.14089405                4.46305934               64.16441880                0.00010000                4.90914331               -7.02065274               -4.08946323               -6.93061337               15.86680216               14.43922412
              15.21599643                3.89758144               63.98039038                0.00010000                6.76149505              -14.42514195               -5.11100166              -18.64672408               24.23560127               23.41774019
              16.27612395                3.14304540               63.88075505                0.00010000                2.85467699               -3.00831023               -5.67522286              -29.86865756               35.15257741               14.08305788
              17.27308997                2.34552435               63.91217801                0.00010000               -1.18234866                2.47807453               -4.87233664              -30.26753389               44.95631590               15.32251955
              18.25247697                1.55902765               64.00128449                0.55861041               -0.84556993                0.35294264               -1.53220938              -13.48892022               24.21489821               -0.39671388
              19.25617857                1.04260911               63.61285004                1.00000000                0.37015991                0.31626130               -1.20780376               -0.06236569               -0.14203688                0.08488797
               9.54608393                7.67817322               65.69300561                0.90760703               -0.21952582               -0.21889025                1.20174810                0.00805567                0.07525029                0.77876038
              10.54388867                7.25294266               65.30244655                0.34881274               -0.05356854               -0.14790931                0.17787272                0.16609005                0.61817733               -0.66391264
              11.54501256                6.82940802               64.92250875                0.00010000                0.13229451               -0.08474434               -0.92635860               -0.83079962                6.34344692               -2.15413395
              12.54653456                6.38144579               64.64651812                0.00010000                1.04599344               -1.76946042               -2.08281691               -2.89996599               12.63262433                4.13626339
              13.56593243                5.90595071               64.39324963                0.00010000                3.12015491               -2.97217092               -3.31366275               -4.81434169               15.60224036                5.85664956
              14.60893766                5.38827457               64.17873183                0.00010000                5.48144437               -6.44683344               -4.51047233               -9.29723383               19.57706877                9.31482119
              15.67556132                4.79498012               64.00637908                0.00010000                6.41753144               -8.25238467               -5.40952484              -18.23449911               24.51371447               10.42539150
              16.73728829                4.10543729               63.89216231                0.00010000                4.66802253               -3.90633185               -5.56676758              -25.66033520               29.97544005                9.45191796
              17.76892177                3.35284600               63.83013913                0.00010000                1.57878365               -0.28292408               -4.28919507              -27.91588728               34.23308907                4.10062879
              18.76886396                2.56091982               63.80014095                0.39785727                0.16775796                0.04436496               -1.20280112              -13.86087897               17.93852518               -1.79742040
              19.77227693                2.04435652               63.41430950                1.00000000                0.34129630                0.06345683               -1.08578994               -0.04815972               -0.06993178               -1.11409242
               9.97120993                8.67668425               65.57327095                0.88223626               -0.15107578               -0.10870802                0.95186506                0.00178792                0.02873738                0.82872261
              10.96969917                8.25146965               65.17544626                0.32934228                0.07782029               -0.11713557               -0.02312244                0.08557134                0.25509839               -0.58784372
              11.97276633                7.82656782               64.78205121                0.00010000                0.76428047               -0.26934997               -1.12862686               -1.52137673                8.53684500               -2.57049692
              12.98498478                7.36731954               64.55071360                0.00010000                2.09658114               -1.23128282               -2.49894352               -3.93569127               17.09344838                0.84523068
              14.01469796                6.87411841               64.33079083                0.00010000                4.04675904               -2.66011490               -3.90155316               -7.02194378               18.75138127                3.50958525
              15.06591996                6.33412267               64.13505938                0.00010000                5.97228861               -4.47914315               -5.18262315              -11.78922703               21.33279993                5.29646484
              16.13414373                5.73253375               63.96845028                0.00010000                6.95657028               -5.23761504               -6.06717804              -17.83545335               24.04091130                6.13070838
              17.20505137                5.06491877               63.82798505                0.00010000                6.25729865               -3.78943375               -6.10024289              -23.02804616               25.98947039                4.89715126
              18.25928970                4.33986587               63.70361185                0.00010000                3.93487541               -1.54181321               -4.51798836              -26.43390849               26.79609767                1.22194465
              19.28374887                3.55991495               63.58780607                0.26672705                1.45261321               -0.25526499               -1.10405377              -13.53631349               13.51846092               -3.36463297
              20.28834197                3.04387825               63.20577217                0.88755901                0.45930920               -0.24013050               -1.18941151               -0.26204005                0.02171645               -2.61875934
              10.39654889                9.67599906               65.45422467                0.88081954               -0.08323559               -0.04096126                0.68387971               -0.00009473                0.01423590                0.90034483
              11.39571653                9.25059995               65.04909612                0.36399787                0.10931255               -0.04422056               -0.21321607                0.00800445               -0.04531293               -0.54291554
              12.39873514                8.82402102               64.64279586                0.00010000                1.22768073               -0.12691568               -1.14326873               -2.11822619                9.64148287               -2.32790050
              13.42027015                8.35682014               64.43305620                0.00010000                2.99776432               -0.47270055               -2.96139674               -5.10393072               19.83034140               -1.31615270
              14.45869043                7.85274841               64.23483726                0.00010000                4.72338185               -1.31481580               -4.73524485               -8.84909922               21.24621076                0.55429595
              15.51473778                7.29869171               64.05643563                0.00010000                6.46828644               -2.73342717               -6.11561947              -13.47310201               23.08105370                2.98085857
              16.58805615                6.69022782               63.89413273                0.00010000                7.73287354               -3.44405980               -7.17568008              -18.19985832               24.28987715                4.02011582
              17.66939525                6.02964862               63.73594321                0.00010000                7.85956297               -3.02686220               -7.46636146              -22.17076042               23.98366281                3.58375840
              18.74524741                5.32200974               63.56463242                0.00010000                6.23650280               -1.55361491               -6.32305946              -25.61624471               21.40583743                1.07390751
              19.79412531                4.55581452               63.36150316                0.20721454                2.69310581               -0.02633410               -1.53910822              -13.51433991               10.29039390               -5.97287636
              20.79910953                4.03955391               62.97992672                0.81781939                0.49842196               -0.38588538               -1.42121805               -0.87551915                1.20411558               -4.87624872
              10.82200625               10.67586502               65.33530356                0.88156530               -0.01689529                0.00914042                0.40247654                0.01241899                0.01702190                0.92223240
              11.82183729               10.25058524               64.92283430                0.44466435                0.10876876                0.04010753               -0.37880136                0.01260705               -0.25547624               -0.53790346
              12.82418162                9.82402951               64.50506576                0.06803869                1.61707383                0.08642124               -0.99272989               -2.09465533                9.30099269               -2.02455017
              13.85417877                9.35786553               64.28502036                0.00010000                3.58313896                1.49194340               -4.65457556               -6.79853804               20.69054766               -9.52602735
              14.89584440                8.84782210               64.10132571                0.00010000                5.23998703               -0.01376870               -5.75881009              -10.47222091               24.02233245               -1.51518544
              15.95897851                8.27945413               63.95534836                0.00010000                7.16726250               -1.32011131               -7.26161725              -14.57698668               25.97022657                1.47312398
              17.03918965                7.66365256               63.80306161                0.00010000                8.54378649               -1.95075855               -8.72022095              -18.14336504               25.65749659                3.04880920
              18.12985424                7.00438152               63.63631315                0.00010000                9.08046273               -1.82059455               -9.61550554              -21.25942744               23.99848700                3.24520157
              19.22079891                6.30879357               63.43437649                0.00010000                8.30318289               -0.82179262               -9.26505245              -24.33207525               18.52012763                1.53075187
              20.29591790                5.55938827               63.14238610                0.20165652                4.12769413                0.71468217               -5.49696213              -12.96977954                8.97656585               -8.18992312
              21.30335279                5.03616054               62.74826002                0.80449598                0.74348898               -0.15487182               -4.46259216               -1.37724955                1.59619650               -7.14253438
              11.24735684               11.67618186               65.21634446                0.88629158                0.04473555                0.04583764                0.11612968                0.03642435               -0.01837130                0.89629965
              12.24780419               11.25140210               64.79621166                0.61426322                0.11024535                0.11085502               -0.49840674                0.05763357               -0.37009648               -0.51022466
              13.24956174               10.82574945               64.36923737                0.22126047                0.63513015                0.17373870               -0.68253436               -0.69561944                1.34209634               -1.55135966
              14.26050679               10.38665900               63.98350124                0.00010000                3.90478333                2.08778004               -6.44232285               -7.56287709               19.71506290              -10.62704971
              15.32765741                9.85247304               63.95511963                0.00010000                7.34303979                0.32114552               -6.50908817              -12.22201264               33.55105666               -2.98846388
              16.40736759                9.27228948               63.84114641                0.00010000                8.63020235               -0.66084995               -8.56446428              -13.84481846               29.35891766                0.55315185
              17.50026146                8.65121265               63.70555482                0.00010000                9.58490513               -0.64264175              -10.62952359              -16.07076091               27.92299637                2.35208291
              18.59906569                7.99323672               63.53767177                0.00010000               10.16688522               -0.17271069              -12.41155605              -18.52322869               24.98642798                2.77201635
              19.70359916                7.30557388               63.31210899                0.00010000               10.41485253                0.28775611              -13.28465325              -21.49237349               16.22561080                0.82457790
              20.80736274                6.57010816               62.93092878                0.21787989                5.72104158                1.34793600              -10.82971961              -11.43252402                6.84031472               -9.32862502
              21.81801999                6.03645648               62.52384583                0.81202182                1.06572489                0.17417680               -8.32046265               -1.03368019                0.56795539               -7.31992314
              11.67229426               12.67678178               65.09706015                0.82706628                0.11281208                0.08160761               -0.19781966                0.04292173               -0.03989330                0.73142281
              12.67342239               12.25280234               64.66993499                0.85293851                0.13590325                0.14672175               -0.51857745                0.05958760               -0.21022053               -0.33012278
              13.67501233               11.82750428               64.23953296                0.49672040                0.13876247                0.16628523               -0.47377086               -0.09690580               -0.38851059               -0.82073999
              14.67619763               11.39962113               63.80902816                0.00010000                4.53806719                0.70759464               -0.52829557               -6.46113797               20.69052703               -2.98631479
              15.76577367               10.85424501               63.79845652                0.00010000               10.35724483               -1.40657375               -6.92997173               -9.45088120               38.13990309               -2.39163231
              16.88334253               10.26623713               63.72487900                0.00010000               11.55267573               -0.77002929              -10.01566250               -9.33080882               33.21622485                0.11906167
              17.99682719                9.65079972               63.60639417                0.00010000               11.08429512                0.29624421              -12.77565804              -10.07109135               30.39268190                1.43492866
              19.10502843                9.00092731               63.44275039                0.00010000               10.86264068                1.54604761              -15.62819573              -12.10681191               26.20982887                1.74828687
              20.21408000                8.31454869               63.19653854                0.00010000               11.56781965                2.61862133              -18.31634148              -15.28771137               12.63096747               -0.05506370
              21.33638483                7.58634699               62.71929389                0.22657186                6.79512750                2.30797847              -15.77239308               -9.96793905                3.13284120              -10.12411755
              22.34998255                7.03964408               62.31276221                0.80340166                1.35977248                0.79383004              -10.79888371               -0.18438658                0.05347192               -7.00931362
              12.09617414               13.67781402               64.97535901                0.90704348                0.20992972                0.10322390               -0.47478954                0.04023977                0.44670246                0.59373344
              13.09827344               13.25433653               64.54677120                1.00000000                0.23153469                0.15341935               -0.62612836                0.04816229                0.42339766               -0.19843344
              14.10080484               12.82907515               64.11882766                0.83188703                0.31349333                0.15708699               -0.75872565               -0.09703102                0.32093579               -0.41392895
              15.10454331               12.40081090               63.69086126                0.36620000                8.56094750                0.11897665               -0.69093367               -7.40211189               20.65549502               -0.30360421
              16.27202379               11.82434156               63.67404254                0.36067486               15.98266962               -2.99034422               -7.09670201               -6.57108865               39.14761153               -1.40496450
              17.42419670               11.25688889               63.61329866                0.36474319               14.60628301               -0.93482340              -11.43802301               -4.27478455               35.13525100               -0.38591547
              18.56414945               10.65713753               63.50590348                0.37812426               13.44918925                0.63378145              -15.02287979               -4.90433477               32.30334361                0.26490480
              19.69318049               10.02415768               63.34986485                0.40148642               12.41379022                2.32303681              -19.17373529               -6.14435599               28.39443195                0.05685503
              20.81242525                9.35794631               63.10846838                0.43311981                9.48640440                4.33976216              -23.80561004              -10.55997225               10.27029297               -1.27139604
              21.88290857                8.61626773               62.53928828                0.61451427                4.76564154                2.99207394              -24.60961012              -10.62828698               -3.37744075              -14.46425674
              22.90773808                8.05233308               62.13172284                0.89695445                2.48295097                1.26889987              -18.98640879               -0.61791198               -3.29541646              -10.80423002
               8.20429171                3.82346579               67.18513978                1.00000000               -0.47081570               -0.58292936                2.04437345               -0.18983972               -0.48011197                0.59630471
               9.19958355                3.38331744               66.80171028                1.00000000               -0.33323089               -0.28885631                1.07892403               -0.14972630               -0.58708012                0.08061776
              10.19762709                2.94257826               66.41547756                1.00000000               -0.06114494               -0.00365031                0.12748027               -0.14619956               -0.58585261               -0.08385045
              11.19836066                2.50076213               66.03193172                0.59611763                0.14146878                0.31510880               -0.84594424               -0.23913601               -0.35409173               -0.50348464
              12.20045647                2.05616568               65.65069949                0.48345560                0.35291204                0.68552830               -1.92400469               -0.28506764               -0.01089609               -0.24359719
              13.20541890                1.60875404               65.27461145                0.29504279                0.41071628                1.02136462               -3.03953160               -0.61110816                0.64551692               -0.60120079
              14.20867079                1.15230405               64.90790969                0.00010000              -12.26329903                1.51349445               -4.02604629              -22.16388900               14.80134639               -1.30651678
              14.96015292                0.26012698               64.81974300                0.00010000              -15.28978288                4.99442461               -5.47652842              -21.34931271               22.48831494                3.84553129
              15.90287514               -0.64170284               64.57797589                0.00010000                5.18442597                3.75461290               -5.10344258              -17.04944159                8.46583086               17.58108597
              17.06384143               -1.56944226               64.18818972                1.00000000                8.40748849                0.79043984               -2.14736124              -19.97960083                0.68260432                0.10536275
              18.07102491               -2.10226625               63.78317969                1.00000000                0.71834719                0.97508118               -2.70556197                0.04761214               -0.11017123               -0.09025470
               8.64254167                4.81763650               67.06338089                1.00000000               -0.40116081               -0.53628730                1.81878048               -0.04204699                0.01343756                0.84026725
               9.63853006                4.38042888               66.67975420                1.00000000               -0.25494571               -0.25777656                0.85276443               -0.00652559                0.07546780                0.12088645
              10.63744275                3.94254176               66.29680616                1.00000000                0.03227631                0.02423135               -0.10255059                0.00487616                0.11328713               -0.27386450
              11.63917559                3.50391322               65.91391310                0.54390410                0.30835424                0.34253432               -1.07368056               -0.05719839                0.53481151               -0.52971038
              12.64360984                3.06302096               65.53990419                0.51149968                0.60315228                0.67355669               -2.20414635               -0.08023110                0.87057221               -0.30065676
              13.65123863                2.61896769               65.16473975                0.34364237                0.88677984                1.00991341               -3.32311900               -0.33728448                1.08355734               -0.59698743
              14.66134543                2.16743899               64.79679664                0.00010000               -0.37876981                1.30104985               -4.40544577              -20.37419431               17.20237023               -0.92882010
              15.64366323                1.31007123               64.74702388                0.00010000               -0.70900452                0.99434423               -5.78690203              -28.43064506               30.14672026                8.67878661
              16.64716534                0.39584328               64.63321867                0.00010000               -2.46680525                3.89916969               -6.48755938              -29.57349026                4.79826064               20.51470501
              17.59432713               -0.56153786               64.06020918                0.14850765               -2.14201638               15.52720131               -3.07054594              -21.28021707               -8.33636763               61.59388201
              18.60432502               -1.09251544               63.65515048                1.00000000                0.99978866               16.50492106               -3.62791074               -0.09107685                0.11654386               62.44315609
               9.07786602                5.81274005               66.94558632                1.00000000               -0.33182291               -0.42997432                1.57873212               -0.04553751                0.18653912                1.00014368
              10.07454779                5.37816191               66.55826208                1.00000000               -0.18128704               -0.19866483                0.61764988               -0.01064426                0.39006392                0.03600147
              11.07424028                4.94306289               66.17454298                0.43673171                0.10948470                0.09372057               -0.34073227                0.00993679                0.83515043               -0.71778606
              12.07673748                4.50761282               65.79620827                0.00010000                0.47785515                0.47213029               -1.26679078               -0.18421873                1.66035347               -0.67751163
              13.08379738                4.06963681               65.42956997                0.00010000                0.87588480               -1.08213654               -2.44448613               -0.77388608                1.89412619                3.84274038
              14.09425518                3.62895231               65.05722485                0.00010000                1.31429946               -2.57321683               -3.53152181               -0.69170169                1.99292983                8.08704164
              15.11008337                3.17832504               64.69459736                0.00010000                3.44402724               -8.18124722               -4.56853382              -20.44196634               24.56579019               16.19866830
              16.16313572                2.28001387               64.77608750                0.00010000                3.64655284               -2.32131233               -6.21799629              -36.24257459               40.77438709               15.33218710
              17.18301442                1.43628055               64.74731095                0.00010000               -1.82699527                4.95432252               -7.98492788              -26.28925444               56.60091656               24.68506841
              18.12659582                0.74110176               65.16188198                0.32076347               -2.59279530               15.72468267               -5.94898799               -8.03622213               40.74547656               62.65240907
              19.13115852                0.22783217               64.77756634                0.77514116                0.45627021               16.58519382               -4.79590949                0.56920150               -0.00127243               63.95426804
               9.51078719                6.80903701               66.82619968                1.00000000               -0.27928571               -0.31152123                1.33808026               -0.02660804                0.30708036                0.84219249
              10.50799434                6.37645558               66.43434982                0.53636419               -0.12983060               -0.15913399                0.39235487                0.06292067                0.56577029               -0.38465880
              11.50819058                5.94441617               66.04729263                0.00010000                0.04614737                0.09984458               -0.60661189                0.20699570                1.59264400               -1.30251239
              12.50891728                5.51335583               65.67614723                0.00010000               -0.06989786               -0.63720113               -1.40076335               -1.89415866                7.22563195                2.65671666
              13.50679262                5.04137823               65.40318410                0.00010000                0.98995414               -2.60543165               -2.79757182               -3.51916734               11.57248549                7.40444728
              14.52871637                4.56750335               65.12328048                0.00010000                4.73259632               -6.46745980               -4.10597936               -6.58031141               15.27898406               14.35287587
              15.60144455                4.00381405               64.92825649                0.00010000                6.60699360              -13.38000746               -5.34384637              -17.46117902               23.55487980               23.65197211
              16.66085624                3.26364498               64.82207461                0.00010000                2.94239042               -2.26574744               -6.16116190              -27.34715226               35.02792904               15.41857580
              17.66029236                2.49492974               64.86149861                0.00010000               -0.94025863                3.60527846               -6.00353490              -26.86493493               47.29697192               17.08714156
              18.64205107                1.75295579               64.99365174                0.62314315               -0.90220633                0.70222482               -0.51383506              -11.37047291               26.13590637                1.24242808
              19.64224823                1.23918844               64.60764617                1.00000000                0.01971667                0.67771532               -0.33014383               -0.10240759               -0.02494085                1.46028170
               9.94249672                7.80650962               66.70451850                0.90486208               -0.20696733               -0.18501584                1.10165964                0.01672999                0.07162427                0.72981541
              10.94042705                7.37497923               66.30429215                0.36178855               -0.05083874               -0.14542819                0.18907922                0.16436200                0.57212873               -0.62931764
              11.94147995                6.94505978               65.91380761                0.00010000                0.07325981               -0.09410418               -0.80231877               -0.65253787                6.15859860               -2.06077011
              12.94189224                6.49486880               65.62561157                0.00010000                0.88932800               -1.43329483               -2.03273761               -2.54688646               12.17361294                3.91733043
              13.95926651                6.01752818               65.35954917                0.00010000                2.91604448               -2.49506234               -3.35782582               -4.45968910               14.93679696                5.66882867
              15.00021313                5.49960311               65.13246357                0.00010000                5.27258255               -5.74135506               -4.70118566               -8.68165268               18.80139719                9.25201359
              16.06471816                4.91072490               64.95072457                0.00010000                6.24319283               -7.35811541               -5.75714289              -16.90327866               24.01887870               10.79481211
              17.12507699                4.23469892               64.83529095                0.00010000                4.58433810               -3.09890169               -6.03892700              -23.31874225               30.58934630               10.57669665
              18.15640492                3.50838612               64.78859235                0.00010000                1.49253326                0.20129127               -4.37543357              -24.60202220               36.49193314                6.02633208
              19.15492765                2.75514626               64.79199937                0.47342638                0.01200756                0.16264815               -0.70801995              -12.05696857               19.46124992               -0.83565896
              20.15664507                2.24138648               64.40715070                1.00000000                0.17174148                0.18551345               -0.61523655                0.01139726               -0.08471353               -0.37568279
              10.37418258                8.80533670               66.58229141                0.88327541               -0.14511576               -0.08319329                0.85770747                0.01005999                0.02813167                0.74741162
              11.37273142                8.37354702               66.17540641                0.35233897                0.05338396               -0.10726921                0.00960058                0.11107423                0.21104450               -0.52200008
              12.37525026                7.94253408               65.77202873                0.00010000                0.63898647               -0.18795913               -0.89117930               -1.12886715                8.17195892               -2.26784166
              13.38551115                7.48468993               65.52548745                0.00010000                1.88071323               -0.75023433               -2.49468353               -3.32733202               16.34169260                0.75304248
              14.41286452                6.99147699               65.29090873                0.00010000                3.81877232               -2.05416239               -4.00721421               -6.47733173               17.85401054                3.21887817
              15.46188660                6.45267625               65.08187743                0.00010000                5.77093246               -3.81372476               -5.38649493              -10.90692440               20.41759671                5.17066990
              16.52828317                5.85665174               64.90645430                0.00010000                6.74667862               -4.49510085               -6.36619197              -16.25867390               23.53649607                6.31034690
              17.59682017                5.20166695               64.76701613                0.00010000                5.97607003               -3.11280556               -6.30438273              -20.56916533               26.71267894                5.54763588
              18.64780457                4.49895556               64.66131476                0.00010000                3.55455825               -1.25329955               -4.37587164              -22.98200936               29.38375600                2.58462089
              19.66791133                3.75620875               64.58046728                0.36003788                1.10955848                0.00866948               -0.64445153              -11.52984258               15.21854440               -1.70902562
              20.66999574                3.24289871               64.19866009                0.98024506                0.20844077               -0.00294526               -0.57965647               -0.04712062               -0.06219454               -1.22300226
              10.80627728                9.80484576               66.46055784                0.88522581               -0.08261339               -0.03051148                0.59663651                0.01329473                0.01449107                0.77720376
              11.80545115                9.37283385               66.04730889                0.39508846                0.07412063               -0.02227221               -0.15655344                0.09893715               -0.02911090               -0.44513212
              12.80775969                8.94130060               65.63312704                0.01586554                1.04757782                0.00145551               -0.85924710               -1.40142629                9.12470509               -1.86629288
              13.82640270                8.47986411               65.40407545                0.00010000                2.69869289                0.19972518               -2.89202182               -4.26933051               18.63188950               -2.04996767
              14.86173355                7.97644493               65.18663902                0.00010000                4.52485943               -0.83287146               -4.73360022               -8.30998970               19.98862845                0.27768312
              15.91689989                7.42332862               64.99433886                0.00010000                6.44102155               -2.28217504               -6.21455796              -12.44802967               21.94229393                2.71474830
              16.99055398                6.82082288               64.82153287                0.00010000                7.72449860               -2.98295191               -7.32038187              -16.27940739               23.36865833                3.94410694
              18.07138986                6.17244281               64.66227353                0.00010000                7.58344733               -2.63121119               -7.37344218              -19.27752363               24.08645251                3.69566208
              19.14222293                5.48332013               64.50865561                0.00010000                5.44988971               -1.55084666               -5.36493300              -21.22620022               23.90677148                1.44225394
              20.18038766                4.75531965               64.35596500                0.32514337                2.00499106                0.10603638               -0.51749355              -10.70652608               11.74713441               -2.01597447
              21.18232275                4.24132757               63.97599633                0.93275140                0.19350917               -0.16234986               -0.31330769               -0.09543565                0.10343756               -1.78536024
              11.23847230               10.80472647               66.33883737                0.88772135               -0.02169697               -0.00388220                0.32926491                0.03160303                0.01191382                0.75974062
              12.23825533               10.37310157               65.91958427                0.48018455                0.08595864                0.07291513               -0.29596343                0.14808515               -0.15755692               -0.39034245
              13.24019147                9.94256319               65.49695794                0.09708356                1.33624377                0.18320102               -0.74270961               -0.99395390                7.70259377               -1.49049384
              14.26498020                9.48868443               65.23548052                0.00010000                3.15043745                1.69717616               -3.96421822               -5.82116804               18.65502387               -9.23883330
              15.30320022                8.97481956               65.04687310                0.00010000                5.17839275               -0.00304642               -5.19652264              -10.20838468               23.20702180               -2.06689181
              16.36854806                8.40703275               64.88216404                0.00010000                7.51903084               -1.25433111               -7.19369627              -13.42005205               24.33814288                1.13160822
              17.45358084                7.79699270               64.71565121                0.00010000                9.01121950               -1.92260316               -8.63762039              -16.01698423               24.02403845                2.77716537
              18.54877245                7.14904272               64.54292520                0.00010000                9.34114451               -1.97859253               -9.06279742              -18.16641415               22.70133414                3.07067503
              19.64040373                6.46793863               64.34950351                0.00010000                7.35004602               -1.41798935               -7.42546356              -19.25910909               19.76781274                1.25864163
              20.69577337                5.75832948               64.12775658                0.34989146                2.78337293                0.45211804               -0.98377146               -9.57235695                8.86440992               -1.74400826
              21.69607118                5.23965171               63.74696133                0.94749445                0.02978161               -0.08386707               -0.06657495               -0.12095159                0.51428707               -1.51189048
              11.67015913               11.80476811               66.21706132                0.89246225                0.04169938                0.01240026                0.06585509                0.05627803               -0.02585093                0.69647610
              12.67057612               11.37429215               65.79205045                0.64468563                0.10693135                0.13583842               -0.38563985                0.17807894               -0.19645401               -0.29386079
              13.67229776               10.94496462               65.36362898                0.24590085                0.35734287                0.20705270               -0.55247252                0.12181352                0.70223612               -1.03751803
              14.67772298               10.51380763               64.95650468                0.00010000                3.34598918                1.43235410               -1.58941142               -6.42877130               18.51061502               -8.94868438
              15.73921754                9.97638400               64.89091339                0.00010000                7.43013621               -0.09008804               -5.71150054              -11.31627721               31.53146726               -2.99373443
              16.82632570                9.39824200               64.75649266                0.00010000                9.44933911               -0.99511071               -8.21223497              -12.49204838               27.18422357                0.18594765
              17.92820432                8.78237082               64.59993148                0.00010000               10.53949751               -1.08823127              -10.24117471              -14.11875380               25.24825100                2.00604297
              19.03711565                8.13287096               64.41885651                0.00010000               10.97748343               -1.00471719              -11.22167758              -15.87752531               21.98187236                2.57560923
              20.14775399                7.45496034               64.19059458                0.00010000                9.00558905               -1.10120436              -10.02941632              -16.78704905               16.21903646                0.98445351
              21.21722743                6.76436201               63.90433389                0.39594251                3.47526338                0.53338610               -1.56454171               -8.33853530                6.09664118               -1.58990337
              22.21725926                6.23965023               63.52392988                0.98248739                0.00318224                0.01223714                0.06279303               -0.02299044                0.84987826               -0.92901755
              12.10054979               12.80497447               66.09481830                0.82993351                0.10706167                0.04899498               -0.20163609                0.04220116                0.01681815                0.54225044
              13.10162040               12.37581834               65.66570823                0.84819743                0.12812345                0.15003612               -0.41628981                0.10258410               -0.04735416               -0.12537617
              14.10311226               11.94670425               65.23543991                0.49057967                0.16824918                0.15958734               -0.42952330                0.09713009               -0.07230800               -0.49910401
              15.10498539               11.51733151               64.80581060                0.00010000                4.46640266                0.20507146               -0.26440377               -5.81274707               18.03636191               -1.66662521
              16.19244031               10.97301780               64.73720449                0.00010000               10.38674457               -1.89883698               -5.53698988               -8.29318760               33.72604124               -1.98147698
              17.31272028               10.38713054               64.62740532                0.00010000               12.20682446               -1.35357136               -9.28956777               -8.28077833               29.72530203               -0.14117773
              18.43657680                9.77522808               64.48012677                0.00010000               12.29560685               -0.53041051              -12.07293834               -8.84399979               26.35384741                1.15929025
              19.55863242                9.12894838               64.29399974                0.00010000               11.82974458                0.20835442              -13.78310150              -10.60494716               21.23313039                1.58935141
              20.67317169                8.44591454               64.03506327                0.00010000                9.28401778                0.57883744              -12.95008036              -11.69052506               12.29634718                0.63806131
              21.74431277                7.76899720               63.68445743                0.41002646                3.59316221                0.44069901               -1.97285383               -7.43783633                2.81686589               -1.84257203
              22.74503494                7.23989645               63.30676091                0.98053805                0.07221632                0.07698088               -0.29540063                0.09020110                0.79162547               -0.59934385
              12.52931541               13.80574801               65.97073818                0.90735841                0.15826156                0.07735405               -0.41977716                0.03104829                0.39103368                0.42193016
              13.53089803               13.37729287               65.54132280                1.00000000                0.17058857                0.14745292               -0.55169837                0.04817985                0.38921804               -0.01727488
              14.53272718               12.94815636               65.11250631                0.80875498                0.21282311                0.14521142               -0.62042231               -0.00769774                0.48337017               -0.22338779
              15.53515449               12.51790906               64.68565920                0.36596010                8.54137906                0.05775469               -0.44550469               -7.47054461               18.02623285               -0.18420068
              16.70355477               11.93840727               64.60991559                0.36075084               16.16726824               -3.46105302               -5.84603180               -6.22547906               33.77783385               -1.00915491
              17.85849986               11.37117057               64.50306133                0.36442507               15.29758572               -1.59599662              -10.43352609               -3.75427536               30.11122498               -0.41793456
              19.00950648               10.77176261               64.35723979                0.37718633               14.79151955               -0.34654711              -14.09457888               -4.41365814               26.29088732                0.23162276
              20.15433025               10.13703805               64.16630020                0.39931122               13.21940936                0.80896646              -16.85810324               -5.69149275               20.20574199                0.30827087
              21.27389467                9.46653709               63.89032944                0.42796346                6.00792743                2.06225494              -17.37507845               -8.12080512                7.40198802               -0.56265765
              22.27448880                8.77317599               63.46972245                0.69698255                0.16850556                0.41787888               -3.88743759               -8.24975970               -1.56171779               -3.01518313
              23.27726478                8.24118985               63.09389869                0.97727264                0.27759828                0.12933959               -2.11738400                0.02437007               -0.53002524               -1.01367340
               8.58786632                3.95222083               68.20479914                1.00000000               -0.43727449               -0.53685795                1.88551088               -0.17182760               -0.45795064                0.57660567
               9.58349358                3.50718579               67.81217564                1.00000000               -0.31327071               -0.27169779                1.01408534               -0.13516779               -0.55755782                0.07555135
              10.58160091                3.06159116               67.41688774                1.00000000               -0.06781210               -0.01427935                0.15604456               -0.13233807               -0.56125737               -0.07859041
              11.58213734                2.61499377               67.02407568                0.59747603                0.11532022                0.27263395               -0.72175162               -0.21799176               -0.38950560               -0.48197144
              12.58390731                2.16583124               66.63263696                0.47736320                0.30069745                0.60396332               -1.68306586               -0.26673764               -0.11803260               -0.26101862
              13.58815129                1.71399800               66.24594946                0.27577590                0.24413840                0.90436096               -2.68634203               -0.67987088                0.57443818               -0.60450986
              14.58879008                1.25167314               65.86982072                0.00010000              -11.82849239                1.45373778               -3.57312530              -21.47380325               14.38549519               -1.42099758
              15.35158144                0.36819682               65.76502662                0.00010000              -14.06404254                4.90524740               -5.32341076              -21.20718056               22.30545071                3.15608152
              16.30750923               -0.52451404               65.52673244                0.00010000                5.97251450                3.33515656               -4.86565452              -17.67092609               11.11421660               15.14490483
              17.47103173               -1.43614170               65.16727830                1.00000000                8.51086394                0.78325985               -2.00535446              -19.14766254                2.50734429                0.07426853
              18.47772651               -1.97070243               64.75663624                1.00000000                0.66947820                0.97066833               -2.56888072                0.10563496               -0.10785925               -0.09069823
               9.03118309                4.94685225               68.08086344                1.00000000               -0.37263493               -0.49331961                1.67615089               -0.03803121                0.02156812                0.81320552
              10.02745674                4.50446881               67.68803991                1.00000000               -0.24047742               -0.24276557                0.80456508               -0.00531630                0.08910119                0.11157698
              11.02637354                4.06144836               67.29599082                1.00000000                0.01903188                0.01152696               -0.05843271                0.00410028                0.12337487               -0.27194813
              12.02783738                3.61772011               66.90385522                0.56297137                0.26821426                0.29838491               -0.93421846               -0.05451449                0.46178743               -0.49413681
              13.03173782                3.17187088               66.51913066                0.52341860                0.52971261                0.59329578               -1.94456646               -0.07941508                0.72536660               -0.30091244
              14.03843163                2.72304161               66.13336117                0.34277419                0.76074069                0.89448644               -2.94649702               -0.37054469                0.95003631               -0.57204399
              15.04695264                2.26621052               65.75504231                0.00010000               -0.54142011                1.21616708               -3.93402728              -19.68236901               16.77008541               -0.92220691
              16.02760323                1.41724930               65.68895932                0.00010000               -0.69917019                1.44998426               -5.67426790              -28.17879721               29.08519562                8.26196023
              17.03296923                0.50883752               65.55966171                0.00010000               -1.24769642                4.66099913               -8.23647298              -30.82945447                5.45246175               17.19800530
              18.00264930               -0.42830910               65.02870088                0.13042801               -0.98128236               15.48041447               -3.24981504              -21.02418618               -5.97511464               59.15984482
              19.01334359               -0.96099575               64.61801799                1.00000000                1.06942897               16.76616992               -3.81334757               -1.69034005                0.11382796               61.22542796
               9.47187257                5.94235444               67.96073967                1.00000000               -0.30814344               -0.39392620                1.45156345               -0.04009913                0.18738746                0.96211591
              10.46879114                5.50233048               67.56428194                1.00000000               -0.17204789               -0.18821085                0.58732505               -0.00774260                0.39243612                0.02700044
              11.46843162                5.06182170               67.17144422                0.37546837                0.09166961                0.07497340               -0.27726195                0.00991915                0.85025403               -0.72957534
              12.47062453                4.62096147               66.78426725                0.00010000                0.42829490                0.43598359               -1.11675384               -0.19069791                1.57311635               -0.57343912
              13.47699751                4.17769716               66.40648465                0.00010000                0.78881081               -1.00996513               -2.16794549               -0.93407717                1.72850040                3.78211030
              14.48640075                3.73188773               66.02380644                0.00010000                1.19687494               -2.40817376               -3.14655054               -0.93654773                1.88046749                7.86682101
              15.50093501                3.27599649               65.65123230                0.00010000                2.94888715               -7.58584252               -4.09365077              -19.66719773               24.05224339               15.82107341
              16.54537849                2.39719651               65.71466607                0.00010000                1.77717652               -1.25179114               -6.69914307              -34.57266821               38.35771663               14.91416476
              17.53647854                1.56870594               65.64899965                0.00010000               -1.24986082                6.85741304               -8.06524150              -25.46234370               54.38994453               25.92337777
              18.52038128                0.87346659               66.07191934                0.07101422               -1.35927753               19.10339649              -31.90031056               -8.88433637               41.83009000               53.52664852
              19.50929299                0.36462097               65.70579444                0.55621167               -1.10882819               20.16130693              -29.44573279               -0.16719644                6.88693478               49.00700844
               9.91042902                6.93897373               67.83901794                1.00000000               -0.25943937               -0.28383199                1.22654858               -0.02208578                0.30444009                0.79727280
              10.90783463                6.50070460               67.43820416                0.53116354               -0.12440451               -0.15153800                0.37972192                0.06125538                0.53948815               -0.37543780
              11.90794093                6.06294783               67.04168050                0.00010000                0.01566626                0.08174094               -0.51346155                0.20843428                1.65464222               -1.28278919
              12.90814795                5.62643978               66.66344419                0.00010000               -0.29054544               -0.52546447               -0.81141812               -1.88177617                6.57029032                2.59550295
              13.90213002                5.15167158               66.37624040                0.00010000                0.66266975               -2.30472485               -2.61937285               -3.53713969               10.71388294                7.03049822
              14.92140135                4.67487813               66.08229921                0.00010000                4.30849403               -5.85849188               -4.02991865               -6.48942262               14.38191056               13.87972579
              15.98829990                4.11449367               65.87351346                0.00010000                6.10195289              -12.16589700               -5.54259533              -16.52440788               22.53528064               23.12603064
              17.04344041                3.39221347               65.75753181                0.00010000                2.95761897               -1.25834043               -6.93832203              -25.13394668               34.14984816               15.67294240
              18.04745228                2.64598578               65.79210731                0.00010000               -0.71964319                5.24252769               -8.67010472              -21.64405941               50.97023398               19.24273456
              19.02904754                1.95375883               65.99100779                0.57433249               -0.98806944                4.19622553               -0.34331812               -9.23030293               29.27684445                6.15669711
              20.02769089                1.44223039               65.60624717                1.00000000               -0.13566485                4.06039880               -0.19556382                0.39650712                0.16188497                5.51870266
              10.34796912                7.93667780               67.71503880                0.90402370               -0.19269770               -0.16902919                1.00606497                0.01786870                0.06750400                0.66942899
              11.34604214                7.49929972               67.30622813                0.36858833               -0.05520023               -0.13458426                0.19426261                0.15634120                0.53472266               -0.59131321
              12.34686512                7.06345651               66.90646237                0.00010000               -0.08884391               -0.05281358               -0.66863613               -0.53319982                5.91796982               -1.90563588
              13.34426526                6.61045218               66.60586336                0.00010000                0.54756274               -1.12616366               -1.81776984               -2.35315845               11.61494944                3.39593483
              14.35781637                6.13160266               66.32609311                0.00010000                2.47624678               -2.01327252               -3.24774536               -4.12380641               14.04918029                5.13167038
              15.39379020                5.61471789               66.08470812                0.00010000                4.76475724               -4.96086790               -4.74409963               -8.07995746               17.73058514                8.81707123
              16.45311151                5.03267855               65.89123623                0.00010000                5.87086220               -6.32806378               -6.12286948              -15.56265715               23.07506778               10.64713863
              17.51120744                4.37202970               65.77138377                0.00010000                4.44702450               -2.16622887               -7.00980985              -20.90589820               30.96453522               10.92746534
              18.54205200                3.67355649               65.74263046                0.00010000                1.41615825                1.27546152               -5.30817008              -21.42886044               39.00329436                7.72452653
              19.53953061                2.95739110               65.78598055                0.45942538               -0.08860015                0.40049955               -0.57644587              -10.30003324               21.34892895               -0.33081763
              20.54028000                2.44582895               65.40200477                1.00000000                0.07493926                0.41710936               -0.47242546               -0.00513756               -0.06926348                0.09994976
              10.78554255                8.93559314               67.59042510                0.88613775               -0.13598174               -0.08403142                0.77858986                0.01035146                0.02564767                0.65424384
              11.78418273                8.49801291               67.17563827                0.36211132                0.02909607               -0.08901347                0.02880251                0.14106978                0.20515801               -0.45929803
              12.78612447                8.06189156               66.76422762                0.00010000                0.43779503               -0.08452813               -0.71090384               -0.82494171                7.72085596               -1.97894629
              13.79293863                7.60391651               66.50081993                0.00010000                1.46318552               -0.23122362               -2.38900460               -2.76773726               15.38126358                0.38408545
              14.81538818                7.11140612               66.25064654                0.00010000                3.28938406               -1.46324810               -3.93119611               -5.89362605               16.79661088                2.66485800
              15.85872632                6.57566078               66.02732948                0.00010000                5.21733833               -3.10089112               -5.40165249               -9.92870582               19.25665257                4.69705080
              16.91973495                5.98793240               65.84112644                0.00010000                6.28590880               -3.63827449               -6.64829395              -14.61943723               22.66593177                6.03129745
              17.98444449                5.34888890               65.70189740                0.00010000                5.68893630               -2.21884532               -6.99931189              -18.18216340               27.05895622                5.72229849
              19.03351368                4.67149502               65.61609442                0.00010000                3.31649674               -0.54452148               -5.17276240              -19.97403525               31.95076337                3.15971888
              20.05077443                3.96176882               65.57491703                0.36780624                0.85993852                0.54073131               -0.60714317               -9.93628788               17.08306444               -1.00526337
              21.05071245                3.45057258               65.19417904                0.99077365               -0.00619805                0.48582643               -0.44955120               -0.07784277               -0.05398969               -0.46647326
              11.22333661                9.93499717               67.46615740                0.89082590               -0.07714913               -0.05183894                0.54198222                0.01263675                0.00948419                0.65133400
              12.22256512                9.49751945               67.04596505                0.40222662                0.05630347                0.00119616               -0.12780687                0.15758155                0.00883466               -0.36208711
              13.22446268                9.06176595               66.62561091                0.00010000                0.84154164                0.09130627               -0.70715691               -0.77394862                8.46636281               -1.54682055
              14.23939595                8.60582771               66.37521577                0.00010000                2.18684505                0.83715632               -2.79700978               -3.75013986               17.30354948               -2.36700049
              15.26819958                8.10233770               66.14016526                0.00010000                3.96469295               -0.45981178               -4.44287103               -7.76072490               18.74413001               -0.20144829
              16.31868981                7.55270007               65.93214447                0.00010000                5.96475330               -1.78641413               -6.08239113              -11.20938499               20.56277165                2.15861330
              17.38749465                6.95991306               65.74772510                0.00010000                7.26558718               -2.35675722               -7.35083534              -14.29364818               22.18298139                3.49990702
              18.46400156                6.32765279               65.58847437                0.00010000                7.10983660               -1.98384253               -7.64802429              -16.58314281               24.09101108                3.43745501
              19.52969138                5.66266607               65.45733376                0.00010000                4.88628654               -0.97337881               -5.60640257              -18.08184852               26.45203587                1.69870609
              20.56172729                4.96820572               65.35115329                0.35969912                1.57121199                0.71851982               -0.61618331               -9.10733698               13.75072557               -1.16492757
              21.56111562                4.45554547               64.97366057                0.97273278               -0.06116668                0.37082978               -0.30059021               -0.04019530               -0.00842586               -0.76845088
              11.66075073               10.93455636               67.34188885                0.89466743               -0.01851433               -0.04333546                0.30954958                0.02429405               -0.00065043                0.61531331
              12.66056558               10.49803683               66.91691503                0.47692074                0.07932582                0.09407363               -0.26697831                0.19518246               -0.08163171               -0.28146464
              13.66233724               10.06371768               66.49021157                0.08690534                0.83992529                0.23755818               -0.67028190               -0.13438206                6.93716059               -1.17033154
              14.67736409                9.62065964               66.20573600                0.00010000                2.54820415                1.57637648               -2.09958930               -4.87345316               17.28390958               -8.44108432
              15.71330133                9.10220989               65.99739525                0.00010000                4.97995868               -0.00353675               -4.62603617               -9.53139762               21.64376355               -2.33244648
              16.77696326                8.53993249               65.81147444                0.00010000                7.28039677               -1.09664616               -6.79198004              -11.90342391               22.44760229                0.56424562
              17.85890926                7.94079725               65.63030920                0.00010000                8.65326823               -1.65275525               -8.31325976              -13.76762346               22.24288704                2.25487915
              18.95002863                7.30921205               65.45505720                0.00010000                8.62072576               -1.69892130               -8.66493416              -15.23656626               22.02449040                2.66817755
              20.03132378                6.65202744               65.28586722                0.00010000                6.28598262               -1.14814342               -6.32876906              -16.01308507               21.85071121                1.55965172
              21.07574828                5.97613921               65.12271067                0.41677448                2.19526320                0.67017611               -0.50688249               -7.99026459               10.75392977               -0.70094137
              22.07522904                5.45798918               64.74692852                1.00000000               -0.05192389                0.12655333               -0.04228259               -0.07950654                0.09845739               -0.49993704
              12.09686155               11.93413046               67.21766156                0.89964286                0.04458957               -0.03032195                0.08923608                0.03204792               -0.02834048                0.55189606
              13.09730745               11.49940092               66.78849886                0.61057635                0.11453424                0.14928155               -0.37706089                0.18373796               -0.08203314               -0.16474603
              14.09915224               11.06651712               66.35818792                0.20530925                0.30636186                0.24635921               -0.60028764                0.45404351                1.06830064               -0.73305308
              15.10343469               10.63735524               65.95171301                0.00010000                2.95732676                0.82372322                0.45697212               -5.32269700               16.77908409               -7.73859533
              16.15829877               10.10226697               65.84088961                0.00010000                6.92996434               -0.32983123               -4.47479054              -10.05948205               28.25364485               -3.01990447
              17.24203397                9.53076714               65.67690171                0.00010000                9.22819263               -1.15437938               -7.53647035              -10.87229937               24.49277764               -0.23491494
              18.34286263                8.92685795               65.50073133                0.00010000               10.30030353               -1.20600162               -9.46598027              -11.93461580               22.63504620                1.56044191
              19.44804004                8.29367437               65.31323822                0.00010000                9.98199436               -1.19707020               -9.94457498              -13.12144175               20.52210733                2.32797017
              20.54250251                7.63970320               65.11152067                0.00010000                7.39601081               -1.22261962               -7.22398363              -13.69198216               17.99913544                1.73130677
              21.59596026                6.98160925               64.89963795                0.50282183                2.66615261                0.39838852               -0.37228055               -6.81752185                8.26076079               -0.31773872
              22.59582557                6.45807654               64.52510169                1.00000000               -0.01346943               -0.01503876                0.08589715               -0.05431789                0.13705817               -0.10149887
              12.53085076               12.93394992               67.09302743                0.83339464                0.10029263                0.01411962               -0.12484058                0.00545496                0.06764642                0.42521758
              13.53185369               12.50102246               66.66160920                0.74542671                0.13065185                0.16804841               -0.47693978                0.08385834                0.09894412               -0.02253486
              14.53346380               12.06864487               66.23094250                0.38617611                0.16533056                0.19787400               -0.54248937                0.15476199                0.31574319               -0.30012741
              15.53516030               11.63713410               65.80374009                0.00010000                4.26179900                0.00372221               -0.05167391               -5.44038028               15.82872501               -1.44995256
              16.61869978               11.09561326               65.68771673                0.00010000                9.98829964               -2.17653547               -4.34228999               -7.42048134               29.35225362               -2.07663308
              17.73492629               10.51684491               65.53908764                0.00010000               11.93049725               -1.67744749               -8.29827502               -7.09365058               25.85228522               -0.36717174
              18.85730972                9.91667722               65.36493540                0.00010000               11.99141276               -0.96569965              -10.78104913               -7.38542858               22.59291403                0.90233556
              19.97475455                9.28527064               65.16708836                0.00010000               10.61197665               -0.39761039              -11.56066551               -8.64682748               18.89161057                1.54966402
              21.06954925                8.62757505               64.93753694                0.00010000                7.31349766               -0.17711990               -8.46518406               -9.33117042               14.34727704                1.56920920
              22.12102450                7.98410698               64.67983682                0.55244336                2.58294192                0.19123844               -0.32484678               -5.88709646                5.90894008               -0.21930691
              23.12120809                7.45768840               64.30685420                1.00000000                0.01835947               -0.01462398                0.01493818                0.00611912                0.11940461                0.06083924
              12.96282557               13.93441285               66.96696347                0.90792990                0.14640993                0.04629280               -0.31572798                0.03238500                0.36648481                0.32137561
              13.96428967               13.50276189               66.53573723                0.94440612                0.16551349                0.17394258               -0.65029314                0.04668566                0.45682722                0.07556096
              14.96613584               13.07047459               66.10641922                0.72658024                0.16845066                0.18297264               -0.68785958                0.00059406                0.80446484               -0.09145180
              15.96765868               12.63742968               65.68195117                0.36572559                8.20212498                0.02955812               -0.21844900               -7.33707820               15.79123681               -0.14132902
              17.13017834               12.05873626               65.55712190                0.36074105               15.57191613               -3.68770077               -4.70692296               -5.86271788               28.65806232               -1.22566817
              18.27909701               11.49721819               65.40462814                0.36433819               14.82749878               -1.96267104               -9.15980478               -3.14254328               24.87527320               -0.36231927
              19.42672832               10.90754396               65.22401190                0.37631392               14.25543294               -0.91332612              -12.28991294               -3.63294225               20.92319981                0.30004761
              20.56420567               10.28572216               65.01270279                0.39731954               11.51572236                0.04515172              -13.67541778               -4.62404589               16.18663420                0.62503597
              21.65704276                9.63616080               64.76096681                0.42588903                4.19496557                0.85857520              -10.77808792               -6.26505634                9.88911183                0.62305607
              22.64810498                8.98543401               64.46153953                0.76831958               -0.41288250                0.13270312               -0.53428569               -6.21078904                3.67472953               -0.30890373
              23.64878511                8.45778406               64.08937516                1.00000000                0.06801370                0.00956606               -0.27959218               -0.00729329               -0.08038947                0.02624168
               8.98037971                4.08286931               69.22285000                1.00000000               -0.40359117               -0.49092214                1.72385847               -0.15290024               -0.43732101                0.55694702
               9.97634380                3.63309992               68.82199199                1.00000000               -0.29389049               -0.25458013                0.94941779               -0.11935866               -0.53047834                0.07082395
              10.97450190                3.18280031               68.41859845                1.00000000               -0.07612365               -0.02539903                0.18710006               -0.11750939               -0.53803107               -0.07384131
              11.97482132                2.73156364               68.01749668                0.60023484                0.08600720                0.22752755               -0.59239111               -0.19710389               -0.41348907               -0.46141104
              12.97622204                2.27795790               67.61703817                0.47284121                0.24512915                0.51971253               -1.43399426               -0.24724308               -0.20438116               -0.27527097
              13.97972391                1.82184043               67.22088461                0.25715245                0.05407475                0.78294001               -2.32118526               -0.76546910                0.52298482               -0.60115822
              14.97730354                1.35344091               66.83644718                0.00010000              -11.51868528                1.41423615               -3.09322219              -20.93831582               13.84423713               -1.54746281
              15.74935020                0.47538321               66.71327479                0.00010000              -12.71978731                5.02877772               -4.88919878              -20.76545584               22.70328905                3.18102155
              16.72290779               -0.40466329               66.48066280                0.00010000                6.73671609                2.21994687               -4.41216951              -18.95273952               13.46605081               11.45997809
              17.88408452               -1.29080205               66.14808263                1.00000000                8.36220201                0.78200394               -1.83040324              -17.87061678                4.14639003                0.05327112
              18.89015183               -1.82684370               65.73180208                1.00000000                0.60673086                0.96786235               -2.38946498                0.17738672               -0.09749080               -0.08900544
               9.42862009                5.07796008               69.09690391                1.00000000               -0.34353824               -0.45207194                1.53124680               -0.03312059                0.02797143                0.78566437
              10.42518471                4.63055412               68.69584550                1.00000000               -0.22625736               -0.22811235                0.75680210               -0.00328040                0.09972929                0.10341812
              11.42409495                4.18254632               68.29563750                1.00000000                0.00433876               -0.00093032               -0.01106118                0.00214685                0.13106416               -0.26858515
              12.42527149                3.73383891               67.89522873                0.58463153                0.22581365                0.24957108               -0.78726050               -0.05266131                0.40111254               -0.46148660
              13.42861122                3.28315503               67.50101286                0.53709477                0.45281137                0.51056887               -1.67534605               -0.07814655                0.60515166               -0.29880227
              14.43432771                2.82966983               67.10580981                0.34178043                0.62688852                0.77551323               -2.55830426               -0.40893941                0.83277610               -0.54590400
              15.44114899                2.36758327               66.71811610                0.00010000               -0.67899855                1.14172274               -3.44594235              -19.05168848               16.19190872               -0.92440018
              16.42074774                1.52567099               66.63353852                0.00010000               -1.23379818                1.71707339               -5.48074526              -28.34372962               27.32376162                7.27025743
              17.41647303                0.61753618               66.46848921                0.00010000               -0.21395889                6.34828956               -9.46081783              -30.90003715                8.13369811               17.28314458
              18.41646856               -0.28298201               65.99521288                0.08609048                0.57471643                7.00649332               -3.45360685              -20.61914796               -2.81476229               34.13109899
              19.42796735               -0.81716508               65.57888353                1.00000000                1.14987897                2.32934323               -4.01120126                2.13145167                0.10118756               38.04242674
               9.87452923                6.07382787               68.97461759                1.00000000               -0.28372718               -0.36383717                1.32410870               -0.03484587                0.18752086                0.92386371
              10.87169196                5.62853767               68.57000859                1.00000000               -0.16345949               -0.17767423                0.55829488               -0.00546656                0.39264961                0.01978183
              11.87126004                5.18278170               68.16899774                0.00010000                0.07337127                0.05979601               -0.21109276               -0.00170828                0.86125416               -0.73275396
              12.87315938                4.73655506               67.77387319                0.00010000                0.37840800                0.49154312               -0.96294738               -0.70603590                1.50124828               -0.09997967
              13.87882820                4.28816928               67.38621106                0.00010000                0.69787468               -1.03876492               -1.88096382               -1.28001601                1.58659860                3.65024260
              14.88711688                3.83735069               66.99429384                0.00010000                1.07202047               -2.27368175               -2.75059719               -1.35700531                1.77832941                7.51023600
              15.90026861                3.37627537               66.61272434                0.00010000                2.27029115               -7.06262702               -3.60890201              -19.59287205               22.70574339               15.11263738
              16.93252270                2.50972468               66.64210464                0.00010000                0.66457173               -0.26424296               -7.02523698              -32.47306299               37.82022822               13.80498648
              17.91356004                1.72230250               66.58600612                0.00010000               -1.30599365                8.43087193               -9.71799655              -31.53244147               33.57780883               23.74120970
              18.90640283                0.84932782               66.52387577                0.00010000                4.37934813               22.25052629              -45.92753464              -25.27899025               20.82674941               62.06802641
              20.00114701                0.21974316               66.18865169                0.27630302                9.47441800               23.52586217              -46.21293465              -13.60647404                8.98746078               61.81370638
              10.31850356                7.07068334               68.85073065                1.00000000               -0.23820178               -0.26684068                1.11722734               -0.02132527                0.30154451                0.75440831
              11.31612155                6.62700063               68.44194426                0.51989275               -0.12300862               -0.14094101                0.36776925                0.05324338                0.51787304               -0.36800447
              12.31604339                6.18374224               68.03702340                0.00010000               -0.51791809                0.08091180               -0.41628548                0.28066069                2.09275428               -1.25024365
              13.30576318                5.74366978               67.65991887                0.00010000               -0.69140621               -0.55716538                0.26462461               -1.99806980                6.20795473                1.53145296
              14.30221527                5.26237973               67.35079665                0.00010000                0.66591694               -2.12069172               -2.49322309               -3.84482141                9.66936054                6.70820552
              15.31908152                4.78419619               67.04268211                0.00010000                3.73511475               -5.32182130               -3.77453770               -6.67420774               13.42743397               13.13017403
              16.37691756                4.22633073               66.81740458                0.00010000                5.30889100              -11.01103418               -5.52615681              -16.22674079               21.10731607               21.96000634
              17.42525934                3.52038613               66.68330817                0.00010000                3.46517460               -0.04210203               -7.94848494              -23.98631742               31.66565433               14.97650517
              18.44622105                2.78615362               66.68809651                0.00010000               -0.59056202                5.82935184              -12.43689601              -17.50218154               53.61629379               18.35842334
              19.41344810                2.16202852               66.98678537                0.40859614               -1.56069343               15.76464244               -1.37805002               -5.83361813               34.10071234               33.04349417
              20.41500719                1.65335216               66.60373489                1.00000000                0.15590830               21.78552189               -0.86155989               -4.76441726                0.47853382               31.15506388
              10.76146814                8.06849105               68.72463980                0.90467323               -0.17702087               -0.16901818                0.91769902                0.01106041                0.06104251                0.61677414
              11.75969793                7.62571885               68.30817740                0.36357184               -0.06320143               -0.11882480                0.19268882                0.14096956                0.51306378               -0.56137734
              12.76020411                7.18439994               67.90043489                0.00010000               -0.25687196                0.00321896               -0.54895914               -0.59323860                5.74427466               -1.76216603
              13.75456049                6.72541175               67.58925617                0.00010000                0.06006232               -1.03252718               -1.67447552               -1.88450846               11.02965902                2.37896894
              14.76140536                6.24575545               67.29459426                0.00010000                1.75606153               -1.58388673               -2.96211779               -3.72127820               13.06342392                4.49053502
              15.78968172                5.73091426               67.03758158                0.00010000                3.90692507               -4.25076389               -4.55977611               -7.61212699               16.54705752                8.17587949
              16.83954386                5.15605468               66.82826718                0.00010000                5.16458705               -5.27709559               -6.24227119              -14.59576500               21.59177271               10.01851281
              17.89297346                4.50888264               66.69509475                0.00010000                4.11650824               -1.06819009               -8.29183961              -18.96965846               30.26620420               10.65388375
              18.92187402                3.83888954               66.68242894                0.00010000                1.47792295                3.06465093               -7.84700516              -18.83414094               41.72856123                9.52685344
              19.92253192                3.16462067               66.78047046                0.34217470                0.06686722                0.44511184               -0.72416768               -8.26980197               23.91045248               -0.33533675
              20.92321137                2.65545360               66.39770219                0.98020373                0.06794460                0.42806400               -0.46282600               -0.14746908               -0.10818647                0.16948175
              11.20426917                9.06730298               68.59786320                0.89086385               -0.12371195               -0.10411865                0.71624916                0.00129185                0.02060027                0.58423220
              12.20303205                8.62462414               68.17598246                0.35425257                0.01082722               -0.07017541                0.03363292                0.14900151                0.21902811               -0.41554837
              13.20448572                8.18380661               67.75781065                0.00010000                0.18427237               -0.00098490               -0.60230079               -0.69863919                7.26297635               -1.78527742
              14.20671750                7.72301923               67.47770736                0.00010000                0.89007361                0.10981420               -2.16058370               -2.48728817               14.43422064               -0.18229047
              15.22228719                7.23070200               67.21228480                0.00010000                2.49111234               -1.00440959               -3.63072998               -5.27781144               15.79765108                2.00468476
              16.25653975                6.69918091               66.97384438                0.00010000                4.23733502               -2.42791661               -5.14523062               -8.94997048               18.03374348                4.01612244
              17.30703389                6.12078882               66.77348843                0.00010000                5.32457827               -2.72082120               -6.70173055              -13.09093664               21.33204771                5.50087889
              18.36303131                5.49902232               66.62702989                0.00010000                5.33831567               -1.04252653               -7.94923730              -16.13571107               26.52550373                5.53157589
              19.41380020                4.84744664               66.55785951                0.00010000                3.42283457                0.43159563               -7.50273441              -17.06904356               34.04474993                3.15795599
              20.43148801                4.17093075               66.56832441                0.26856312                0.82958670                0.98033968               -1.06554220               -8.44948809               19.41622511               -0.89917627
              21.43039194                3.66191344               66.18966907                0.88855652               -0.10960671                0.88777384               -0.58738212               -0.20531605                0.01752548               -0.25864429
              11.64685166               10.06640868               68.47139749                0.89757427               -0.06773331               -0.08872029                0.51676690               -0.00244604                0.00178497                0.57561721
              12.64617432                9.62431534               68.04475275                0.38459288                0.04922878                0.01571683               -0.12611337                0.16197402                0.05565257               -0.31634125
              13.64783623                9.18438024               67.61898390                0.00010000                0.58725115                0.13864708               -0.65300177               -0.55396525                7.82536443               -1.37539968
              14.65791935                8.72760804               67.34813525                0.00010000                1.59256081                1.01731345               -2.41106908               -3.09778864               16.11840143               -2.25027278
              15.67968745                8.22566726               67.09778160                0.00010000                3.13380716               -0.16278624               -3.95899905               -6.86011221               17.67820760               -0.76941029
              16.72059549                7.68235593               66.87269104                0.00010000                4.90981333               -1.28102450               -5.64324424               -9.79912965               19.18855965                1.45156681
              17.77788371                7.10163826               66.67451616                0.00010000                6.15029667               -1.58523852               -7.15277362              -12.32509545               20.73585816                2.87295385
              18.84360142                6.48803210               66.50931305                0.00010000                6.53505046               -1.06899516               -8.08957362              -14.17219384               23.44996975                3.09092843
              19.90858472                5.84752145               66.39652756                0.00010000                4.77369668               -0.12509437               -7.66088252              -15.39201857               28.17877082                1.79595995
              20.93907536                5.18422746               66.34364133                0.27208622                1.42774713                1.24476198               -1.35798618               -7.80048608               15.97941266               -0.94357714
              21.93713967                4.67320908               65.96998452                0.88717804               -0.19356897                0.81492041               -0.59476090               -0.14120326                0.09322386               -0.44514221
              12.08840693               11.06552857               68.34502836                0.90310378               -0.01069481               -0.08706110                0.32880826               -0.00570637               -0.00986274                0.55284979
              13.08829998               10.62493847               67.91424470                0.43819434                0.08533976                0.09938614               -0.28523149                0.16428808                0.00280781               -0.23577032
              14.09011372               10.18657956               67.48355230                0.00010000                0.75873664                0.25961941               -0.70109587                0.05202051                7.04283926               -1.01988622
              15.10347471                9.74336550               67.19348874                0.00010000                2.01116648                1.67117983               -1.31969350               -4.32248307               16.50826316               -7.48831079
              16.13033705                9.22744627               66.95435238                0.00010000                4.05557218               -0.00014070               -3.77951836               -8.51953935               19.84778641               -2.65664248
              17.18458615                8.67356042               66.74632443                0.00010000                6.22593796               -0.82127198               -6.09499414              -10.13090851               20.66594866               -0.11503448
              18.25485581                8.08908405               66.54938601                0.00010000                7.45590439               -1.13424002               -7.73435446              -11.46164901               20.52211702                1.59378002
              19.33370424                7.47764242               66.36962651                0.00010000                7.74543344               -1.03164532               -8.52443088              -12.54861280               21.31542096                2.44313173
              20.40976448                6.84494475               66.22292813                0.00010000                5.80432104               -0.48023480               -7.44678442              -13.45320903               24.05663758                1.94409979
              21.44979066                6.19582599               66.11761893                0.33395373                1.99200814                0.83268171               -0.80817349               -6.84733127               13.22236515               -0.40938482
              22.44960464                5.67821185               65.74611567                0.94661011               -0.01860210                0.22427484               -0.19995618               -0.16475038                0.08828718               -0.27032977
              12.52791772               12.06466746               68.21884604                0.90792793                0.04913760               -0.06758259                0.15432665               -0.01982619               -0.01762936                0.51269590
              13.52840910               11.62630307               67.78450923                0.53227512                0.12659455                0.15953997               -0.44733164                0.11447051                0.05953029               -0.12750641
              14.53044961               11.18957263               67.35162323                0.00010000                0.10969346                0.29454237               -0.75745858                0.59555375                2.49436671               -0.58266239
              15.53060297               10.76103163               66.96564412                0.00010000                2.43260626                0.73644027                3.43537206               -5.12986168               16.89972305               -8.61247836
              16.57910174               10.22566444               66.80141758                0.00010000                6.28682864               -0.60967142               -3.63227860               -9.06501800               24.95360434               -3.15221319
              17.65633954                9.66593049               66.60576325                0.00010000                8.27334983               -1.07498752               -6.50026629               -8.93749134               22.02981781               -0.79981179
              18.74456874                9.07895346               66.41061187                0.00010000                9.02144614               -0.95449170               -8.43357291               -9.64763739               20.51518386                1.06287110
              19.83676846                8.46739920               66.21996501                0.00010000                8.83841179               -0.85826650               -9.12043748              -10.54389251               19.80436221                2.27150839
              20.92133697                7.83791676               66.04611490                0.00010000                6.60465834               -0.85460847               -7.09199688              -11.44569017               20.99748488                2.24744013
              21.96886163                7.20088109               65.89688828                0.43337849                2.38679846                0.34417435               -0.36427062               -5.84192695               11.05223431               -0.04189889
              22.96907294                6.67769457               65.52564783                1.00000000                0.02113100               -0.06860415                0.02409534               -0.12947125                0.01894629               -0.01478924
              12.96473918               13.06417692               68.09232148                0.83705432                0.09450355               -0.01820011               -0.01222182               -0.04577169                0.10876181                0.40314223
              13.96568422               12.62812927               67.65616943                0.59209454                0.12785223                0.21224785               -0.64858739                0.02316039                0.33896544               -0.00948334
              14.96729623               12.19247040               67.22459012                0.00010000               -0.04492801                0.29006310               -0.81112958                0.10589812                1.16857110               -0.18914850
              15.96478566               11.75809431               66.80477712                0.00010000                3.84208008               -0.11856571                3.40953815               -5.37719936               17.00841184               -3.99968545
              17.04413783               11.21525284               66.65035869                0.00010000                9.38808257               -2.52904481               -3.41787552               -6.55481648               26.66434645               -2.57071221
              18.15254731               10.65206067               66.46143982                0.00010000               10.81482628               -1.65436526               -6.97244006               -5.62414232               22.49956907               -0.60589178
              19.26043436               10.06999422               66.26450579                0.00010000               10.56578899               -0.96714532               -9.21822763               -5.81282459               19.86331825                0.63852154
              20.36386309                9.46047709               66.06278643                0.00010000                9.34672117               -0.45446428               -9.90964693               -6.89010363               18.05585382                1.63120511
              21.44736878                8.82785258               65.86575958                0.00010000                6.46556088               -0.28891466               -7.21455532               -7.81322103               18.00464554                1.90527244
              22.49317431                8.20270948               65.67796049                0.51453853                2.30097396                0.13556956               -0.20931135               -5.01497031                9.13973681                0.03044861
              23.49338826                7.67683977               65.30705967                1.00000000                0.02139501               -0.05109015                0.02078337               -0.04133120               -0.00035555                0.05901347
              13.39909758               14.06430346               67.96442362                0.90876229                0.14812411                0.01265364               -0.17855602                0.06029638                0.37620512                0.30338066
              14.40057882               13.63054802               67.52831694                0.83577985                0.17524808                0.24187502               -0.88738064                0.04298175                0.70825718                0.08266197
              15.40260254               13.19537389               67.09874912                0.61805043               -0.01511406                0.29034835               -0.94668464               -0.06375393                1.66475787               -0.00206189
              16.40027654               12.75866032               66.68129022                0.36551874                7.57182504                0.05660120                3.43146915               -7.46542903               19.29844744               -4.28508318
              17.55403904               12.17508355               66.51577713                0.36077795               14.44193908               -4.01692980               -3.78943822               -5.30073533               25.38340352               -0.95574762
              18.68911532               11.63284319               66.31986523                0.36418635               13.29283908               -1.92174851               -7.51550453               -2.11684865               20.69548125               -0.31110394
              19.81989582               11.05961055               66.11144153                0.37552934               12.59963510               -1.03836644              -10.11322054               -2.78051690               17.27756444                0.39091952
              20.94110802               10.45830991               65.89279185                0.39524055               10.14721687               -0.21671786              -11.05410672               -3.64911105               14.81389769                0.93946587
              22.02284016                9.83213846               65.67476769                0.42361913                3.92335070                0.42858821               -8.29336443               -5.18873315               14.49994128                1.23453169
              23.01957504                9.20359249               65.45903674                0.75990176               -0.14272117                0.08830053               -0.25711681               -5.13321185                7.74810167                0.02509291
              24.01998574                8.67667277               65.08830684                1.00000000                0.04107006               -0.01669991               -0.09001891               -0.03222360               -0.00482465                0.04233568
               9.38083592                4.21525195               70.23927631                1.00000000               -0.37003625               -0.44540042                1.56162335               -0.13332956               -0.41953988                0.53884606
              10.37713556                3.76089525               69.83116399                1.00000000               -0.27501618               -0.23746647                0.88538550               -0.10256860               -0.50717980                0.06662063
              11.37533560                3.30603623               69.42062974                1.00000000               -0.08538614               -0.03588602                0.21938813               -0.10208949               -0.51750089               -0.06981089
              12.37542784                2.85030146               69.01222786                0.60400974                0.05480846                0.18124098               -0.46093536               -0.17734646               -0.42732295               -0.43910703
              13.37643177                2.39237644               68.60395708                0.46942945                0.18870705                0.43455060               -1.18415426               -0.22605108               -0.26884481               -0.28657325
              14.37920198                1.93212442               68.19952575                0.23911088               -0.15735594                0.65898771               -1.95263009               -0.87132553                0.49482072               -0.59292723
              15.37328465                1.45738605               67.80795627                0.00010000              -10.88851870                1.40593025               -2.60128015              -20.06398634               13.31883208               -1.67930303
              16.16143160                0.59128978               67.66724264                0.00010000              -11.56311210                4.25348087               -4.19354238              -20.19029385               23.13637377                3.14135358
              17.14202241               -0.27096731               67.43848905                0.00010000                7.06943224                2.01243968               -3.91756066              -16.83668471               15.82219421                7.33588768
              18.30282025               -1.12933678               67.13067023                1.00000000                8.31576933                0.78565107               -1.65905404              -16.46995775                5.67764600                0.02809521
              19.30833779               -1.66664544               66.70884694                1.00000000                0.55175450                0.96486147               -2.20261592                0.23795893               -0.09366382               -0.09237068
               9.83385933                5.21079795               70.11148838                1.00000000               -0.31415983               -0.41234892                1.38571904               -0.02748225                0.03211859                0.76015119
              10.83071773                4.75852058               69.70317595                1.00000000               -0.21238666               -0.21339437                0.70956537                0.00039255                0.10684840                0.09640703
              11.82961160                4.30567737               69.29576959                1.00000000               -0.01167331               -0.01277553                0.03793517                0.00248907                0.13819579               -0.26491957
              12.83048426                3.85211387               68.88811001                0.60859385                0.18240884                0.19851406               -0.63666284               -0.04735365                0.35392747               -0.43326069
              13.83325977                3.39672195               68.48562374                0.55216629                0.37498260                0.42708917               -1.40290449               -0.07612446                0.50801100               -0.29167596
              14.83798392                2.93871430               68.08219508                0.34050863                0.49011658                0.65478644               -2.16629548               -0.45122604                0.73106343               -0.51969412
              15.84306210                2.47144536               67.68612346                0.00010000               -0.71392862                1.07873489               -2.95372172              -18.54676396               15.39100445               -0.93874825
              16.82370534                1.63382459               67.57934442                0.00010000               -0.45466323                1.61184046               -5.23910777              -27.76092969               25.06377958                6.56308771
              17.83396884                0.74915709               67.37044536                0.00010000                0.61271950                4.74450694               -9.23153514              -28.55318393               10.36654907               13.90267262
              18.83595973               -0.12148027               66.95962874                0.07498524                0.70285988               12.62956990               -3.65927168              -18.73517304                0.57710880               18.28409357
              19.84802604               -0.65699682               66.53779396                1.00000000                1.20663032               12.13445841               -4.19833606               -0.99402599                0.09732951               20.65885717
              10.28484100                6.20700497               69.98722184                1.00000000               -0.25770221               -0.33791318                1.19721225               -0.02909321                0.18631064                0.89024334
              11.28226398                5.75662736               69.57544784                1.00000000               -0.15244565               -0.16724467                0.52936242               -0.00213195                0.38955463                0.01316752
              12.28179209                5.30578072               69.16722237                0.00010000                0.05861006                0.04142206               -0.14279855               -0.00729020                0.86267860               -0.72890182
              13.28343618                4.85427174               68.76500831                0.00010000                0.32583765               -0.52140026               -0.80328959               -0.84064811                1.43852243                0.90570821
              14.28830884                4.40091823               68.36886537                0.00010000                0.60089333               -0.96347347               -1.58903311               -1.47786853                1.46925509                3.41852827
              15.29545405                3.94522015               67.96879450                0.00010000                0.94651164               -2.22602136               -2.34939100               -1.82996484                1.67678385                7.13065832
              16.30723908                3.47896075               67.57905426                0.00010000                1.65236123               -6.66472000               -3.12068188              -19.74677496               21.30326950               14.23066302
              17.32850128                2.62352659               67.57416133                0.00010000                0.95122551                0.24644385               -7.03453928              -33.63408536               33.91028729               12.10111258
              18.32626359                1.82392283               67.45463972                0.00010000                0.28847113                8.37871700              -12.22035371              -25.89699315               20.35477499               20.13091218
              19.33427070                1.12325462               67.15336865                0.00010000                1.66133944               23.97571477              -39.92956106              -14.42077119                9.70736213               62.68480213
              20.35949038                0.57604373               66.78153575                0.06877977                2.52196789               25.66389946              -46.78992046               -6.95426376                3.15585043               68.86507218
              10.73403269                7.20403968               69.86136249                1.00000000               -0.21333495               -0.25621225                1.01026271               -0.02271136                0.29801347                0.72277899
              11.73189934                6.75517569               69.44555954                0.50187088               -0.11056399               -0.12966935                0.35409594                0.03552416                0.50203027               -0.36557404
              12.73182141                6.30650581               69.03335479                0.00010000               -0.66827725                0.08226070               -0.31415865               -0.73050388                3.05444699               -1.21620888
              13.71853380                5.84168586               68.66873669                0.00010000               -0.95337108               -0.70143360                0.17948430               -2.08952225                6.35017285                1.33962198
              14.71275399                5.37745248               68.32637594                0.00010000                0.24041501               -2.04965109               -2.12921030               -3.25206946                8.42955561                6.35607981
              15.72334210                4.89419387               68.00680845                0.00010000                2.85330880               -4.90734727               -3.34498876               -7.18485746               12.73596918               12.31549468
              16.76982017                4.33815096               67.76299032                0.00010000                4.13597302              -10.09978985               -5.17995417              -16.76228431               19.44059284               20.49948595
              17.80606156                3.63875347               67.59856211                0.00010000                2.32403926                0.89295282               -8.24989699              -24.37755172               27.46964394               13.22376007
              18.81630095                2.91673143               67.54336939                0.00010000               -0.53190733                8.52038685              -15.91668339              -15.78677532               54.11465763               18.40740332
              19.79542341                2.35803403               67.96344679                0.20698976               -0.64692084               12.29453525              -12.27430338               -4.61272734               39.42783568               44.14717319
              20.80336253                1.85628117               67.58901597                0.79677853                0.79391238               14.36203364               -7.32637940               -2.96716461                2.47202123               46.33350349
              11.18211477                8.20188073               69.73339278                0.90706554               -0.16064321               -0.17597911                0.83377694               -0.00050792                0.05185360                0.58742209
              12.18050833                7.75403397               69.31008191                0.34610705               -0.07214636               -0.10245478                0.18708740                0.11308570                0.50388737               -0.54581158
              13.18067184                7.30742594               68.89548319                0.00010000               -0.49046316                0.05655926               -0.45209052               -0.79766055                5.48248054               -1.66644405
              14.17069907                6.84024307               68.57237385                0.00010000               -0.49561971               -0.01471223               -1.52294243               -1.94428144               10.57707886                1.16453503
              15.17075944                6.35992521               68.26685076                0.00010000                1.01796778               -1.45699998               -2.60451408               -3.53598353               12.50440962                4.07259577
              16.19105843                5.84707321               67.99351260                0.00010000                2.83371758               -3.66600557               -4.13592589               -7.40523916               15.63157997                7.45001613
              17.22743380                5.27696495               67.76639080                0.00010000                3.56556703               -4.32249797               -5.98899966              -14.11586657               19.92976341                9.16187275
              18.26236977                4.64138565               67.60554698                0.00010000                3.19068636                0.32743241               -8.76589653              -17.90562292               28.27598522               10.08670072
              19.29124752                3.99433057               67.58569036                0.00010000                2.00483228                5.19120433              -12.75228611              -15.77135605               43.55214581               10.82739940
              20.30246641                3.36914532               67.77149720                0.17229541                0.62026387                1.12901953               -4.37232850               -5.95901019               26.96458909               -1.99297479
              21.30365280                2.86328441               67.39274825                0.79473086                0.11863883                0.84180976               -1.81179383               -0.33553607               -0.39466994               -1.55030362
              11.62971604                9.20052010               69.60475008                0.89607028               -0.11001970               -0.12681854                0.66242910               -0.01200014                0.01462836                0.55912291
              12.62861585                8.75312659               69.17631093                0.33173926               -0.00284694               -0.05517941                0.02979167                0.13501637                0.24381534               -0.39856708
              13.62965910                8.30763700               68.75218161                0.00010000               -0.07334742                0.05451860               -0.54074909               -0.74096715                6.90033558               -1.69536573
              14.62714890                7.84139162               68.45760826                0.00010000                0.27725380                0.23989019               -1.83459866               -2.35286527               13.68999844               -0.41954501
              15.63520418                7.34831248               68.17803194                0.00010000                1.55243340               -0.75216426               -3.16527965               -4.70346753               15.04884923                1.43519553
              16.65819757                6.82087376               67.92442487                0.00010000                2.89931065               -1.89109276               -4.65107060               -8.09717343               17.10021183                3.34679276
              17.69319039                6.25170100               67.70709183                0.00010000                3.61929594               -1.77452054               -6.40696016              -11.87078192               20.02562222                4.77606972
              18.73058348                5.64530212               67.54291265                0.00010000                3.99618814                0.27445476               -8.47591364              -14.12628496               24.99296644                5.32243411
              19.77311416                5.02055552               67.46603973                0.00010000                3.83529434                1.95930387              -10.78420272              -14.84983541               35.54666186                2.71046368
              20.80728937                4.38061442               67.55360619                0.11437751                1.76297467                1.54471700               -7.64592679               -7.10229918               21.98152543               -0.75636632
              21.80837365                3.87311736               67.18243140                0.72290142                0.10842781                1.34558086               -3.53698796               -0.41765975                1.48713802               -0.98595500
              12.07666178               10.19934436               69.47649274                0.90649937               -0.05700165               -0.11776463                0.49886017               -0.02115994               -0.00505831                0.56992595
              13.07609176                9.75293038               69.04344278                0.35155113                0.04628454                0.02191784               -0.13767601                0.13269509                0.11327375               -0.31344628
              14.07758747                9.30851631               68.61255088                0.00010000                0.34372600                0.15218156               -0.65070827               -0.67993121                7.47169007               -1.33164142
              15.08296628                8.84504087               68.32699439                0.00010000                0.98102403                0.59964682               -1.91165236               -2.70270035               15.26888337               -2.18606129
              16.09720795                8.34488192               68.06098528                0.00010000                2.13800803               -0.14357118               -3.35162444               -5.67861718               16.74414802               -0.98707435
              17.12572644                7.80925135               67.81927959                0.00010000                3.41909264               -0.81570860               -4.98542073               -8.31781715               18.09445334                0.78561480
              18.16558980                7.24147454               67.60466962                0.00010000                4.26315526               -0.75619291               -6.67028521              -10.47587383               19.52725436                2.14487948
              19.21098955                6.64687474               67.42668289                0.00010000                4.66743560                0.10603008               -8.29662452              -11.78732236               21.92937040                2.59539331
              20.25893852                6.03351665               67.30411611                0.00010000                4.84345171                1.03832893               -9.78743819              -12.77425636               29.39663862                1.72061515
              21.30785858                5.40003966               67.32399356                0.11596979                2.56775991                1.70450764              -10.32627892               -6.68009805               18.23158278                0.00444618
              22.31029371                4.89019602               66.96176535                0.72234272                0.24351311                1.19009556               -6.33092050               -0.40298165                3.58710477               -0.29758706
              12.52212079               11.19816481               69.34846502                0.91191622               -0.00229938               -0.11265510                0.34680085               -0.03394578               -0.01214786                0.58001933
              13.52209779               10.75356495               68.91121041                0.38469543                0.09146013                0.09978389               -0.31976511                0.10724632                0.10722905               -0.25450199
              14.52394999               10.31068063               68.47618965                0.00010000                0.73157410                0.26548696               -0.78986716               -0.49315900                7.12840258               -1.01786278
              15.53672928                9.85338455               68.17934213                0.00010000                1.67356823                0.43882060               -1.19117348               -2.82855291               15.82918014               -4.25006149
              16.55742136                9.34544106               67.92180489                0.00010000                2.92596613               -0.08327638               -2.96658694               -6.43905937               18.43354472               -2.87260712
              17.59524860                8.80455959               67.68957455                0.00010000                4.43140839               -0.47979154               -5.18385983               -8.05771643               19.07842560               -0.69450659
              18.64604952                8.23657714               67.47562211                0.00010000                5.37731671               -0.42394718               -6.95250390               -9.18810651               19.11858831                0.86814489
              19.70279493                7.64742272               67.28456858                0.00010000                5.92072926               -0.04650617               -8.33279022               -9.88101673               20.02834181                1.81623167
              20.76446411                7.04132210               67.13693153                0.00010000                5.71065500                0.41519473               -9.42852836              -10.30638596               25.61180647                2.63518018
              21.81700803                6.41470457               67.10654720                0.15569502                2.77685941                1.01950218               -6.60895405               -5.73946905               15.26658473                0.38133090
              22.82000130                5.89691927               66.74292940                0.76314707                0.29932632                0.33203660               -3.13613204               -0.35894570                1.68931499               -0.09467040
              12.96518258               12.19709125               69.22074809                0.91736850                0.05382862               -0.08648100                0.20396876               -0.05605388               -0.00445376                0.57594109
              13.96572087               11.75492606               68.77955223                0.44432010                0.13610520                0.17300702               -0.53033690                0.05006766                0.23401304               -0.19123909
              14.96790468               11.31382605               68.34303875                0.00010000                1.29569648                0.35276883               -0.97821661               -0.84156200                6.17109129               -0.60232791
              15.99163480               10.85381728               68.02042045                0.00010000                2.46735217               -0.59451333                3.01294824               -2.88894798               16.45822416               -5.12709914
              17.01725173               10.34321639               67.76824404                0.00010000                4.09006192               -0.78007962               -2.55280012               -5.81295559               20.36788280               -3.34559667
              18.07343603                9.79965552               67.54689638                0.00010000                6.08564086               -0.69672497               -5.31228215               -6.73494105               20.08970662               -1.21332942
              19.13896454                9.23299560               67.33205987                0.00010000                6.75941115               -0.39795713               -7.27792613               -7.32654710               18.73835643                0.44947062
              20.20862426                8.64594462               67.13082947                0.00010000                7.32822000               -0.11774059               -8.53094534               -7.96760844               18.88739323                1.81454311
              21.28552894                8.04182054               66.96968073                0.00010000                6.44238824               -0.21471914               -9.07589761               -8.77554609               22.96359652                3.21091419
              22.33747202                7.42042971               66.89235254                0.22794236                2.65782225                0.39314612               -2.39971881               -4.97363386               13.46886197                0.47069366
              23.33868539                6.89683675               66.52558359                0.83710959                0.12133678               -0.03548102               -0.53729043               -0.20922931               -0.00957821                0.00115570
              13.40533010               13.19643519               69.09278299                0.84233596                0.10342582               -0.04075302                0.06884004               -0.07198707                0.10288837                0.48690452
              14.40636435               12.75702509               68.64863745                0.44480650                0.14487161                0.25970281               -0.80901398               -0.01453656                0.62297842               -0.12497569
              15.40822753               12.31773601               68.21471991                0.00010000                2.15978081                0.41446600               -1.15234198               -1.84888845                5.69360669               -0.21777406
              16.44955997               11.84149429               67.87193085                0.00010000                4.35482390               -2.75577319                4.11107350               -2.14658583               16.86552493               -3.45583483
              17.49532401               11.32983947               67.61935922                0.00010000                6.06053006               -1.72159902               -2.21140316               -3.44247607               21.32670306               -2.50168734
              18.57077057               10.79062509               67.39963884                0.00010000                7.89527378               -1.27551108               -5.44892971               -3.86576329               20.01449645               -0.83661814
              19.65322948               10.22861800               67.18057085                0.00010000                8.19236260               -0.57523661               -7.61602495               -4.25843705               17.71076803                0.26137089
              20.73461782                9.64506791               66.96889543                0.00010000                8.06193093               -0.07219933               -8.80936602               -5.15285409               17.33223840                1.43566279
              21.81446810                9.03702771               66.79324583                0.00010000                6.39506598                0.05073431               -8.72317524               -6.36163303               20.37621747                2.66135867
              22.86251914                8.42256749               66.67565059                0.30221872                2.42672574                0.16768351               -0.79761384               -4.43811125               12.04400682                0.43824759
              23.86300262                7.89620965               66.30726987                0.90660528                0.04834722               -0.03501572               -0.05122229               -0.06263247               -0.25142292                0.02366662
              13.84256303               14.19627619               68.96339235                0.90990885                0.15662810               -0.01589940               -0.06738455                0.10768621                0.35786347                0.40021149
              14.84412932               13.76012012               68.51798962                0.73789076                0.19473408                0.30950280               -1.10048268                0.06845478                1.11068186               -0.07598978
              15.84645772               13.32211537               68.08748552                0.51931912                4.62351520                0.43793605               -1.28130417               -4.24789613                6.47771476               -0.01385808
              16.93659962               12.79870182               67.75058055                0.36528015                7.64068436               -4.27924683                3.62988885               -1.96258280               18.63963746               -3.22826540
              17.99927140               12.30878441               67.48133314                0.36082826                8.03713092               -2.10550526               -2.32185192               -0.83308636               19.71215791               -0.79715360
              19.09734224               11.77414530               67.25431805                0.36398319               10.00407922               -1.64797914               -5.64836978               -1.70751067               17.98051260               -0.23564424
              20.19935299               11.22149087               67.02174749                0.37457226                9.99076106               -0.71271282               -7.85959643               -1.86988273               14.70337572                0.34749855
              21.29715746               10.64450063               66.79162066                0.39315733                9.07218554               -0.05672728               -9.11913275               -2.67881852               13.68201581                1.09484172
              22.38079670               10.04283523               66.59509952                0.42043756                4.61851979                0.58075151               -9.19923660               -4.40300307               17.17587509                2.18135193
              23.38952786                9.42378338               66.45639720                0.66194800                0.46758587                0.12158849               -0.76921402               -4.63406823               11.36394172                0.54703962
              24.39014842                8.89613644               66.08757478                0.96019569                0.06205611               -0.00732143               -0.20858428               -0.05011367                0.02533216                0.03701834
               9.78821355                4.34922209               71.25408247                1.00000000               -0.33667802               -0.40045152                1.40069419               -0.11399144               -0.40573891                0.52356711
              10.78484677                3.89040841               70.83969970                1.00000000               -0.25627683               -0.22099936                0.82231883               -0.08551525               -0.48910635                0.06305535
              11.78308801                3.43112439               70.42298622                1.00000000               -0.09496181               -0.04690897                0.25163482               -0.08588037               -0.50104572               -0.06697851
              12.78294753                2.97101721               70.00827798                0.60857705                0.02296221                0.13760468               -0.33016161               -0.15672894               -0.43446678               -0.41813141
              13.78354726                2.50889311               69.59335509                0.46684345                0.13367976                0.35201097               -0.94068190               -0.20478869               -0.31537292               -0.29464397
              14.78562113                2.04464322               69.18183201                0.22184239               -0.37919831                0.53639776               -1.59285703               -0.98581823                0.49294315               -0.58315566
              15.77596329                1.56352047               68.78442158                0.00010000              -10.20381161                1.41898509               -2.10402030              -18.94617894               12.94308595               -1.81397699
              16.58154489                0.71400673               68.62940394                0.00010000              -10.00196009                3.60073215               -3.34782395              -18.65327619               23.51631443                2.93461282
              17.57592409               -0.12185814               68.40231158                0.00010000                7.28673302                0.12971056               -3.30964779              -16.34863488               17.93382676                4.07283935
              18.72727956               -0.94815716               68.11490155                1.00000000                7.80005238                0.81586054               -1.50427026              -14.89809275                6.93294216                0.04334704
              19.73192514               -1.48658516               67.68774976                1.00000000                0.46455800                0.99084108               -1.99801912                0.32303658               -0.05135757               -0.05501261
              10.24588732                5.34521758               71.12461829                1.00000000               -0.28468501               -0.37317344                1.24105183               -0.02242042                0.03396162                0.73864999
              11.24304047                4.88819842               70.71003681                1.00000000               -0.19812535               -0.19954886                0.66280412                0.00367430                0.11033178                0.09036654
              12.24192481                4.43065530               70.29639621                1.00000000               -0.02722905               -0.02529617                0.08757704                0.00299841                0.14369271               -0.26144565
              13.24249588                3.97239326               69.88249547                0.63478880                0.13807769                0.15126686               -0.48715427               -0.04513942                0.31886650               -0.40657447
              14.24468636                3.51241322               69.47295477                0.56855443                0.29766896                0.34472714               -1.13399201               -0.07531003                0.43248794               -0.28207013
              15.24844926                3.05000720               69.06248390                0.33894821                0.35666910                0.53536318               -1.78146209               -0.49301781                0.64356341               -0.49512627
              16.25181974                2.57771032               68.65904166                0.00010000               -0.53739126                1.02506484               -2.46724894              -17.74946325               14.48898454               -0.95998138
              17.23770144                1.75001406               68.52875637                0.00010000               -0.41500297                0.92612502               -4.78739506              -27.23366347               23.00299255                5.79723373
              18.24351968                0.87943897               68.28385851                0.00010000                1.14803490                3.69274252               -7.20188673              -26.22442353               11.65394599               11.40762676
              19.26066214                0.06000145               67.92202744                0.23221157                1.50319069                2.36814821               -3.80590973              -15.48706130                3.33010888               -0.22623767
              20.27358350               -0.47667674               67.49491681                1.00000000                1.29213626                1.62038767               -4.33232938                0.13241439                0.05125694               -2.61294160
              10.70180346                6.34175862               70.99856184                1.00000000               -0.23209316               -0.31247958                1.07154647               -0.02499842                0.18321214                0.86448080
              11.69948253                5.88641743               70.58059583                1.00000000               -0.14251594               -0.15716677                0.50030883               -0.00053817                0.38394860                0.00615591
              12.69895314                5.43061847               70.16614177                0.00010000                0.04021500                0.02509675               -0.07439149               -0.01722519                0.86034245               -0.71674568
              13.70028683                4.97404255               69.75780740                0.00010000                0.27369854               -0.46482926               -0.63582782               -0.87906066                1.38383766                1.11713160
              14.70442711                4.51578765               69.35443039                0.00010000                0.50884196               -1.04486376               -1.30072613               -1.53219059                1.37059659                3.34623705
              15.71046367                4.05535049               68.94730602                0.00010000                0.82700289               -2.21096065               -1.95133080               -2.15143096                1.58020636                6.78171697
              16.72096717                3.58402177               68.55031070                0.00010000                1.23396570               -6.43632082               -2.63768889              -20.03326162               19.37273122               13.36023723
              17.73514298                2.73252923               68.50141385                0.00010000                1.02405282                0.17308103               -6.57546872              -33.77266734               31.05744933               11.09212303
              18.74144822                1.95199671               68.34159905                0.00010000                1.92555299                7.19060435              -12.90157408              -35.66067940                4.30899002               16.67822739
              19.77365404                1.09920581               67.72528455                0.00010000                3.32407911               18.34209888              -26.15418343              -25.52390035               -9.45892133               47.86404943
              20.80792981                0.54582260               67.25285328                0.12673889                3.42757667               22.27432383              -29.42456260               -8.35203280               -3.45860488               55.49105019
              11.15606973                7.33896798               70.87093590                1.00000000               -0.18998711               -0.24533574                0.90446348               -0.02511546                0.29217603                0.70578016
              12.15416986                6.88505508               70.44902618                0.47687582               -0.10572679               -0.11831001                0.34027599                0.01959979                0.49566322               -0.36838171
              13.15395519                6.43115724               70.03074022                0.00010000               -0.72121836                0.08128835               -0.21944529               -0.66748875                3.21823684               -1.19068772
              14.13974549                5.96309667               69.66350855                0.00010000               -1.06102901               -0.71058333               -0.63154984               -2.25968112                6.30002525                2.16391958
              15.13273461                5.49151594               69.30821244                0.00010000               -0.12794805               -2.01181451               -1.69507823               -3.56904941                7.95714317                5.94589970
              16.13718653                5.00578799               68.97578233                0.00010000                2.06205765               -4.65261572               -2.87070650               -7.51112149               12.25744981               11.60850728
              17.17397576                4.44898391               68.71380550                0.00010000                2.85433102               -9.44155711               -4.64576584              -17.35873686               18.49476440               19.08068380
              18.19427315                3.75347568               68.51831023                0.00010000               -0.51731193                1.68684363               -7.91961500              -26.08411092               23.42737250               12.42702516
              19.16362952                3.02325105               68.36976285                0.00010000               -1.89574526                9.03852390              -14.90283581              -22.05568793               49.02355642               15.52696712
              20.15635824                2.42684343               68.74129931                0.05981702                2.48398672               21.76979829              -47.80013712               -8.66647777               44.82105099               52.44395630
              21.21330926                1.96880973               68.45720730                0.65106449                5.69510167               24.26047495              -50.05111254               -2.55906626               22.67387670               56.67531712
              11.60912696                8.33685191               70.74131534                0.91112064               -0.14416867               -0.17912520                0.74980091               -0.01155220                0.04170287                0.58466697
              12.60768527                7.88405123               70.31191915                0.32235913               -0.07825907               -0.08815807                0.18046153                0.08496534                0.50155606               -0.54458818
              13.60756178                7.43224424               69.89139308                0.00010000               -0.64753854                0.08371861               -0.37043029               -0.84902194                5.31863718               -1.63462951
              14.59473450                6.95983088               69.55879732                0.00010000               -0.86034846               -0.15444361               -1.21281459               -2.08856141               10.32439601                0.89620072
              15.59035481                6.47555136               69.24250398                0.00010000                0.40193873               -1.31222791               -2.27003438               -3.69098770               12.26151585                3.65640886
              16.60277327                5.96229817               68.95486306                0.00010000                1.78749679               -3.27191046               -3.65636053               -7.40315824               15.20428332                6.76670137
              17.62610474                5.39519063               68.70848719                0.00010000                1.82101702               -3.54762556               -5.54282272              -14.04746375               19.28263892                8.28880671
              18.63919361                4.76626611               68.51977682                0.00010000                0.04309876                1.54297085               -8.62697111              -17.63769216               25.60357522                9.25920580
              19.62696672                4.13276719               68.42738322                0.00010000                0.77860963                7.99895535              -15.49911382              -14.06269775               46.07182262               11.16214767
              20.65476581                3.53460177               68.69302389                0.01830577                2.29245755                8.82318196              -29.36389841               -5.16832419               36.22139671               -0.85470920
              21.67281587                3.03103210               68.36146631                0.62436970                1.80500614                5.21837553              -26.17210096               -0.89821614               13.90995025               -1.49832477
              12.06144003                9.33538548               70.61111179                0.90360711               -0.09631989               -0.13798244                0.60404395               -0.02318430                0.00776868                0.57478695
              13.06047683                8.88329192               70.17657829                0.30392292               -0.01224642               -0.04521432                0.02603649                0.10712567                0.26850118               -0.40569849
              14.06119510                8.43283161               69.74699567                0.00010000               -0.29048498                0.07475640               -0.50007699               -0.85637336                6.66854903               -1.70107501
              15.05466713                7.96000780               69.44101538                0.00010000               -0.23737700                0.11610322               -1.51111816               -2.37160561               13.22537928               -0.52644372
              16.05644756                7.46527138               69.14897921                0.00010000                0.74084815               -0.66992674               -2.69409199               -4.38638094               14.63072322                1.10674796
              17.06948410                6.94034978               68.88082297                0.00010000                1.63054943               -1.46898126               -4.13748721               -7.56065262               16.69573906                2.75701248
              18.08905855                6.37803139               68.64534922                0.00010000                1.72293217               -0.95925303               -5.97761723              -11.05469663               19.57731409                4.02146351
              19.10394274                5.78433509               68.45751162                0.00010000                1.24906757                1.60089665               -8.68904390              -12.56262514               24.07822903                4.51403114
              20.11403990                5.18323016               68.34217545                0.00010000                2.53920552                3.91373861              -12.92021216              -10.43939604               35.03449244                3.80179232
              21.15472685                4.60330706               68.41540588                0.00010000                4.42221910                4.83867990              -24.45278154               -5.93804797               26.86291165               -7.83951836
              22.20248429                4.07317724               68.11892931                0.57542975                4.77574352                3.78636196              -22.15756369                0.01313362               14.82701917               -5.72308691
              12.51285039               10.33409226               70.48137469                0.91552035               -0.04687383               -0.12559401                0.46559664               -0.03287313               -0.00940198                0.61253019
              13.51238165                9.88314695               70.04199923                0.31676712                0.04340184                0.02235365               -0.14431558                0.09450983                0.16723919               -0.34354503
              14.51371843                9.43373936               69.60596973                0.00010000                0.12404789                0.14514102               -0.66410461               -0.88195271                7.31674296               -1.39957423
              15.51486261                8.96215294               69.30990221                0.00010000                0.42833895                0.24652031               -1.56069735               -2.59052963               14.78101910               -1.79032065
              16.52228521                8.46215283               69.03074911                0.00010000                1.19687998               -0.12680091               -2.80962266               -4.84532218               16.11432385               -0.97390718
              17.53880021                7.93291855               68.77298262                0.00010000                1.93701429               -0.41481422               -4.36707750               -7.16469600               17.49964573                0.30545560
              18.56102549                7.37600557               68.54111046                0.00010000                2.19710669                0.05126518               -6.15520065               -9.07297576               19.10654262                1.35209623
              19.58274235                6.79828404               68.34338056                0.00010000                1.90906656                1.27426923               -8.32692293               -9.79723407               21.78703232                1.76340824
              20.59920683                6.21104196               68.20077880                0.00010000                3.16577104                2.44267860              -11.50452645               -9.04632927               26.76861374                1.40265570
              21.64605777                5.63137537               68.13711575                0.00010000                6.70656795                1.58932875              -22.01532498               -5.49424928               19.52293273               -0.19249040
              22.73333818                5.10675934               67.84336611                0.57212811                8.72804183                1.96614794              -20.42727679               -2.05448978               13.01108942               -0.33664979
              12.96267320               11.33287360               70.35196438                0.92222668                0.00467300               -0.11119774                0.33307843               -0.04496126               -0.01068358                0.65441132
              13.96271993               10.88373899               69.90784940                0.33663133                0.09384281                0.09521475               -0.33545302                0.06389396                0.19598086               -0.31891222
              14.96455005               10.43573443               69.46775496                0.00010000                0.58615766                0.26282246               -0.87941957               -0.97580030                7.49214382               -1.15610138
              15.97444308                9.96493820               69.16966527                0.00010000                1.21127331                0.18739904               -1.10238031               -2.66497586               15.41318172               -2.72273734
              16.98877552                9.46273537               68.89502064                0.00010000                1.89471795               -0.04773236               -2.53957109               -4.75932276               17.10200910               -2.25608828
              18.01233744                8.93205349               68.64264724                0.00010000                2.67290130               -0.06594641               -4.38541735               -6.40805182               18.00023676               -1.08426555
              19.04223354                8.37905670               68.41033594                0.00010000                3.03121124                0.34942863               -6.21928166               -7.39278658               18.50894052                0.04688080
              20.07296166                7.80982048               68.20297071                0.00010000                2.88942223                1.05395899               -8.12213181               -7.64099200               19.59080393                0.86600293
              21.10002199                7.23208373               68.03435756                0.00010000                3.80814140                1.73893899              -10.67883316               -7.74239133               25.23622320                1.16037606
              22.14912449                6.63509364               67.98543985                0.00010000                5.53022848                0.49081059              -18.96710151               -4.16526462               18.73006948                7.54550459
              23.21062656                6.11250020               67.68339303                0.58977383                6.15020674                0.33089389              -17.27893981               -3.80529011               11.30463791                5.84250925
              13.41022038               12.33186830               70.22292541                0.92773301                0.05783206               -0.08014212                0.20194474               -0.06096392               -0.00076059                0.67917836
              14.41079870               11.88505124               69.77390249                0.37059075                0.13914140                0.17266878               -0.56021303                0.03072300                0.36025336               -0.31713991
              15.41300321               11.43899581               69.33205889                0.00010000                1.18817273                0.39668587               -1.17794105               -1.29127038                7.50552889               -0.77855110
              16.43456216               10.96590092               69.02590308                0.00010000                2.34901266               -0.30603462               -0.18793580               -2.73919317               15.46079479               -2.57387981
              17.45998346               10.46119818               68.75036158                0.00010000                2.98778426               -0.53026834               -1.90798653               -4.00564602               17.85297560               -2.50158611
              18.49431784                9.93159962               68.49951761                0.00010000                3.77096568               -0.20734233               -4.31281504               -4.94579345               18.20067946               -1.46776847
              19.53540278                9.38299414               68.26505335                0.00010000                4.12888136                0.32386581               -6.25471865               -5.45384059               17.82953132               -0.32805238
              20.57689547                8.81936322               68.04934610                0.00010000                4.18415295                0.92893422               -8.04096488               -5.61510915               17.89919757                0.84592521
              21.61908584                8.24582074               67.86459695                0.00010000                5.27202672                1.17886164              -10.21627801               -6.50278303               24.93348078                2.18803473
              22.68233600                7.64119158               67.84889390                0.02876105                4.16667104                0.61680661              -15.87661729               -3.07688056               17.65974004                7.14470756
              23.70241926                7.11337721               67.51490202                0.62560561                2.00832527                0.14108576              -13.80281690               -2.05670251                7.37797784                4.90959398
              13.85508804               13.33127076               70.09369828                0.84820755                0.11188337               -0.03896602                0.07348443               -0.06584279                0.07057317                0.61411429
              14.85620688               12.88719237               69.63998915                0.33068867                0.13934587                0.26363251               -0.83855744                0.01489833                0.83609047               -0.31399710
              15.85787496               12.44366815               69.20154328                0.00010000                2.06249862                0.52848383               -1.42973535               -2.09060821                7.79410687               -0.37707830
              16.89745685               11.95881751               68.88699859                0.00010000                4.25444719               -1.45526580                0.30130239               -2.34393154               15.20641646               -1.48814095
              17.94296390               11.45213000               68.60613062                0.00010000                4.70843804               -1.30027764               -1.52821473               -2.31748118               17.72098239               -1.61437818
              18.99162561               10.92790665               68.35246123                0.00010000                5.12146131               -0.64138664               -4.18537609               -2.63013029               17.64077508               -1.04808245
              20.04539313               10.38553401               68.11218529                0.00010000                5.31036331                0.06065474               -6.21216291               -2.91247655               16.50642565               -0.26665303
              21.09783288                9.82839916               67.88659911                0.00010000                5.13724176                0.76965336               -7.91727097               -3.26861040               16.08950886                0.68934855
              22.14813797                9.25566097               67.69129608                0.00010000                6.10987654                1.31186901               -9.87444761               -4.92370517               23.05916276                2.36775068
              23.22003041                8.64742977               67.66200821                0.07050379                3.84916388                0.59242413              -13.15020710               -3.41482200               15.24735704                4.93681228
              24.22512124                8.11532192               67.30603523                0.66608469                0.50908364                0.17130500              -10.39191496               -0.42488756                3.95661942                4.11423487
              14.29706031               14.33108898               69.96307593                0.91164018                0.16389737               -0.01817742               -0.05153363                0.12071709                0.33177125                0.55330514
              15.29869928               13.89032389               69.50630729                0.66509329                0.12527981                0.31315232               -1.11378071                0.17306561                1.51143770               -0.32448131
              16.29956590               13.44956549               69.07312304                0.44511722                4.02611974                0.58973417               -1.57540281               -3.50731993                8.29777101               -0.17651788
              17.37922167               12.93679561               68.75388800                0.36498061                7.24894017               -2.20219033               -0.32787622               -2.54216060               14.58407883                0.16902228
              18.44454471               12.43519263               68.46934009                0.36082025                6.45447739               -1.69373738               -1.45236258               -0.74310601               16.78359178               -0.63558590
              19.50831122               11.91877189               68.20689784                0.36369514                6.60580127               -0.91347613               -4.00854804               -0.88070840               15.70523795               -0.30081529
              20.57666073               11.38420723               67.95424960                0.37377828                6.65425444               -0.13267819               -5.83887403               -1.07401985               13.55730951                0.09922394
              21.64139631               10.83475629               67.71040919                0.39114271                6.24601964                0.63571247               -7.35640779               -1.25111203               12.00124604                0.84226594
              22.70158112               10.27205812               67.49078295                0.41688365                5.64911513                1.63971561               -9.23794210               -3.74149527               18.73261454                2.04352626
              23.75437861                9.65304006               67.44365246                0.54510582                2.82780457                0.56102931              -12.63970247               -4.32791969               13.73047783                6.40263206
              24.75813722                9.11680331               67.08413516                0.84135589                0.37586017                0.14813975              -10.09510593               -0.32207780                2.53141863                6.41217444
              10.20148667                4.48465164               72.26729020                1.00000000               -0.30369918               -0.35600684                1.24247420               -0.09546612               -0.39631376                0.51209648
              11.19844968                4.02148213               71.84761037                1.00000000               -0.23751324               -0.20503549                0.76033874               -0.06907112               -0.47700478                0.06022667
              12.19673641                3.55787668               71.42566244                1.00000000               -0.10400272               -0.05837775                0.28319733               -0.06987688               -0.49009083               -0.06477351
              13.19636963                3.09350384               71.00562463                0.61434816               -0.00830655                0.09491154               -0.20213814               -0.13628450               -0.43883018               -0.39930628
              14.19657028                2.62728420               70.58514344                0.46530029                0.08123618                0.27210492               -0.70549574               -0.18223391               -0.34949062               -0.29889680
              15.19799435                2.15915751               70.16766861                0.20524896               -0.59979217                0.41802508               -1.24675814               -1.09349803                0.52219137               -0.57231533
              16.18457443                1.67186634               69.76587587                0.00010000               -9.20632333                1.44902586               -1.61820683              -17.19452671               12.75838293               -1.95938675
              17.01386788                0.85127718               69.60028616                0.00010000               -8.46865515                2.64821666               -2.68679721              -16.71548899               23.96292358                2.67885711
              18.01520133                0.04739563               69.37229610                0.00010000                7.10865146               -0.93734717               -2.86852298              -13.84240581               19.33209977                3.12864436
              19.15604091               -0.74272163               69.10058483                1.00000000                7.32064411                0.63336061               -1.71721377              -12.92750067                7.90168095               -0.27717804
              20.16161421               -1.28207978               68.66888656                1.00000000                0.55732998                0.77206080               -2.12108953                0.23000903                0.04049349               -0.42266108
              10.66370152                5.48109158               72.13630942                1.00000000               -0.25550709               -0.33373350                1.09833534               -0.01845062                0.03408471                0.72255440
              11.66114645                5.01943178               71.71643204                1.00000000               -0.18373667               -0.18605131                0.61633524                0.00573344                0.11130031                0.08606759
              12.66002679                4.55729291               71.29752113                1.00000000               -0.04217123               -0.03874462                0.13663193                0.00360682                0.14748315               -0.25853824
              13.66030303                4.09445295               70.87836692                0.66281594                0.09471557                0.10487275               -0.34014688               -0.04164876                0.29315822               -0.38235422
              14.66192110                3.63000524               70.46294390                0.58587783                0.22326350                0.26505535               -0.87281522               -0.07316513                0.37584635               -0.27196719
              15.66476830                3.16333777               70.04656584                0.33711727                0.23241165                0.41992736               -1.41017753               -0.52325633                0.56926700               -0.47247167
              16.66656933                2.68635660               69.63677848                0.00010000               -0.29099732                0.97676605               -1.99836973              -16.47834935               13.58389405               -0.99961878
              17.65894835                1.87775935               69.48359652                0.00010000                0.36036742                0.22690039               -4.19259585              -25.19202042               21.93377485                5.59503094
              18.67377668                1.03802216               69.22640762                0.00010000                1.62776316                1.20937048               -4.87734631              -22.03880087               13.29151305                8.26797994
              19.69150361                0.26361197               68.88351054                0.74763117                1.47478847                0.19926886               -3.24664114              -11.72921032                4.66991545               -2.11959215
              20.70327245               -0.27435917               68.45114737                1.00000000                1.17688376                0.28270094               -3.69250142               -0.11878407               -0.17930507               -2.52012207
              11.12443725                6.47797697               72.00865277                1.00000000               -0.20742328               -0.28448972                0.94728817               -0.02187962                0.17981548                0.84696021
              12.12236302                6.01776111               71.58545401                1.00000000               -0.13249406               -0.14735220                0.47060448               -0.00066745                0.37819326                0.00160152
              13.12178737                5.55710179               71.16573454                0.00010000                0.02306466                0.00739244               -0.00873944               -0.02414150                0.86186707               -0.70561809
              14.12282431                5.09560129               70.75229175                0.00010000                0.22173951               -0.52393102               -0.46940725               -0.88787163                1.34627528                1.12233385
              15.12622216                4.63258530               70.34285085                0.00010000                0.41767765               -1.08541765               -1.02034359               -1.51716298                1.29048109                3.24169165
              16.13117787                4.16755606               69.92976788                0.00010000                0.71818503               -2.22653946               -1.56383983               -2.15269475                1.48303590                6.45395309
              17.14058586                3.69140166               69.52630048                0.00010000                1.35920252               -6.23842278               -2.17291035              -19.05613223               17.85125163               12.51614068
              18.15836192                2.85581519               69.44265195                0.00010000                2.39934137               -0.44141711               -5.78598447              -33.00576583               26.87427569               10.89368526
              19.18857269                2.07158304               69.19660824                0.00010000                3.77380614                5.17322190              -12.80864007              -34.72725642                4.25936825               15.20473469
              20.23383804                1.26126374               68.63028498                0.07061944                2.33040658                8.77809228               -4.62789543              -21.75562222               -5.29019588               25.90409859
              21.23518082                0.72357424               68.19304450                0.64707535                0.13427823                7.77668240               -2.89356938                2.31863059               -0.58983392               27.27483136
              11.58369566                7.47540178               71.87945176                1.00000000               -0.16873756               -0.22893950                0.79863309               -0.02650718                0.28838084                0.70097032
              12.58200829                7.01648474               71.45236506                0.45133170               -0.09959431               -0.10855079                0.32614759                0.00688364                0.49363538               -0.37472049
              13.58170378                6.55744075               71.02896588                0.00010000               -0.74731013                0.06880531               -0.13974381               -0.70656830                3.19660359               -1.18144571
              14.56706208                6.08397433               70.65610569                0.00010000               -1.10403521               -0.74705211               -0.70584486               -2.29460446                6.19679789                1.97206495
              15.55962307                5.60829689               70.29247438                0.00010000               -0.20820218               -2.01493440               -1.49531294               -3.57327459                7.73076727                5.68982261
              16.56289804                5.11880698               69.94939432                0.00010000                1.87822444               -4.50947321               -2.53594275               -7.43628656               12.01174610               10.94020216
              17.59718756                4.56158815               69.67007500                0.00010000                2.78768082               -9.01021513               -4.30584404              -17.11445086               17.84427622               17.85739559
              18.61865166                3.86893101               69.44016981                0.00010000               -1.17022798                1.57765901               -7.82627859              -26.14591129               22.88971833               11.57408324
              19.57378300                3.14148660               69.24531268                0.00010000               -0.71258418                8.67889363              -12.85359271              -28.94464852               25.52462176               17.14378206
              20.60439997                2.43917382               69.00744405                0.00010000               12.56205368               20.83404122              -65.97978090              -20.06694539               19.81633177               31.10511647
              21.82502407                1.88117448               68.58799372                0.58243249               22.06241014               22.40108336              -73.70628989               -5.31062802                7.86308142               33.17245616
              12.04174120                8.47339818               71.74838880                0.91710903               -0.12794809               -0.17226467                0.66240462               -0.01867229                0.03075500                0.59879092
              13.04046172                8.01559009               71.31369114                0.29995807               -0.07873958               -0.07760980                0.17557456                0.05867045                0.50060782               -0.55412436
              14.04016641                7.55847790               70.88807458                0.00010000               -0.71928162                0.07990436               -0.29342540               -0.90203115                5.22588268               -1.65362411
              15.02607609                7.08066025               70.54811756                0.00010000               -1.01211915               -0.21082358               -1.01695213               -2.17902115               10.13197019                0.69543397
              16.01992403                6.59228661               70.22145007                0.00010000                0.15423961               -1.30472902               -2.02277078               -3.74528329               12.04613128                3.31353146
              17.02916088                6.07736660               69.92038539                0.00010000                1.41243939               -3.04562649               -3.37280342               -7.41224780               15.08426543                6.15631707
              18.04817281                5.51119736               69.65553435                0.00010000                1.31921794               -3.10405724               -5.36996726              -13.95688813               19.06921618                7.50191856
              19.05554524                4.88736837               69.43300756                0.00010000               -0.43679528                2.15239967               -8.73453809              -18.46831351               25.01792176                8.45946512
              20.03943691                4.24516091               69.27570808                0.00010000                1.86330079                9.08545937              -17.38164696              -13.36485275               33.83811463                9.05778411
              21.09281126                3.67794457               69.18421923                0.00010000               10.27650192               17.02791827              -43.79314988               -5.50856153               26.38191691               12.29200482
              22.24496695                3.17159591               68.86930623                0.51222358               15.21556926               19.77906760              -46.67140250               -6.99271135               17.22853513               16.37295371
              12.49893840                9.47195649               71.61683096                0.91257521               -0.08364168               -0.13279085                0.53341831               -0.02822222                0.00253364                0.60963857
              13.49810198                9.01493254               71.17683166                0.28020323               -0.01727020               -0.04008577                0.02887142                0.07310690                0.28194220               -0.42662364
              14.49859299                8.55903884               70.74218007                0.00010000               -0.42145192                0.06438189               -0.45714866               -0.96608667                6.52364531               -1.77538858
              15.48967294                8.07975786               70.42738590                0.00010000               -0.52909687               -0.00378379               -1.28153742               -2.45526657               12.94926341               -0.58573562
              16.48801106                7.58220231               70.12415010                0.00010000                0.30346960               -0.64621323               -2.39081075               -4.26867156               14.38362215                0.88786898
              17.49574234                7.05789445               69.84167513                0.00010000                1.00184830               -1.19152011               -3.85281829               -7.32490899               16.59239718                2.29078206
              18.50804802                6.49950700               69.58753949                0.00010000                0.97897486               -0.38338036               -5.86750660              -10.83827688               19.58543037                3.28488400
              19.51532183                5.91197900               69.36913178                0.00010000                0.39308621                2.46577253               -9.15977937              -12.23973017               24.32651409                3.66384038
              20.51590975                5.32319579               69.20763549                0.00010000                2.62359586                6.21133707              -15.19767611               -8.55540651               28.70397246                2.64367478
              21.56779375                4.77973218               69.06455056                0.00010000                9.09787119                7.41056571              -32.21497494               -4.17606441               20.84266792               -1.39326906
              22.69786717                4.27675583               68.73928012                0.48763984               13.00734214                7.37016976              -35.50061542               -4.64524394               12.60938953               -0.68188558
              12.95522465               10.47074237               71.48580467                0.92683084               -0.03831485               -0.11270889                0.40886920               -0.03546528               -0.01180660                0.66800575
              13.95484151               10.01478838               71.04055647                0.28952511                0.03973509                0.01754524               -0.13438721                0.05740071                0.19392955               -0.38819112
              14.95601936                9.55976554               70.59926879                0.00010000               -0.05171086                0.12152989               -0.65671506               -1.04098994                7.26561431               -1.54567403
              15.95380729                9.08058457               70.29578044                0.00010000                0.01973274                0.15855348               -1.37116191               -2.61744486               14.51678790               -1.57535215
              16.95641401                8.57936235               70.00479283                0.00010000                0.57753611               -0.07477427               -2.51508693               -4.42899343               15.71362984               -0.91812938
              17.96535801                8.05353620               69.73193804                0.00010000                1.04543561               -0.07775761               -4.03673118               -6.58184459               17.26566574               -0.04024827
              18.97732272                7.50352975               69.48156561                0.00010000                1.08519205                0.70324295               -6.00170073               -8.44977664               19.28594137                0.63707863
              19.98706185                6.93668382               69.26014443                0.00010000                1.16264368                2.33991146               -8.75611493               -8.94372707               22.08109989                0.87427200
              21.00057560                6.36938766               69.07402558                0.00010000                3.43340369                3.87578394              -13.83446242               -6.98591279               23.98228960                0.32236334
              22.05572993                5.82615588               68.88368706                0.00010000                7.87195925                3.70521642              -24.31610728               -3.78040777               16.80211374               -0.26185886
              23.15801478                5.31899930               68.55321982                0.48486162               10.22848561                3.27388622              -28.00033312               -3.09963229                9.02325411                0.84724527
              13.41013707               11.46970231               71.35512659                0.93467642                0.00897553               -0.09007272                0.28344732               -0.04245882               -0.00959700                0.72501176
              14.41022683               11.01528344               70.90450134                0.30253025                0.09199629                0.08275652               -0.31471853                0.03590383                0.22970670               -0.39373459
              15.41197700               10.56146944               70.45860126                0.00010000                0.37502018                0.23505831               -0.90897512               -1.11795993                7.68341936               -1.39545338
              16.41772723               10.08292893               70.15729452                0.00010000                0.72512842                0.22108936               -1.29695590               -2.60109457               15.27598888               -2.05727975
              17.42647957                9.58070683               69.87101346                0.00010000                1.11054032                0.13561691               -2.39079705               -4.11534659               16.41316916               -1.90915075
              18.43993804                9.05633929               69.60186621                0.00010000                1.47126485                0.34749829               -3.99063674               -5.48675632               17.45715632               -1.30091206
              19.45590486                8.51357186               69.35123648                0.00010000                1.53256757                1.05277235               -5.90167889               -6.45790549               18.53001059               -0.68156993
              20.47058939                7.95877723               69.12212595                0.00010000                1.54072833                2.12754519               -8.34627576               -6.64288193               20.25461724               -0.30728809
              21.48671943                7.40071146               68.92335487                0.00010000                3.59922796                2.96275297              -12.43421153               -6.04327751               21.76152114                0.43589410
              22.54257395                6.85383651               68.72720517                0.00010000                8.17341288                3.02998049              -24.02180377               -3.69230411               15.22421488                3.84173950
              23.65018769                6.34223355               68.39735060                0.49045564               10.76137394                2.66935683              -27.19858364               -1.34959955                9.05365321                5.22384375
              13.86321321               12.46894091               71.22478699                0.93928784                0.05792437               -0.05676762                0.15354056               -0.04860313               -0.00178747                0.75935396
              14.86379245               12.01644351               70.76834797                0.32264842                0.14007310                0.15284550               -0.51811731                0.02700620                0.37475974               -0.43438363
              15.86601467               11.56446670               70.31947993                0.00010000                0.93777790                0.38304301               -1.25266707               -1.31569594                8.05168913               -1.07621585
              16.88254801               11.08500636               70.01666174                0.00010000                1.73410220                0.04088116               -1.13887742               -2.55091426               15.61980602               -1.95872473
              17.90069671               10.58207469               69.73008431                0.00010000                2.01049191               -0.10667207               -2.12138926               -3.33593738               16.61888261               -2.02084586
              18.92275785               10.06048616               69.46064008                0.00010000                2.25149808                0.29719607               -3.78467788               -3.99480572               17.25779508               -1.61941011
              19.94572668                9.52458520               69.20696550                0.00010000                2.21533797                1.02584139               -5.69985804               -4.39680914               17.56635952               -1.07031851
              20.96706461                8.97923473               68.97001017                0.00010000                1.94620437                1.95072787               -7.95493696               -4.46173333               18.69951082               -0.43188290
              21.98465076                8.42864272               68.76535517                0.00010000                3.66485736                2.87426287              -11.44949463               -3.94782082               20.16253195                0.85615317
              23.04036176                7.88675549               68.57482019                0.00010000                8.47889731                3.63543329              -24.74010780               -2.30515461               13.45218123                5.68020351
              24.15422871                7.37238644               68.24952726                0.50273186               11.38669548                3.35138304              -26.06115078               -1.24224110                9.17335278                7.83973543
              14.31415982               13.46856696               71.09425268                0.85493595                0.10813429               -0.01769528                0.02105937               -0.04653353                0.05191959                0.70637706
              15.31524116               13.01834035               70.63186630                0.25899917                0.14702026                0.22753594               -0.74371481                0.05409259                0.87690861               -0.46543570
              16.31710023               12.56913030               70.18612520                0.00010000                1.69298982                0.54794028               -1.54059591               -1.78880245                8.62284873               -0.67484063
              17.34910096               12.08374655               69.87795690                0.00010000                3.35903967               -0.83514541               -1.13817621               -2.05203942               15.62314864               -1.21918184
              18.38428102               11.57857338               69.58879492                0.00010000                3.42152248               -0.62104665               -1.87945168               -2.01133249               16.35438994               -1.29934398
              19.41753141               11.06228322               69.31593132                0.00010000                3.24695486               -0.06151909               -3.49706568               -2.03525254               16.50358411               -1.14434497
              20.44922012               10.53408869               69.05632759                0.00010000                2.98828996                0.73807623               -5.33324712               -2.16151422               16.15755790               -0.81787351
              21.47729721                9.99779179               68.81055001                0.00010000                2.55110653                1.72455264               -7.42213165               -2.11537754               16.67034031               -0.30501791
              22.50024225                9.45819672               68.59575688                0.00010000                3.77149626                2.80446432              -10.68437155               -1.68458247               18.50769193                0.92144663
              23.55272713                8.92654518               68.41264645                0.00010000                7.69193642                5.08960184              -23.39419574               -0.92560271               12.29765328                5.12367860
              24.65408098                8.40926121               68.09943157                0.51827667               10.13538415                4.78968179              -23.30150803               -1.44926228                8.81188203                7.30806788
              14.76273575               14.46858701               70.96236167                0.91367383                0.15752175                0.00200495               -0.10777306                0.09831429                0.33492099                0.66073458
              15.76431096               14.02099423               70.49571400                0.62073401                0.10483388                0.26538720               -0.95865014                0.24890480                1.66887515               -0.50179682
              16.76483242               13.57542551               70.05597747                0.39845244                3.38765875                0.62952072               -1.78816661               -2.86131905                9.50210006               -0.57941451
              17.83206414               13.06830345               69.74402303                0.36481966                5.85504902               -1.54431006               -1.11407023               -1.99226990               15.41784753               -0.33444056
              18.88193340               12.56965375               69.45228589                0.36088726                4.72366780               -0.89196294               -1.72535039               -0.68714534               15.67382697               -0.38969487
              19.92653749               12.05925578               69.17414709                0.36355382                4.25272083               -0.30274359               -3.04299560               -0.61474307               15.10936652               -0.41739899
              20.96698782               11.53934673               68.90497001                0.37294560                3.70557647                0.52580379               -4.53127616               -0.49972978               13.79775550               -0.24661805
              22.00064902               11.01372578               68.64449250                0.38922332                2.76089520                1.59339909               -6.11788097               -0.39555484               13.21824913                0.08799167
              23.02220572               10.48473200               68.41034068                0.41323823                3.50680934                2.65352796               -8.67480474                0.93743515               13.89880361                1.01638584
              24.07078521                9.98854753               68.20360315                0.47090803                6.88028353                6.20023512              -20.87134393                0.97821113                8.95627512                4.90951482
              25.15981139                9.46818007               67.88567266                0.76367055                8.90261846                5.89188605              -20.69855602               -1.46370373                5.85125493                7.07588817
              10.61964692                4.62142558               73.27893195                1.00000000               -0.27124978               -0.31194929                1.08780917               -0.07791249               -0.39084908                0.50429255
              11.61693443                4.15396961               72.85490648                1.00000000               -0.21874952               -0.18934841                0.69929161               -0.05366935               -0.47026576                0.05818826
              12.61527193                3.68611154               72.42865016                1.00000000               -0.11222488               -0.06990953                0.31357575               -0.05439025               -0.48436294               -0.06280679
              13.61468993                3.21754650               72.00423521                0.62067655               -0.03792368                0.05325505               -0.07807656               -0.11522965               -0.44188155               -0.38194228
              14.61451346                2.74731425               71.57924517                0.46467973                0.03212995                0.19522207               -0.47993215               -0.15811121               -0.37519791               -0.30132986
              15.61533253                2.27540246               71.15689684                0.18983005               -0.80000322                0.30560390               -0.91590170               -1.17258756                0.57380442               -0.56413910
              16.59851340                1.78252750               70.75205744                0.00010000               -8.04746970                1.47658299               -1.15732381              -14.92660875               12.56222683               -2.11616474
              17.45438313                1.00096317               70.57566799                0.00010000               -6.81229876                1.85857108               -2.41650262              -14.26532404               23.86649369                2.14715427
              18.46226742                0.23249170               70.34494112                0.00010000                6.71697891               -1.20052765               -2.71889096              -11.30891673               20.05121527                2.81219593
              19.58872271               -0.51955215               70.08055727                1.00000000                6.69320589                0.74616066               -2.29694982              -10.54278712                8.46806547               -0.26113073
              20.59613154               -1.05956000               69.64532797                1.00000000                0.74088262                0.83228804               -2.59209489               -0.14156527                0.05768484               -0.38650977
              11.08632377                5.61830609               73.14658500                1.00000000               -0.22690149               -0.29350482                0.95824701               -0.01547774                0.03310271                0.71155496
              12.08405475                5.15207613               72.72236352                1.00000000               -0.16920915               -0.17265871                0.56993347                0.00682791                0.11068411                0.08318961
              13.08293959                4.68541244               72.29912884                1.00000000               -0.05592379               -0.05250890                0.18346839                0.00418674                0.15076337               -0.25616652
              14.08293628                4.21807905               71.87569253                0.69172382                0.05323916                0.06019779               -0.19780527               -0.03699414                0.27576909               -0.35920216
              15.08400437                3.74926647               71.45549847                0.60394622                0.15318727                0.18883833               -0.62332964               -0.06867061                0.33315944               -0.26247476
              16.08600002                3.27845850               71.03428035                0.33563327                0.12312907                0.30993030               -1.05622682               -0.53154542                0.50069447               -0.45434751
              17.08646695                2.79729333               70.61907427                0.00010000                0.03738857                0.92602793               -1.55340166              -14.61574398               12.73171611               -1.06402289
              18.08674780                2.01954889               70.44490445                0.00010000                1.14844833               -0.35667647               -3.49772675              -21.44346549               21.28808158                5.04685745
              19.10943592                1.22048642               70.18631158                0.00010000                2.12864492                0.23473249               -3.66034819              -17.74521433               14.11947482                5.57007117
              20.12932069                0.48790945               69.85709462                1.00000000                1.26439101                0.64532126               -2.06668696               -9.45161976                5.51613458               -0.32469805
              21.13472374               -0.05123712               69.42106678                1.00000000                0.54030440                0.70164432               -2.33866121               -0.19053032               -0.20059470               -0.53960687
              11.55179729                6.61555548               73.01750760                1.00000000               -0.18326618               -0.25273603                0.82417255               -0.01955640                0.17628945                0.83619277
              12.54996463                6.15051644               72.59000792                1.00000000               -0.12222739               -0.13762901                0.43949460               -0.00102177                0.37301835               -0.00136797
              13.54935274                5.68506136               72.16596698                0.00010000                0.00656963               -0.01120817                0.05333153               -0.02794634                0.86732097               -0.69710101
              14.55009602                5.21875046               71.74841926                0.00010000                0.17039292               -0.56834460               -0.30904057               -0.83668368                1.32034946                1.07052403
              15.55276060                4.75109101               71.33402352                0.00010000                0.32893657               -1.12766457               -0.75321273               -1.35462205                1.22560700                3.06619733
              16.55667475                4.28160106               70.91602922                0.00010000                0.61737637               -2.22419856               -1.19268743               -1.81110763                1.38486310                6.02393827
              17.56510813                3.80104806               70.50685250                0.00010000                2.28229904               -6.01976920               -1.72509458              -16.70762842               16.12846591               11.49871150
              18.60232073                2.99382965               70.38569416                0.00010000                3.69472184               -1.24735741               -5.50838990              -28.68898337               23.32653172                9.99947202
              19.63900257                2.23718635               70.08542625                0.00010000                3.45465656                3.32702165               -8.77399470              -25.15317850                7.28699532               13.69757686
              20.67141387                1.49335427               69.63272664                1.00000000                1.58057611                0.35510227                0.04246177              -10.10151617               -0.79476744                0.51189697
              21.67061409                0.95447288               69.19498189                1.00000000               -0.07997770                0.36171226               -0.00878056               -0.15074828               -0.06114552                0.29687420
              12.01601074                7.61325137               72.88690857                1.00000000               -0.14822936               -0.20534767                0.69214519               -0.02577765                0.28507377                0.70244426
              13.01452844                7.14932355               72.45554913                0.43036223               -0.09320488               -0.10071442                0.30992362               -0.00080364                0.49273093               -0.38136642
              14.01414664                6.68518828               72.02794535                0.00010000               -0.71777453                0.04481048               -0.06694794               -0.71555615                3.12559641               -1.18126787
              15.00017295                6.20671216               71.64939165                0.00010000               -1.00426591               -0.81455523               -0.63248495               -2.22863542                6.06445334                1.85607786
              15.99406132                5.72671317               71.27830618                0.00010000               -0.01760649               -2.04723747               -1.36857022               -3.32443131                7.51999654                5.33375799
              16.99982082                5.23397453               70.92506348                0.00010000                2.30122411               -4.42286767               -2.39586565               -6.80578382               11.54227702               10.19171392
              18.04008580                4.67689795               70.62768861                0.00010000                3.85045088               -8.66417741               -4.30800356              -15.48070127               16.57501121               16.40704030
              19.07682984                3.99460174               70.36178466                0.00010000                3.33809590                0.63318996               -7.62635041              -23.64067536               20.56461585               11.00582304
              20.10684772                3.28702686               70.11269099                0.00010000                6.65869996                5.72068544              -14.49799455              -29.30377349                4.71218797               14.53946756
              21.21000384                2.49501150               69.42170369                0.00010000                5.13119165               11.49905431              -29.21630420              -20.68188044               -4.26590513               22.57899314
              22.20947155                1.95599712               68.98308151                0.53375448               -0.05322855               12.63659416              -30.17352019               -5.07151354               -2.71648472               25.94892898
              12.47913738                8.61144853               72.75456343                0.92547396               -0.11257350               -0.15444917                0.57049338               -0.02071023                0.02064474                0.61698084
              13.47801164                8.14850215               72.31543064                0.28261780               -0.07421861               -0.07147164                0.17367639                0.03735832                0.49702758               -0.56663283
              14.47765301                7.68595757               71.88552457                0.00010000               -0.70066134                0.04706777               -0.21623911               -0.95378280                5.09887198               -1.70024596
              15.46399842                7.20245935               71.53845828                0.00010000               -0.93216991               -0.30409761               -0.94211731               -2.21509457                9.88515980                0.55509530
              16.45900961                6.71014626               71.20204856                0.00010000                0.31879430               -1.35135840               -1.92667004               -3.67730915               11.71819882                3.00717114
              17.47037430                6.19314371               70.88740699                0.00010000                1.79286426               -2.96808796               -3.33952150               -7.21299568               14.57306846                5.59446418
              18.49486689                5.62776451               70.60108785                0.00010000                2.45020082               -2.96000678               -5.52990586              -13.67127791               18.21158698                6.80101131
              19.51937832                5.00649344               70.34508606                0.00010000                2.88252205                1.79366431               -9.28354237              -19.13086378               21.06933564                7.74674963
              20.55251733                4.35160006               70.07975028                0.00010000                3.47138363                7.53796504              -17.62257420              -19.86526185               23.82546083                8.05890523
              21.58880599                3.72333536               69.81716089                0.00010000                4.73476194               19.04811766              -31.75167017              -15.72317778               16.40151683               25.01419962
              22.64721257                3.20720477               69.42803826                0.46001878                5.84065813               20.98144128              -37.06338440               -6.82598949                2.85461411               27.98244170
              12.94148930                9.61016238               72.62178015                0.92366412               -0.07227263               -0.11458927                0.45189579               -0.02816325               -0.00125015                0.64264337
              13.94076657                9.14789411               72.17715572                0.26595388               -0.01877591               -0.03943528                0.03969709                0.03758677                0.27568708               -0.44994670
              14.94111378                8.68612963               71.73785270                0.00010000               -0.45421016                0.02235601               -0.39711971               -1.05550819                6.37285169               -1.88273066
              15.93168237                8.20063021               71.41538464                0.00010000               -0.56415001               -0.08610373               -1.18134997               -2.53838564               12.65151154               -0.64340788
              16.92983078                7.69968601               71.10116300                0.00010000                0.31301457               -0.66096927               -2.29853350               -4.23134195               14.00346262                0.72700053
              17.93794266                7.17461277               70.80376660                0.00010000                1.17398670               -1.06106050               -3.84993509               -7.25108767               16.13634557                1.94627904
              18.95331051                6.61769781               70.52799909                0.00010000                1.62171806               -0.13571849               -6.12557072              -11.02333571               18.83886182                2.80511207
              19.97037702                6.03047502               70.27431603                0.00010000                1.96950288                2.81409312               -9.81024471              -13.36928003               21.91393887                3.07096730
              20.99270057                5.43778616               70.03822193                0.00010000                3.47792792                7.50848971              -16.72906376              -12.58542587               22.82051314                3.68376609
              22.03993558                4.87597385               69.77110638                0.00010000                5.62561907               12.00741103              -26.11794557               -7.40301998               15.51913077                1.71153508
              23.10521295                4.37562595               69.40891700                0.45218219                6.52773732               12.92145004              -29.75811148               -3.65853109                6.07711327                2.60790590
              13.40311065               10.60915674               72.48955207                0.93993847               -0.03145256               -0.08854334                0.33446358               -0.03220796               -0.01268460                0.70960152
              14.40279613               10.14771344               72.03931149                0.27519044                0.03480474                0.00893476               -0.10719187                0.01603814                0.18175796               -0.42870172
              15.40380675                9.68640469               71.59283543                0.00010000               -0.15608984                0.07422933               -0.60081104               -1.13323384                7.15665896               -1.71523201
              16.39967433                9.20073728               71.28247897                0.00010000               -0.17032696                0.11405522               -1.32095148               -2.68047621               14.25863905               -1.50279475
              17.40040021                8.69692688               70.98044737                0.00010000                0.38332062               -0.02125706               -2.44998280               -4.30891686               15.30095467               -0.90315006
              18.40734074                8.17192250               70.69224800                0.00010000                0.90688573                0.13602185               -4.03125165               -6.42809215               16.83779898               -0.24555669
              19.41853792                7.62505014               70.42107644                0.00010000                1.22818160                1.11637984               -6.22889482               -8.49418462               18.77839194                0.23443146
              20.43190437                7.06277531               70.16825826                0.00010000                1.83860324                3.16669772               -9.56676221               -9.38608432               20.67945725                0.42211941
              21.45530999                6.50176985               69.92408955                0.00010000                3.55007141                5.58429331              -15.00711318               -8.09095551               20.34036993                0.04112239
              22.50290580                5.96348358               69.65079361                0.00010000                5.97138871                7.24107259              -21.91792621               -4.82293044               13.28372006               -0.44764121
              23.57473776                5.46563377               69.28335945                0.45132853                7.18319594                7.25218447              -25.20852424               -2.47519025                5.86083145               -0.09536405
              13.86373174               11.60839152               72.35763332                0.94796906                0.01076456               -0.06137283                0.21257501               -0.03426941               -0.00720000                0.76734389
              14.86383939               11.14807281               71.90155503                0.28637435                0.08467617                0.06425858               -0.26351599                0.00137679                0.19868094               -0.45162914
              15.86542526               10.68761422               71.44957546                0.00010000                0.18556332                0.17714340               -0.84301385               -1.16225117                7.68638321               -1.65342504
              16.86755065               10.20291131               71.14372615                0.00010000                0.35209755                0.26633866               -1.37236486               -2.58368947               15.15477587               -1.91086057
              17.87246722                9.69926087               70.84720470                0.00010000                0.68534474                0.30364635               -2.42213713               -3.87977723               15.96339444               -1.76404962
              18.88125755                9.17733320               70.56283450                0.00010000                1.00533990                0.66119013               -3.96381438               -5.19918202               16.99999676               -1.42932657
              19.89257401                8.64002541               70.29230236                0.00010000                1.23390373                1.57232582               -6.04186457               -6.23511352               18.23234707               -1.12429334
              20.90593562                8.09380898               70.03604519                0.00010000                1.87995863                2.97630986               -8.99346936               -6.49808723               19.37841306               -0.90124128
              21.93017319                7.54947202               69.78567333                0.00010000                3.68387164                4.43859702              -13.88599174               -5.53986009               18.66319487               -0.48081062
              22.97961306                7.02079530               69.50500377                0.00010000                6.06177927                5.29353998              -20.56532254               -3.22503236               12.07175715                0.29891707
              24.05140877                6.52066964               69.13942136                0.45312471                7.17957163                5.12285937              -23.86555414               -1.92584594                5.09271473                1.48542478
              14.32306268               12.60792929               72.22599623                0.95245149                0.05382780               -0.02839506                0.08517246               -0.03469445               -0.00215743                0.79816916
              15.32360096               12.14899861               71.76354015                0.30255844                0.13302702                0.12224041               -0.43012836                0.00257080                0.28885189               -0.50976136
              16.32572322               11.68994756               71.30700555                0.00010000                0.63764686                0.30297873               -1.15006639               -1.20592453                8.19359770               -1.38319246
              17.33635390               11.20606405               71.00312554                0.00010000                1.13297751                0.20806369               -1.38472574               -2.36241526               15.72413937               -1.85311463
              18.34838277               10.70299980               70.70793379                0.00010000                1.31193312                0.23403391               -2.28349690               -3.06538382               16.20581210               -1.88414916
              19.36259256               10.18514630               70.42382405                0.00010000                1.44885543                0.70897696               -3.73310737               -3.67980333               16.76475869               -1.73431424
              20.37735988                9.65649666               70.15105619                0.00010000                1.49517294                1.55733114               -5.67543249               -4.07466066               17.42831029               -1.54663307
              21.39249602                9.12230150               69.89024736                0.00010000                2.00832902                2.70037495               -8.33345011               -4.00400479               18.11702917               -1.28129797
              22.41752646                8.59054179               69.63560706                0.00010000                3.73557630                3.98161831              -13.06447990               -3.34624739               17.49632047               -0.49251053
              23.46720754                8.06935438               69.35409174                0.00010000                5.94728596                5.01625412              -20.10605368               -1.98775571               11.38706658                0.84737707
              24.53647218                7.56809095               68.99367900                0.45716415                6.92646363                5.23341172              -23.57589142               -1.30734905                4.44552698                2.42808372
              14.78089920               13.60782361               72.09411947                0.86332421                0.09733323                0.00782041               -0.04710007               -0.03103052                0.04692538                0.74504496
              15.78187253               13.15051762               71.62511486                0.23276474                0.16710677                0.17969680               -0.59862413                0.03551052                0.76632577               -0.54636594
              16.78424134               12.69367379               71.17073137                0.00010000                1.26887835                0.41625518               -1.41562181               -1.39346861                8.92895065               -1.04073541
              17.80725010               12.20707259               70.86423507                0.00010000                2.39179745               -0.40447553               -1.39484066               -1.74079700               16.01500050               -1.27527548
              18.83207729               11.70394154               70.56854159                0.00010000                2.34572627               -0.12915047               -2.09146987               -1.80227128               16.12856787               -1.24207191
              19.85416463               11.19151274               70.28251991                0.00010000                2.09241574                0.44230308               -3.37504477               -1.87738190               16.19101286               -1.23080152
              20.87392560               10.67117203               70.00552034                0.00010000                1.88228839                1.27466831               -5.11224087               -1.93928588               16.30093909               -1.17094117
              21.89181039               10.14781648               69.73815647                0.00010000                2.11348817                2.31648141               -7.48455204               -1.70865166               16.57992550               -0.99815455
              22.91619536                9.62910439               69.47760865                0.00010000                3.52491940                3.63382216              -11.87256255               -1.18879996               15.86076158               -0.45408669
              23.96230878                9.12112039               69.19412430                0.00010000                5.57966389                4.99812920              -19.38211046               -0.64009636               10.40287467                0.53373069
              25.02778864                8.62533787               68.84000507                0.46232441                6.54798600                5.88739705              -23.43819682               -0.85069619                4.33374829                2.10088473
              15.23705407               14.60808570               71.96092047                0.91669541                0.14069217                0.02620813               -0.17473778                0.06617186                0.33929490                0.70085933
              16.23846099               14.15259255               71.48713428                0.60429703                0.21224065                0.20749330               -0.75827159                0.16819371                1.52194983               -0.57945403
              17.24129888               13.69827266               71.03735970                0.37866966                2.64046092                0.45988656               -1.73700548               -2.02514619               10.11382033               -1.09161732
              18.29127021               13.19797454               70.73160659                0.36450472                4.32991538               -0.90980454               -1.26915357               -1.49078267               16.14615069               -0.41851630
              19.32789719               12.70041680               70.43483309                0.36096312                3.32721123               -0.35247489               -1.80902173               -0.61711859               15.82904865               -0.48641675
              20.35781443               12.19399237               70.14603792                0.36338626                2.71866212                0.24796219               -2.84718486               -0.55635792               15.39492238               -0.51536136
              21.38227043               11.68199003               69.86362407                0.37209436                2.12880980                1.08179936               -4.19204359               -0.43357881               14.90970761               -0.53422999
              22.40039063               11.16863113               69.58805157                0.38732478                1.90880609                2.08146554               -5.96967977               -0.08056617               14.59359212               -0.50414263
              23.42044655               10.66321824               69.31728686                0.40968879                2.88907540                3.41138470               -9.51609157                0.45941022               13.72727641               -0.17869315
              24.45817213               10.16931696               69.02622558                0.44061032                4.52883681                4.81965762              -15.87737543                0.71736820                8.53261815               -0.73996052
              25.51102329                9.68583889               68.67016404                0.73303316                5.28511521                6.05010237              -19.70104244               -0.02434231                2.97686307                0.95436180
              11.04172064                4.75943140               74.28904638                1.00000000               -0.23944867               -0.26843758                0.93730526               -0.06136808               -0.38835727                0.49914282
              12.03932615                4.28773182               73.86159620                1.00000000               -0.20001138               -0.17376968                0.63897568               -0.03939774               -0.46754913                0.05674181
              13.03772041                3.81566318               73.43193396                1.00000000               -0.11945846               -0.08104273                0.34193570               -0.03981133               -0.48261801               -0.06084499
              14.03693699                3.34295035               73.00406310                0.62771988               -0.06578620                0.01345171                0.04046156               -0.09442911               -0.44474836               -0.36517362
              15.03640469                2.86875101               72.57554480                0.46462896               -0.01394062                0.12263951               -0.26607275               -0.13295373               -0.39551233               -0.30234383
              16.03665817                2.39310771               72.14935058                0.17551399               -0.96784344                0.20107269               -0.60315023               -1.20725919                0.64398648               -0.55949798
              17.01704782                1.89550939               71.74272939                0.00010000               -6.91720492                1.47716939               -0.72421546              -12.51484382               12.16688519               -2.30583567
              17.89831407                1.15574736               71.55195611                0.00010000               -5.28557311                1.29229694               -2.29251112              -11.81467850               23.20277388                1.58244982
              18.91133636                0.42089864               71.31791828                0.00010000                6.33506515               -1.19601750               -2.69779373               -9.57435052               20.00925089                2.11273914
              20.02501538               -0.30101895               71.05464583                1.00000000                6.09450776                0.59675875               -2.56874870               -8.90373834                8.70522155               -0.05478904
              21.03322651               -0.84128759               70.61704466                1.00000000                0.82111362                0.64823606               -2.75157313               -0.21789168                0.00902931               -0.08576932
              11.51280654                5.75674703               74.15547436                1.00000000               -0.19902545               -0.25270702                0.82147046               -0.01320239                0.03138635                0.70389976
              12.51081629                5.28599413               73.72783071                1.00000000               -0.15467518               -0.15918441                0.52348216                0.00717910                0.10900043                0.08122781
              13.50971304                4.81485276               73.30119050                1.00000000               -0.06837515               -0.06599582                0.22696159                0.00463923                0.15372107               -0.25386500
              14.50944878                4.34308487               72.87441082                0.72065600                0.01417165                0.01811524               -0.06258667               -0.03187890                0.26401708               -0.33615635
              15.50999647                3.86997740               72.45047731                0.62180919                0.08788022                0.11752645               -0.38906862               -0.06233877                0.30085285               -0.25371146
              16.51120639                3.39511844               72.02544131                0.33499412                0.02915448                0.20719947               -0.72333023               -0.51541671                0.43545549               -0.44066498
              17.51057956                2.91028109               71.60571045                0.00010000                0.31331403                0.86260773               -1.12873576              -12.50028485               11.98483266               -1.16326230
              18.51747267                2.16867033               71.41364198                0.00010000                1.66982229               -0.84114667               -2.79465954              -17.66689496               20.50492074                3.89892719
              19.54397601                1.40893846               71.15320066                0.00010000                2.47992200               -0.08717336               -2.98432685              -14.38889629               14.94156611                3.71683495
              20.56707111                0.70494864               70.84217680                1.00000000                1.36701185                0.39557812               -1.43605566               -8.01860120                6.36598699               -0.07808255
              21.57131624                0.16519477               70.40437415                1.00000000                0.42451343                0.43922935               -1.57882584               -0.16434229               -0.01955993               -0.15077282
              11.98296240                6.75437726               74.02513622                1.00000000               -0.15983898               -0.21760962                0.70253727               -0.01743952                0.17260747                0.82888700
              12.98136401                6.28454813               73.59424390                1.00000000               -0.11199688               -0.12797186                0.40723101               -0.00120791                0.36809366               -0.00304619
              13.98072246                5.81434327               73.16680117                0.00010000               -0.00946216               -0.02974727                0.11128250               -0.02876691                0.87550422               -0.69089612
              14.98117476                5.34331265               72.74611094                0.00010000                0.12009411               -0.60140002               -0.15769004               -0.73501007                1.30270934                0.97121915
              15.98312434                4.87110154               72.32778659                0.00010000                0.24356951               -1.15151957               -0.50388846               -1.08531222                1.17407198                2.79808675
              16.98604615                4.39725170               71.90591413                0.00010000                0.51829477               -2.19274779               -0.84271917               -1.25926132                1.28805392                5.43582183
              17.99349024                3.91276155               71.49179859                0.00010000                3.01363243               -5.73937415               -1.28964244              -13.84701152               14.30937742               10.16978423
              19.04631880                3.13892442               71.33248416                0.00010000                4.68949417               -1.95073755               -4.76598662              -23.30687259               20.56196541                8.24037557
              20.08728012                2.41915517               71.02112835                0.00010000                3.10341224                1.45067262               -5.11831890              -18.39500439                9.23940279                8.07873779
              21.10838705                1.70689262               70.63113421                1.00000000                1.10836471                0.06853979               -0.25619596               -8.50189638                2.35650250               -0.01074138
              22.10944741                1.16749700               70.19286889                1.00000000                0.10603669                0.09509574               -0.31597216               -0.10843705                0.05767456               -0.09106612
              12.45211601                7.75239483               73.89329466                1.00000000               -0.12898842               -0.17555233                0.58523421               -0.02315057                0.28181529                0.70472786
              13.45082612                7.28343469               73.45856354                0.41685645               -0.08714133               -0.09486446                0.29243762               -0.00299454                0.49024867               -0.38591796
              14.45037318                6.81425781               73.02762692                0.00010000               -0.64179039                0.01111792                0.00092425               -0.69920353                3.01147408               -1.18631615
              15.43799031                6.33105687               72.64345599                0.00010000               -0.80110013               -0.87717389               -0.56108932               -2.06151377                5.81989557                1.66741928
              16.43435118                5.84694701               72.26510297                0.00010000                0.31854171               -2.07641561               -1.27681465               -2.87892137                7.10096659                4.86349601
              17.44436115                5.35126348               71.90147701                0.00010000                2.88077147               -4.33494730               -2.31537001               -5.79582960               10.53242273                9.20787522
              18.49196661                4.79549360               71.58391493                0.00010000                5.02902235               -8.29272181               -4.22711104              -13.01863276               14.44897586               14.67701975
              19.54494160                4.12965558               71.28764280                0.00010000                5.80705599               -0.45762193               -7.10819152              -20.27954894               14.73590418                9.44333827
              20.60810773                3.43795191               70.95535279                0.00010000                5.18748798                3.08264550              -11.61953570              -23.33724819                3.86139341               10.92420415
              21.64869136                2.70631944               70.42311797                0.00010000                1.99155087                6.09666275                0.28560901              -15.33443330               -4.64783430               16.74737752
              22.64793874                2.16709668               69.98452331                0.47816345               -0.07526111                6.89561260                0.26620379               -5.37942221               -0.01146190               17.57828406
              12.92041968                8.75086622               73.75979867                0.93606730               -0.09785386               -0.12870605                0.47596063               -0.01922469                0.01202219                0.62997028
              13.91944114                8.28265084               73.31716467                0.27461785               -0.06517328               -0.06909647                0.17386501                0.02082322                0.48754142               -0.57651302
              14.91911621                7.81456563               72.88374980                0.00010000               -0.60929244               -0.00922234               -0.13889244               -0.97168668                4.90702224               -1.76252822
              15.90725529                7.32576918               72.52927521                0.00010000               -0.68884581               -0.40939248               -0.90557673               -2.17949203                9.46375970                0.42587716
              16.90533929                6.82957322               72.18291667                0.00010000                0.71638390               -1.43017482               -1.91527257               -3.49346280               11.04615609                2.68726590
              17.92158297                6.31055276               71.85359495                0.00010000                2.46930966               -2.96422333               -3.38202630               -6.76970532               13.39506123                5.01497345
              18.95472549                5.74690711               71.54493623                0.00010000                3.83432735               -2.99364790               -5.59710780              -12.92357731               15.70143012                6.13608665
              19.99826951                5.12977199               71.24733671                0.00010000                4.45729037                1.02852845               -9.17504661              -18.38314299               16.13220329                7.03207281
              21.04387130                4.48080808               70.92325659                0.00010000                3.71420484                5.72899632              -13.59027264              -21.67620879               12.95988520                9.63443572
              22.07255361                3.82882587               70.54918583                0.00010000                1.82165906               13.70053654              -20.11137582              -15.83044448                7.25279804               20.02557957
              23.08030448                3.30540925               70.12803854                0.44490871                0.77508655               15.32480390              -22.02654455               -7.54918984                1.56537554               21.95894350
              13.38816225                9.74982071               73.62586887                0.93720397               -0.06190783               -0.08924949                0.36450264               -0.02517263               -0.00322441                0.66178792
              14.38754318                9.28205276               73.17762560                0.26190336               -0.01705692               -0.04179041                0.05618475                0.00024111                0.24960898               -0.46733608
              15.38782112                8.81407336               72.73423767                0.00010000               -0.40751493               -0.04137454               -0.31578217               -1.11574494                6.13566682               -1.99560592
              16.37939288                8.32286902               72.40375890                0.00010000               -0.40613874               -0.17910054               -1.15750600               -2.58085051               12.15794014               -0.68941299
              17.37969834                7.81834351               72.07817943                0.00010000                0.61201381               -0.71577887               -2.32150468               -4.17826104               13.26165914                0.59603400
              18.39163315                7.29197902               71.76467642                0.00010000                1.72887449               -1.04977966               -3.94832983               -7.14104580               14.95626042                1.71208824
              19.41427583                6.73562065               71.46502807                0.00010000                2.58723077               -0.14959982               -6.30458765              -10.97990281               16.66573204                2.54212356
              20.44337777                6.15022615               71.17292688                0.00010000                3.06269176                2.68125326               -9.83094407              -14.18602169               17.53586875                3.31169885
              21.47552967                5.55253184               70.87305422                0.00010000                3.20517646                7.09753141              -15.00555384              -14.44598126               16.10378848                4.80557708
              22.50748130                4.98033017               70.54219165                0.00010000                3.41292647               12.72398959              -20.27465852               -9.46791306               10.02940459                6.66365882
              23.54378820                4.47359276               70.14411789                0.44362906                3.63068974               14.05892063              -23.03937284               -4.18397831                4.36331566                7.61893550
              13.85545213               10.74908123               73.49249394                0.95501996               -0.02588239               -0.06078377                0.25305630               -0.02724844               -0.01228012                0.72915225
              14.85519331               10.28181504               73.03841263                0.27770945                0.02664614               -0.00152776               -0.06955928               -0.03139765                0.13902106               -0.45532967
              15.85598506                9.81373814               72.58725257                0.00010000               -0.19125894                0.00787255               -0.48672799               -1.19577227                6.92276734               -1.84229066
              16.85136813                9.32218716               72.26936141                0.00010000               -0.16604915                0.05980682               -1.31073699               -2.73399290               13.79591614               -1.47342542
              17.85266407                8.81525765               71.95579317                0.00010000                0.50583944               -0.02020508               -2.50340137               -4.28446200               14.58666632               -0.88083319
              18.86148492                8.28955716               71.65131300                0.00010000                1.21081155                0.20988472               -4.15471773               -6.40676845               15.79209580               -0.29533341
              19.87688030                7.74391512               71.35698771                0.00010000                1.80764841                1.27427994               -6.46614741               -8.65474128               17.03015499                0.18369994
              20.89763789                7.18339705               71.06880919                0.00010000                2.39836723                3.42685766               -9.79998961               -9.98737477               17.57596931                0.58013017
              21.92484765                6.62275871               70.77388331                0.00010000                3.22482709                6.35229526              -14.26583021               -9.22981536               15.76084285                0.84998345
              22.96213443                6.08330566               70.44532854                0.00010000                4.26260374                8.80932737              -18.81782817               -5.66956427                9.77372148                0.88040624
              24.01009972                5.58658766               70.04904933                0.44376011                4.79652944                9.40148665              -21.20977220               -2.70086951                4.38262429                1.03863147
              14.32214966               11.74860504               73.35937809                0.96336968                0.01086493               -0.03315389                0.13751156               -0.02677924               -0.00491034                0.78083868
              15.32225831               11.28202220               72.89923102                0.29381381                0.06919395                0.04367073               -0.19790614               -0.05036841                0.12769548               -0.48381958
              16.32353354               10.81423082               72.44174098                0.00010000                0.04675982                0.09544042               -0.66423305               -1.18204352                7.50056879               -1.80484926
              17.32319351               10.32406515               72.12984722                0.00010000                0.15527802                0.26239921               -1.38601854               -2.57784860               14.81874427               -1.84181107
              18.32663910                9.81793941               71.82257072                0.00010000                0.58234028                0.38985837               -2.51439893               -3.82190356               15.34844778               -1.66637820
              19.33484031                9.29617671               71.52258992                0.00010000                1.03510070                0.82786511               -4.10106858               -5.16937309               16.13809143               -1.40399179
              20.34734112                8.76110625               71.23039919                0.00010000                1.49731835                1.82597189               -6.28073712               -6.32120734               16.91841380               -1.16881250
              21.36478668                8.21876330               70.94225656                0.00010000                2.18418152                3.40502172               -9.34391388               -6.71560318               17.03915460               -0.98832819
              22.39102475                7.67957775               70.64563503                0.00010000                3.27371895                5.20492387              -13.42423739               -5.81807188               15.03019500               -0.85079350
              23.43026106                7.15651672               70.31589872                0.00010000                4.60910324                6.56384227              -17.57951282               -3.50292685                9.20100473               -0.63183673
              24.48320681                6.66162249               69.92003952                0.44470113                5.29457512                6.68883723              -20.08812319               -1.79617160                4.24560667               -0.24379235
              14.78808222               12.74841815               73.22649044                0.96763475                0.04779464               -0.00307116                0.01730001               -0.02507492               -0.00190969                0.80272574
              15.78856016               12.28268845               72.75974540                0.31418324                0.11095103                0.08983481               -0.32756378               -0.05368653                0.16568195               -0.54272758
              16.79030124               11.81564694               72.29647860                0.00010000                0.37711994                0.18653128               -0.86333501               -1.11139084                8.07564878               -1.53690379
              17.79610256               11.32743515               71.98896722                0.00010000                0.69066025                0.28474166               -1.41081239               -2.20974466               15.59805099               -1.80774596
              18.80411444               10.82305481               71.68441437                0.00010000                0.94140311                0.44466187               -2.41255690               -2.96961273               15.75266638               -1.78605033
              19.81493062               10.30611447               71.38597794                0.00010000                1.18775639                0.96383009               -3.87212217               -3.65438306               16.14422610               -1.70774277
              20.82786957                9.78043455               71.09345685                0.00010000                1.49618498                1.84978673               -5.87200374               -4.11778780               16.51179841               -1.64593467
              21.84485432                9.25149749               70.80334117                0.00010000                2.14316122                3.06305942               -8.69878347               -4.07783170               16.34269207               -1.57207237
              22.87073279                8.72685718               70.50406557                0.00010000                3.25884097                4.39287208              -12.59430656               -3.32250357               14.28005134               -1.42423666
              23.91003114                8.21458251               70.17269912                0.00010000                4.66159693                5.42846203              -16.74975661               -1.91828166                8.69030497               -1.08342225
              24.96396473                7.72036440               69.77800943                0.44639989                5.39335900                5.65856903              -19.58071814               -1.13243069                4.12932682               -0.61824470
              15.25310756               13.74854361               73.09331068                0.87292774                0.08482279                0.02920276               -0.10768885               -0.02188169                0.04819592                0.74556011
              16.25395579               13.28381890               72.61989382                0.24231358                0.17257350                0.13389217               -0.45200197               -0.04158061                0.60245447               -0.57307785
              17.25655903               12.81796144               72.15781276                0.00010000                0.88174806                0.23447708               -1.06129660               -1.08618166                8.86543335               -1.22536898
              18.27159075               12.32975999               71.85006009                0.00010000                1.60042521               -0.11225364               -1.40579025               -1.48587919               16.11899167               -1.23245654
              19.28856753               11.82683265               71.54696552                0.00010000                1.63910830                0.21438069               -2.23215349               -1.71690328               15.94674182               -1.19678172
              20.30437291               11.31545331               71.24843042                0.00010000                1.55174040                0.78990351               -3.51959382               -1.90081699               15.92775513               -1.21582649
              21.31960234               10.79810198               70.95408277                0.00010000                1.62172517                1.60100567               -5.28931879               -2.00650370               15.92810321               -1.24793003
              22.33680742               10.28002449               70.66085897                0.00010000                2.09436564                2.61776197               -7.81295199               -1.83315179               15.51419811               -1.26180605
              23.36148965                9.76743519               70.35830563                0.00010000                3.07903958                3.74722655              -11.45268802               -1.35470397               13.48690349               -1.23893614
              24.39838821                9.26508596               70.02500424                0.00010000                4.37523764                4.74816250              -15.55110473               -0.70560288                8.21397811               -1.10010708
              25.44899441                8.77479388               69.63066763                0.44889856                5.06061978                5.32924853              -18.80062512               -0.65385742                3.92406144               -0.89671764
              15.71709401               14.74900220               72.95886692                0.92052280                0.12167116                0.04585883               -0.22650344                0.03505457                0.33509746                0.69929287
              16.71831072               14.28536629               72.48054857                0.60406845                0.27712530                0.15473949               -0.57360336                0.00220791                1.26696190               -0.59681447
              17.72263652               13.82033649               72.02123736                0.37396106                1.96015227                0.23750444               -1.33276544               -1.40106193               10.08323115               -1.29323026
              18.75751377               13.32519008               71.71863996                0.36427680                3.07232650               -0.45699092               -1.32255257               -1.05740074               16.64127527               -0.48147978
              19.78408305               12.82734243               71.41610545                0.36096008                2.40655922                0.05097772               -1.99429172               -0.61232548               16.00544642               -0.52737237
              20.80564495               12.32191254               71.11720339                0.36321871                1.95426368                0.64592218               -3.07075267               -0.61718395               15.70668815               -0.57356282
              21.82316832               11.81245467               70.82112914                0.37134454                1.66065635                1.43526869               -4.53192197               -0.54639238               15.41748147               -0.65140543
              22.83885808               11.30385272               70.52509890                0.38545984                1.77044621                2.38282377               -6.61795058               -0.32758116               14.86016282               -0.73068895
              23.85857725               10.80180172               70.22001885                0.40623885                2.48511583                3.43665288               -9.69753364               -0.00658905               12.94672667               -0.91055004
              24.88856040               10.30954576               69.88605564                0.43139089                3.64472498                4.44598026              -13.31698517                0.27460186                7.97395761               -1.06400085
              25.93147175                9.82694937               69.49165181                0.72518649                4.29113485                5.21554999              -16.46668074               -0.01190437                4.15246248               -1.30665788
              11.46678013                4.89855248               75.29767806                1.00000000               -0.20842663               -0.22582445                0.79157298               -0.04583791               -0.38771744                0.49543843
              12.46469587                4.42263544               74.86768599                1.00000000               -0.18137282               -0.15824580                0.57928478               -0.02627157               -0.46740308                0.05569385
              13.46315268                3.94638155               74.43548888                1.00000000               -0.12558729               -0.09136166                0.36738150               -0.02627012               -0.48350821               -0.05874463
              14.46218412                3.46954759               74.00504444                0.63531307               -0.09184714               -0.02395101                0.15186521               -0.07439132               -0.44732105               -0.34831146
              15.46131573                2.99140234               73.57392372                0.46510200               -0.05782282                0.05480988               -0.06494905               -0.10830700               -0.41227138               -0.30296202
              16.46102766                2.51203105               73.14483384                0.16229544               -1.10350838                0.10505971               -0.31000030               -1.20285056                0.72754259               -0.55804020
              17.43924557                2.01044867               72.73757313                0.00010000               -5.88889710                1.45102185               -0.32811688              -10.26779447               11.61320911               -2.52912680
              18.34324972                1.30924043               72.52981777                0.00010000               -3.97414229                0.77589513               -2.06820125               -9.70271946               22.16124951                1.06103744
              19.35976272                0.60418172               72.29098525                0.00010000                6.02255190               -1.25686687               -2.60500455               -8.25054635               19.78555781                1.49320266
              20.46370076               -0.09570988               72.02918230                1.00000000                5.58758705                0.55693024               -2.49985333               -7.82918628                8.87884959               -0.07113274
              21.47151446               -0.63593437               71.59029651                1.00000000                0.78137010                0.58575602               -2.59547812               -0.18010951               -0.00797725               -0.05756658
              11.94223880                5.89629424               75.16301441                1.00000000               -0.17201791               -0.21197827                0.68881183               -0.01142827                0.02922407                0.69777222
              12.94051862                5.42105298               74.73283316                1.00000000               -0.14024498               -0.14563783                0.47705101                0.00696933                0.10656665                0.07980389
              13.93943390                4.94546793               74.30366808                1.00000000               -0.07944036               -0.07872656                0.26632328                0.00491101                0.15638324               -0.25121281
              14.93892981                4.46930808               73.87444080                0.74933181               -0.02214799               -0.02089641                0.06377130               -0.02684145                0.25556383               -0.31283746
              15.93899094                3.99195044               73.44771710                0.63943296                0.02730920                0.05123726               -0.17119840               -0.05516632                0.27486615               -0.24625395
              16.93947599                3.51308164               73.01981375                0.33497226               -0.05140047                0.11253740               -0.41337348               -0.47976894                0.37565856               -0.43074678
              17.93796293                3.02495889               72.59649955                0.00010000                0.49400033                0.78952969               -0.72586016              -10.53010851               11.31743093               -1.29023645
              18.94935600                2.31699939               72.38901126                0.00010000                2.08847437               -1.23020495               -2.18157486              -14.61826362               19.74716749                2.68459140
              19.97973242                1.59161306               72.12662504                0.00010000                2.80554708               -0.37863732               -2.41715771              -12.08810610               15.56961692                2.45739876
              21.00546694                0.90985942               71.82837351                1.00000000                1.51027171                0.39540830               -1.40278337               -6.92936235                7.02963054               -0.08498244
              22.00993785                0.36992319               71.38949026                1.00000000                0.44709070                0.42183805               -1.48551848               -0.15443405                0.00608642               -0.09352531
              12.41703408                6.89431291               75.03155835                1.00000000               -0.13725215               -0.18053775                0.58356359               -0.01549840                0.16872757                0.82231648
              13.41566156                6.41972268               74.59815254                1.00000000               -0.10191441               -0.11842775                0.37423829               -0.00116797                0.36317915               -0.00365922
              14.41499579                5.94480702               74.16819263                0.00010000               -0.02483884               -0.04773035                0.16457506               -0.02716227                0.88489762               -0.68610667
              15.41516478                5.46912967               73.74526546                0.00010000                0.07215275               -0.62059074               -0.01732435               -0.61074627                1.28910564                0.82396906
              16.41643885                4.99242709               73.32394575                0.00010000                0.16295274               -1.15487096               -0.27340531               -0.78895892                1.13178652                2.44311547
              17.41842384                4.51428180               72.89917484                0.00010000                0.41434036               -2.13152176               -0.51736346               -0.70032507                1.20174524                4.70941735
              18.42472565                4.02623926               72.48105965                0.00010000                3.29032233               -5.38290941               -0.86765657              -11.23544295               12.78651471                8.75131302
              19.48423028                3.28463634               72.29037443                0.00010000                5.02074548               -2.41917188               -3.63080007              -18.94381098               18.73812612                6.02856416
              20.52514056                2.59660898               71.98305987                0.00010000                3.12865453                0.58848178               -3.19854355              -15.17850214               10.55841751                5.06504418
              21.54680337                1.91219828               71.62760272                1.00000000                1.15788336                0.10240064               -0.40079530               -7.08484495                4.16206106               -0.02078091
              22.54829823                1.37250240               71.18866245                1.00000000                0.14948571                0.12349753               -0.45766794               -0.14490031                0.01267961               -0.04420327
              12.89110930                7.89268348               74.89861325                1.00000000               -0.11081393               -0.14195944                0.47965404               -0.01931850                0.27811039                0.70425383
              13.89000116                7.41868442               74.46139788                0.41597514               -0.08128150               -0.09064309                0.27392980               -0.00101890                0.48495592               -0.38675006
              14.88948367                6.94451332               74.02796383                0.00010000               -0.54531717               -0.03553806                0.06395648               -0.65505229                2.84996970               -1.19338478
              15.87909481                6.45689627               73.63816987                0.00010000               -0.57120185               -0.92278388               -0.49126896               -1.83591711                5.44454864                1.40427556
              16.87805963                5.96885302               73.25276989                0.00010000                0.62812508               -2.08059838               -1.17218822               -2.36354591                6.46219241                4.25275663
              17.89165732                5.47045121               72.87875608                0.00010000                3.24199494               -4.20190136               -2.14760519               -4.68600969                9.22086317                8.02814521
              18.94289953                4.91730070               72.54314639                0.00010000                5.42263761               -7.84330790               -3.80777099              -10.57035877               11.88986409               12.69617123
              20.00011007                4.26861595               72.21962083                0.00010000                5.28504478               -1.13927571               -5.81586369              -16.72231361               11.71419762                7.54891263
              21.04860042                3.60338269               71.88030028                0.00010000                4.38832790                1.49891835               -6.14335182              -18.59915804                4.39155653                7.71729007
              22.08787663                2.91190743               71.42741587                0.00010000                1.89155979                4.62874918                0.46100205              -12.43564585               -0.66916934                9.41689623
              23.08643162                2.37239315               70.98840558                0.44397326               -0.14450058                5.71433296                0.42010561               -5.32560760               -0.01061423                9.97257649
              13.36464582                8.89147373               74.76408265                0.94922129               -0.08344849               -0.09903069                0.38161935               -0.01628829                0.00502473                0.63341601
              14.36381134                8.41790982               74.31890794                0.28213139               -0.04814607               -0.06925014                0.17452396                0.00056605                0.46997750               -0.58022746
              15.36368290                7.94409625               73.88274672                0.00010000               -0.48522981               -0.08992872               -0.05917422               -0.95128379                4.62612172               -1.81042667
              16.35410674                7.45067399               73.52034675                0.00010000               -0.40349562               -0.50702590               -0.87034597               -2.07382710                8.82267314                0.27271642
              17.35561299                6.95081512               73.16374311                0.00010000                1.10746107               -1.50614181               -1.88308475               -3.21717092               10.04861775                2.31267086
              18.37625596                6.43024377               72.81976646                0.00010000                2.97703754               -2.96573627               -3.29280864               -6.14400512               11.68330239                4.38462629
              19.41515374                5.86937311               72.48914569                0.00010000                4.37230288               -3.04059490               -5.27380091              -11.64588903               12.83757963                5.35403506
              20.46370202                5.26185082               72.16158512                0.00010000                4.73560892                0.33102859               -7.73805500              -16.49137895               11.87897561                6.33557631
              21.50986592                4.62658734               71.80794483                0.00010000                3.26889910                3.99441441               -9.74389907              -18.00832036                8.41340494                7.91512594
              22.52908000                4.00477327               71.41493337                0.00010000                0.54743681               10.05984427              -10.82647875              -12.91074630                4.08036632               14.41526301
              23.52081465                3.48678905               70.98750737                0.44095944               -0.82653483               11.73003621              -11.03768710               -6.68866366                1.41838874               16.02938356
              13.83791134                9.89070287               74.62907020                0.95243255               -0.05213950               -0.06215758                0.27710945               -0.02125268               -0.00341938                0.66446435
              14.83738995                9.41729942               74.17827942                0.27574682               -0.01087616               -0.04541959                0.07456851               -0.04907669                0.20859668               -0.47537188
              15.83769382                8.94271475               73.73153706                0.00010000               -0.32452712               -0.10203451               -0.20497577               -1.14566266                5.77617929               -2.03000541
              16.83089941                8.44675575               73.39223451                0.00010000               -0.17736949               -0.27467729               -1.13767467               -2.55196288               11.40383500               -0.73206461
              17.83414643                7.93873018               73.05473290                0.00010000                0.96599094               -0.79480970               -2.33169701               -4.05251577               12.14364517                0.46928569
              18.85021923                7.41113648               72.72480001                0.00010000                2.21141315               -1.10707142               -3.92445560               -6.82546154               13.20918110                1.50771991
              19.87837469                6.85648880               72.40190734                0.00010000                3.14245119               -0.30100402               -6.07510067              -10.47044342               13.87279044                2.38629698
              20.91306825                6.27523652               72.07769715                0.00010000                3.35684380                2.15987044               -8.83380526              -13.51958426               13.33748488                3.32950496
              21.94551157                5.68327098               71.73811086                0.00010000                2.81958700                5.98006809              -12.01634132              -13.89953122               10.83316769                5.11436451
              22.96945999                5.11310432               71.36561321                0.00010000                2.15576008               10.13056811              -15.00733052               -9.10714490                6.25311672                7.16523034
              23.98862677                4.60699387               70.94812954                0.44148893                1.91667824               11.18478591              -16.34022142               -3.90434442                2.68390502                7.93232692
              14.31102766               10.89023057               74.49461320                0.97158326               -0.02097379               -0.03455379                0.17316178               -0.02209901               -0.01085845                0.72924527
              15.31081792               10.41700143               74.03792030                0.29513283                0.01428292               -0.01178844               -0.02922206               -0.07672797                0.08768180               -0.46623766
              16.31131332                9.94205556               73.58310087                0.00010000               -0.18829369               -0.02117746               -0.31697112               -1.23471817                6.54980096               -1.83620634
              17.30705205                9.44518044               73.25626423                0.00010000               -0.05656886               -0.01432371               -1.29689425               -2.74701232               13.04503631               -1.42772829
              18.31018194                8.93491893               72.93037934                0.00010000                0.74680332               -0.07090436               -2.54625850               -4.22655297               13.50517282               -0.83233166
              19.32198811                8.40810234               72.60915365                0.00010000                1.57314470                0.17259761               -4.18843671               -6.27971085               14.18996082               -0.24547114
              20.34164484                7.86335303               72.29175349                0.00010000                2.22700222                1.18456107               -6.36180232               -8.50765791               14.59760051                0.30553291
              21.36652816                7.30504823               71.97225847                0.00010000                2.61813301                3.21369571               -9.16207800               -9.93748482               14.05237144                0.92113089
              22.39400750                6.74618871               71.63877295                0.00010000                2.83430278                5.95014585              -12.41989199               -9.30201236               11.73264241                1.61191633
              23.42321421                6.20738463               71.27443704                0.00010000                3.04705844                8.38418377              -15.36513593               -5.79676297                6.93940964                2.24103643
              24.45494866                5.71048477               70.85916400                0.44248610                3.17344494                8.99199117              -16.81810156               -2.71935841                3.09614536                2.30111985
              14.78392766               11.89001179               74.36038355                0.98038779                0.01027412               -0.00896834                0.06769580               -0.02046860               -0.00261717                0.77388713
              15.78403040               11.41706365               73.89759691                0.31398180                0.04463918                0.02399206               -0.13067387               -0.08060401                0.07078282               -0.49277811
              16.78482044               10.94229120               73.43629080                0.00010000               -0.04673001                0.05410685               -0.41783226               -1.19466619                7.15054063               -1.77530255
              17.78309580               10.44646928               73.11600578                0.00010000                0.09365163                0.22579125               -1.36734261               -2.58260044               14.15605910               -1.74661984
              18.78669348                9.93731210               72.79691672                0.00010000                0.65475542                0.39825352               -2.58743623               -3.78186988               14.40040516               -1.52519973
              19.79619091                9.41458844               72.48081313                0.00010000                1.22910854                0.85243024               -4.18678117               -5.13427922               14.78067111               -1.24099533
              20.81127565                8.88018002               72.16668762                0.00010000                1.76459821                1.82706799               -6.28363683               -6.32451122               14.92287178               -0.96172479
              21.83148287                8.33951043               71.84916692                0.00010000                2.29296390                3.36047112               -8.95865267               -6.78465758               14.21552022               -0.70159846
              22.85713492                7.80227390               71.51718858                0.00010000                2.88728958                5.15988794              -12.03416143               -5.94801971               11.79832845               -0.47810607
              23.88922866                7.28078799               71.15341352                0.00010000                3.54521969                6.55978946              -14.86614012               -3.57923166                6.97337311               -0.37722652
              24.92803932                6.78683369               70.73765890                0.44296476                3.88106535                6.73065854              -16.43219169               -1.72095881                3.19018058               -0.48522649
              15.25651457               12.89005121               74.22634223                0.98422123                0.04118684                0.01732724               -0.04055364               -0.01853452               -0.00034087                0.78658461
              16.25692643               12.41748127               73.75698887                0.33675971                0.07499027                0.05946162               -0.22881318               -0.07621828                0.09821246               -0.54607124
              17.25801437               11.94313770               73.28973885                0.00010000                0.17263541                0.10582287               -0.51521180               -1.06108544                7.76623210               -1.50492430
              18.26037914               11.44969627               72.97490929                0.00010000                0.42055073                0.31407218               -1.38478839               -2.14361667               15.07869179               -1.69680796
              19.26642539               10.94288400               72.65968265                0.00010000                0.80277311                0.55013662               -2.51407656               -2.92985064               15.00569709               -1.62540856
              20.27643460               10.42515094               72.34638161                0.00010000                1.19036139                1.06911622               -4.00884123               -3.67890187               15.09202245               -1.52691961
              21.29023261                9.89989439               72.03361611                0.00010000                1.61532657                1.91805594               -5.96628392               -4.20549085               14.97652397               -1.45046446
              22.30874114                9.37225765               71.71627170                0.00010000                2.17684643                3.06560939               -8.46682373               -4.20596464               14.09632110               -1.40586936
              23.33376954                8.84938647               71.38372093                0.00010000                2.91643249                4.30492478              -11.37268829               -3.45119985               11.62875809               -1.39403429
              24.36706979                8.33858042               71.01909661                0.00010000                3.73342744                5.24868646              -14.14647369               -1.96454245                6.86484898               -1.44739464
              25.40843809                7.84509794               70.60206464                0.44392738                4.13683049                5.34637211              -15.89630540               -1.00305934                3.19582317               -1.69196498
              15.72869685               13.89035834               74.09196570                0.88440545                0.07226938                0.04539367               -0.15255003               -0.01663800                0.05118946                0.72526256
              16.72941954               13.41825288               73.61607482                0.26181564                0.13434438                0.09327416               -0.32260544               -0.07236641                0.50508520               -0.56975063
              17.73138373               12.94440766               73.14950543                0.00010000                0.55288157                0.12105811               -0.65077777               -0.93222092                8.56642941               -1.20778797
              18.74047717               12.45275072               72.83611926                0.00010000                1.06290254                0.07444675               -1.37680182               -1.36221761               15.77255928               -1.13401557
              19.75264179               11.94831483               72.52389852                0.00010000                1.25626544                0.43527466               -2.37891705               -1.68813320               15.46023981               -1.08742896
              20.76560248               11.43597076               72.21212804                0.00010000                1.37086677                0.99121144               -3.73521974               -1.96418915               15.24869071               -1.08611825
              21.78005912               10.91854114               71.89973397                0.00010000                1.61345093                1.74873980               -5.51058609               -2.13281039               14.91216118               -1.10836703
              22.79787150               10.40082262               71.58189743                0.00010000                2.08645198                2.66399109               -7.79588789               -2.01028557               13.91723727               -1.16052103
              23.82178816                9.88837239               71.24855489                0.00010000                2.81774187                3.60971647              -10.49978955               -1.52030447               11.46351148               -1.23715054
              24.85422634                9.38576172               70.88310221                0.00010000                3.65774603                4.36768638              -13.18401386               -0.78313601                6.77851896               -1.32815267
              25.89494308                8.89376114               70.46399257                0.44542723                4.07167441                4.63197176              -15.09661024               -0.47795390                3.26219299               -1.71889449
              16.20039271               14.89095908               73.95639040                0.92474481                0.10370773                0.06007450               -0.26005142                0.00835304                0.32365953                0.67711833
              17.20142978               14.41934675               73.47566222                0.60921888                0.22397047                0.10938665               -0.41893414               -0.06898655                1.09531381               -0.58610487
              18.20487212               13.94555886               73.01070439                0.37304005                1.38989163                0.11512064               -0.83517655               -1.05923928                9.76054306               -1.23518251
              19.22922762               13.45118520               72.70515554                0.36398672                2.22852826               -0.15655182               -1.36510448               -0.82342431               16.58814884               -0.48922863
              20.24944268               12.95158949               72.39494725                0.36085617                1.88484456                0.32746587               -2.24790850               -0.63041187               15.81904908               -0.51838105
              21.26692451               12.44497517               72.08462287                0.36310705                1.66409310                0.90044130               -3.46191769               -0.70381269               15.44712324               -0.55080811
              22.28272454               11.93486918               71.77298563                0.37064287                1.58898335                1.63280386               -5.04845153               -0.70534270               15.00190707               -0.61998369
              23.29870418               11.42553747               71.45569256                0.38360367                1.78499037                2.47148524               -7.09255655               -0.58115182               14.01476014               -0.73411331
              24.31842435               10.92158079               71.12333619                0.40288414                2.36570735                3.32084029               -9.55378029               -0.31654738               11.71598497               -0.90779485
              25.34601832               10.42593415               70.75988588                0.42733428                3.22279189                4.01724232              -12.06615499               -0.01297232                7.17033160               -1.11504073
              26.38288019                9.93773738               70.34083042                0.72315003                3.68618666                4.39762439              -13.97571369               -0.02596603                3.86616395               -1.72165914
              11.89395042                5.03866747               76.30487784                1.00000000               -0.17831526               -0.18452880                0.65117909               -0.03130138               -0.38797251                0.49227629
              12.89216727                4.55855136               75.87318190                1.00000000               -0.16293147               -0.14277124                0.52021560               -0.01421111               -0.46858426                0.05494100
              13.89069180                4.07812989               75.43928159                1.00000000               -0.13057750               -0.10051467                0.38915662               -0.01387145               -0.48584289               -0.05644460
              14.88955572                3.59719141               75.00710040                0.64383530               -0.11609639               -0.05843008                0.25479481               -0.05571253               -0.44932918               -0.33112025
              15.88836987                3.11510501               74.57424582                0.46668097               -0.09980548               -0.00747201                0.12173451               -0.08511804               -0.42563904               -0.30290724
              16.88755961                2.63198709               74.14315057                0.15051941               -1.20208986                0.01754182               -0.03598365               -1.16380066                0.81663802               -0.55756795
              17.86432807                2.12707402               73.73616705                0.00010000               -4.97163330                1.39158269                0.00535025               -8.33003791               11.01220777               -2.75390659
              18.78812695                1.45858113               73.51059209                0.00010000               -2.83225411                0.32243611               -1.75578260               -7.96318780               20.94625194                0.65384337
              19.80768299                0.77948310               73.26581819                0.00010000                5.75770826               -1.34712826               -2.40070840               -7.13794717               19.45298416                1.03769686
              20.90328111                0.09917598               73.00464876                1.00000000                5.15777806                0.56525882               -2.45296246               -6.86373751                8.93871317               -0.04705809
              21.91083855               -0.44082643               72.56513510                1.00000000                0.75574374                0.57847526               -2.48758961               -0.16364946                0.00266025               -0.01827471
              12.37375352                6.03682218               76.16925059                1.00000000               -0.14595691               -0.17213606                0.56103110               -0.00994689                0.02686211                0.69195450
              13.37229395                5.55712365               75.73737173                1.00000000               -0.12602296               -0.13205688                0.43077250                0.00642976                0.10364756                0.07874145
              14.37123306                5.07712475               75.30651697                1.00000000               -0.08914554               -0.09022574                0.30105049                0.00495785                0.15866562               -0.24786151
              15.37051104                4.59660710               74.87568624                0.77664143               -0.05561069               -0.05642188                0.17996294               -0.02232122                0.24906252               -0.28940247
              16.37012085                4.11503029               74.44705334                0.65641073               -0.02869677               -0.00969785                0.03000349               -0.04818873                0.25338839               -0.23967343
              17.36993710                3.63216251               74.01717384                0.33640997               -0.11950883                0.02553154               -0.12528508               -0.43164493                0.32186593               -0.42285819
              18.36773067                3.14098984               73.59119325                0.00010000                0.61767114                0.70334767               -0.34426705               -8.83320747               10.69587415               -1.42733617
              19.38229053                2.46180549               73.37001048                0.00010000                2.41377125               -1.48474963               -1.67812160              -12.20119341               19.02297367                1.75531802
              20.41600609                1.76601182               73.10485750                0.00010000                3.12539880               -0.63511399               -2.01432744              -10.17198689               15.85464943                1.61548659
              21.44479850                1.10482857               72.81412114                1.00000000                1.65991852                0.41293295               -1.43393078               -5.91544599                7.43985678               -0.05469016
              22.44920446                0.56495832               72.37466378                1.00000000                0.44059619                0.42620203               -1.46786163               -0.14987422                0.00032431               -0.04178408
              12.85314855                7.03522475               76.03680750                1.00000000               -0.11552482               -0.14332855                0.46856124               -0.01368096                0.16478211                0.81495589
              13.85199330                6.55591023               75.60172867                1.00000000               -0.09205265               -0.10896811                0.34091268               -0.00093311                0.35825822               -0.00335468
              14.85130750                6.07632538               75.17009267                0.00010000               -0.03947740               -0.06443587                0.21279092               -0.02398637                0.89398645               -0.68188377
              15.85120376                5.59606297               74.74576445                0.00010000                0.02715965               -0.62730094                0.11081814               -0.49250675                1.27704135                0.63993924
              16.85185069                5.11491105               74.32231849                0.00010000                0.08817035               -1.14127527               -0.06086063               -0.53386398                1.09626984                2.02960869
              17.85296716                4.63249772               73.89556686                0.00010000                0.30851212               -2.04638735               -0.21585205               -0.26526397                1.12960580                3.94024591
              18.85802093                4.14114097               73.47444546                0.00010000                3.30569707               -4.98294267               -0.46488465               -9.12215531               11.61019195                7.37699917
              19.91908110                3.42888614               73.25986815                0.00010000                5.15996224               -2.61911786               -2.66714074              -15.72895056               17.56962199                4.34435203
              20.96122018                2.76678082               72.95715748                0.00010000                3.34722924                0.07004683               -2.30896372              -12.46568918               11.76269800                3.05723133
              21.98602569                2.10743464               72.62311831                1.00000000                1.31806885                0.12490739               -0.45072398               -5.83395247                5.27433087               -0.05669626
              22.98758156                1.56769761               72.18371553                1.00000000                0.15558670                0.13724839               -0.48188175               -0.14657438               -0.00277283               -0.05656979
              13.33210895                8.03395561               75.90288775                1.00000000               -0.09342896               -0.10735839                0.37726285               -0.01508109                0.27379852                0.69952734
              14.33117466                7.55494429               75.46404213                0.42793125               -0.07541790               -0.08727316                0.25452995                0.00318650                0.47634583               -0.38334558
              15.33060059                7.07583603               75.02890605                0.00010000               -0.45497140               -0.07707543                0.12226082               -0.59954295                2.64940123               -1.19598714
              16.32207523                6.58406109               74.63363061                0.00010000               -0.37958872               -0.94520556               -0.40647406               -1.60613206                4.97108617                1.07793416
              17.32300881                6.09220478               74.24165921                0.00010000                0.81633394               -2.05237127               -1.01993288               -1.88925426                5.73105032                3.54056999
              18.33840191                5.59123476               73.85852491                0.00010000                3.29451634               -4.01481832               -1.85313819               -3.69972607                7.88539561                6.74906897
              19.38889914                5.04133099               73.50775951                0.00010000                5.18348775               -7.29570493               -3.15432391               -8.50870682               10.00397190               10.71119333
              20.44207166                4.40942314               73.17132553                0.00010000                4.96223361               -1.52394775               -4.29008602              -13.79747267               10.16375260                5.68689983
              21.48814381                3.76741275               72.83248575                0.00010000                4.25655002                0.72596005               -4.19310739              -15.22627268                6.85822633                4.74645070
              22.52720266                3.10732671               72.43233801                0.00010000                1.88016095                3.57495774                0.45108108              -10.55683793                1.95317690                4.51597571
              23.52574703                2.56770329               71.99292543                0.43446373               -0.14556311                4.92876743                0.42392057               -5.16520796                0.01984775                5.20715595
              13.81086958                9.03307758               75.76743105                0.96506726               -0.06929611               -0.06880835                0.29014594               -0.01295729               -0.00042048                0.62707697
              14.81017661                8.55416476               75.32065514                0.29741192               -0.03348674               -0.07056638                0.17369388               -0.01100557                0.44794478               -0.57663523
              15.81019984                8.07478387               74.88256632                0.00010000               -0.37321280               -0.13584627                0.02096931               -0.91084453                4.25584512               -1.80435980
              16.80271236                7.57715886               74.51186830                0.00010000               -0.16539545               -0.58754223               -0.80548918               -1.93608713                8.01528664                0.08454803
              17.80689193                7.07386363               74.14525497                0.00010000                1.35670389               -1.55558940               -1.76786690               -2.89802836                8.88106860                1.87844799
              18.82984644                6.55220135               73.78773878                0.00010000                3.13832438               -2.92442630               -3.01761308               -5.41981626                9.91694478                3.67388154
              19.86965842                5.99522687               73.43946021                0.00010000                4.36017239               -3.02961031               -4.57484919              -10.19294071               10.38675148                4.47834110
              20.91704988                5.39840719               73.09257561                0.00010000                4.45663639               -0.16401168               -6.16906531              -14.10372820                9.33602950                5.00523292
              21.95879115                4.78130002               72.72837861                0.00010000                2.87742550                2.82891301               -6.96392811              -15.16701218                6.45444360                5.49824751
              22.97459839                4.17893379               72.33265625                0.00010000                0.23665497                7.84021948               -7.05917475              -10.98523911                3.19882067                7.71632450
              23.96352425                3.66627296               71.90728480                0.43576160               -1.10741478                9.64396897               -6.70207160               -5.93175373                1.65323065                8.96856022
              14.28967544               10.03257944               75.63141106                0.97036906               -0.04271828               -0.03624003                0.19377580               -0.01708931               -0.00251470                0.65338869
              15.28924826                9.55353296               75.17911697                0.29450741               -0.01429184               -0.04959834                0.09170449               -0.05888402                0.17289258               -0.47406589
              16.28938960                9.07311910               74.73013816                0.00010000               -0.24872639               -0.12618013               -0.07517214               -1.13927056                5.31435317               -1.97525393
              17.28427373                8.57231024               74.38100540                0.00010000                0.03080740               -0.36487608               -1.08337110               -2.48740411               10.43236416               -0.78690235
              18.29000575                8.06109300               74.03154549                0.00010000                1.21843056               -0.87182160               -2.25071403               -3.82889139               10.81122679                0.31312897
              19.30864234                7.53274623               73.68618731                0.00010000                2.44143715               -1.17833684               -3.69836884               -6.31453334               11.30853902                1.26715603
              20.33883449                6.98073878               73.34352606                0.00010000                3.26408037               -0.49906872               -5.46975387               -9.52671285               11.27527736                2.08455133
              21.37392395                6.40614290               72.99625078                0.00010000                3.27212345                1.59713604               -7.43537738              -12.10658957               10.13203084                2.92682298
              22.40427696                5.82399101               72.63272739                0.00010000                2.43004981                4.73096439               -9.34091071              -12.17405134                7.68503246                4.15709508
              23.42252494                5.26413110               72.24204504                0.00010000                1.40783315                8.06961448              -10.73101612               -7.87375887                4.15129113                5.57682608
              24.43243363                4.76058267               71.81731347                0.43702497                0.99086820                8.84038725              -11.18845840               -3.40262070                1.79347616                5.79242011
              14.76862076               11.03235278               75.49595718                0.99059749               -0.01614832               -0.01128442                0.09887704               -0.01823970               -0.00888262                0.71465825
              15.76845927               10.55317279               75.03782819                0.31653394                0.00081957               -0.02174434                0.00895165               -0.07870223                0.05687264               -0.46362002
              16.76863715               10.07226027               74.58091314                0.00010000               -0.17344451               -0.05161608               -0.13473078               -1.22827908                6.06017024               -1.75501165
              17.76499038                9.56986134               74.24342353                0.00010000                0.06204814               -0.09112725               -1.24434862               -2.72090169               12.03005418               -1.36926278
              18.76987811                9.05642720               73.90486800                0.00010000                0.94597999               -0.14804444               -2.50224532               -4.06963090               12.17223174               -0.78314030
              19.78390998                8.52863462               73.56754427                0.00010000                1.79246906                0.06913046               -4.03539775               -5.95706000               12.35988314               -0.19460441
              20.80572749                7.98524550               73.22975167                0.00010000                2.38779387                0.96351728               -5.89943355               -7.98372178               12.12784799                0.39353003
              21.83166586                7.43034991               72.88556763                0.00010000                2.57972137                2.72875986               -8.05357484               -9.23270069               11.01061985                1.05963512
              22.85732192                6.87591931               72.52548547                0.00010000                2.44328508                5.05383149              -10.27127583               -8.57780376                8.62311809                1.83070716
              23.88053156                6.34032608               72.13802582                0.00010000                2.26233918                7.00907555              -12.08850486               -5.30526720                4.84518110                2.42382144
              24.90256870                5.84308070               71.71268730                0.43817934                2.20371407                7.42173307              -12.81698656               -2.42023591                2.18098176                2.23625973
              15.24767062               12.03235376               75.36073200                0.99939485                0.00961086                0.01074595                0.00701357               -0.01750084               -0.00060645                0.75266384
              16.24776673               11.55309807               74.89661755                0.33708158                0.02324320                0.00581596               -0.06916509               -0.07992321                0.04315987               -0.48424261
              17.24813548               11.07208678               74.43338434                0.00010000               -0.10389792                0.00367770               -0.19001562               -1.17710321                6.66787386               -1.69691540
              18.24568877               10.57048770               74.10250037                0.00010000                0.08521855                0.17620844               -1.31250510               -2.56062308               13.18450723               -1.61734900
              19.24983985               10.05813211               73.77082200                0.00010000                0.74970365                0.35688234               -2.58371409               -3.67404508               13.16857444               -1.35719602
              20.26068284                9.53412884               73.43885429                0.00010000                1.38024580                0.78132752               -4.11795154               -4.95976770               13.13863371               -1.02931997
              21.27744477                9.00000913               73.10472645                0.00010000                1.89566401                1.65667079               -5.97531302               -6.08141368               12.75459832               -0.68458146
              22.29859612                8.46071810               72.76308351                0.00010000                2.26499722                3.01498367               -8.12467043               -6.49657063               11.57643354               -0.32765530
              23.32274471                7.92506764               72.40495180                0.00010000                2.53310426                4.58454415              -10.35855752               -5.66221838                9.15963850               -0.01416338
              24.34925821                7.40431261               72.01857592                0.00010000                2.78874765                5.78099230              -12.21700122               -3.37987342                5.21688525                0.08929640
              25.37851967                6.90901733               71.59139568                0.43936867                2.92614596                5.85553662              -13.07748666               -1.56070672                2.38778497               -0.31634728
              15.72678211               13.03256770               75.22567936                1.00000000                0.03456782                0.03234683               -0.08536068               -0.01573439                0.00152452                0.75873847
              16.72712778               12.55328911               74.75516913                0.36171181                0.04616783                0.03262347               -0.14261958               -0.07414270                0.07148376               -0.53109620
              17.72770546               12.07233382               74.28617436                0.00010000                0.03024068                0.03766790               -0.24247517               -1.00979611                7.30821596               -1.44708815
              18.72773260               11.57338550               73.96127146                0.00010000                0.25253007                0.31728612               -1.33034850               -2.09044505               14.19995112               -1.54594891
              19.73275606               11.06356484               73.63413284                0.00010000                0.75525062                0.58436817               -2.55768950               -2.86003180               13.93687602               -1.42060880
              20.74283761               10.54426117               73.30580111                0.00010000                1.23769490                1.06804217               -4.03537337               -3.61787468               13.70664553               -1.26732248
              21.75750996               10.01837891               72.97413117                0.00010000                1.69191614                1.82779959               -5.81714189               -4.14900936               13.16886288               -1.12139509
              22.77667593                9.49064958               72.63400470                0.00010000                2.14865386                2.83375493               -7.87647656               -4.15167990               11.90226245               -1.00147797
              23.80048304                8.96761019               72.27661181                0.00010000                2.61542382                3.90046363              -10.02955610               -3.39466273                9.42284139               -0.95492269
              24.82898441                8.45594593               71.88976964                0.00010000                3.07310505                4.67105112              -11.86941828               -1.90780270                5.37915788               -1.10043862
              25.86194514                7.96019144               71.46008332                0.44038217                3.29607305                4.63164373              -12.82579399               -0.87855529                2.51710934               -1.65240906
              16.20591310               14.03300069               75.09025968                0.89695269                0.06046497                0.05637314               -0.18112628               -0.01294185                0.05218705                0.69520520
              17.20651775               13.55375054               74.61344171                0.28381280                0.09650344                0.05901436               -0.21595880               -0.06926660                0.45003258               -0.55134715
              18.20784317               13.07284014               74.14479721                0.00010000                0.30655479                0.04505467               -0.34263077               -0.81342675                8.12120189               -1.16831576
              19.21264885               12.57683342               73.82252405                0.00010000                0.69601924                0.19737207               -1.33726418               -1.28596892               15.02375414               -1.01670102
              20.22176355               12.06981947               73.49938718                0.00010000                1.04312160                0.56562503               -2.49209281               -1.65515464               14.58891407               -0.94039276
              21.23351128               11.55548969               73.17372603                0.00010000                1.31563068                1.08227717               -3.88539578               -1.97714632               14.14747700               -0.89350969
              22.24807617               11.03656512               72.84387105                0.00010000                1.64099823                1.75863750               -5.56044424               -2.17348390               13.48440717               -0.86215333
              23.26633124               10.51739320               72.50494121                0.00010000                2.07394713                2.54653108               -7.49732654               -2.06807022               12.16236350               -0.85871749
              24.28955511               10.00307692               72.14830983                0.00010000                2.60948330                3.32365144               -9.54180536               -1.57194851                9.66847376               -0.90545849
              25.31852091                9.49773364               71.76132396                0.00010000                3.14512172                3.88658366              -11.33706558               -0.79691633                5.54633156               -1.06700690
              26.35245755                9.00165020               71.32873543                0.44152596                3.39366361                3.93245232              -12.34174189               -0.36030344                2.67040555               -1.64212266
              16.68502357               15.03369516               74.95366589                0.93066521                0.08794360                0.06944698               -0.27990896               -0.01152939                0.30983583                0.64656467
              17.68590300               14.55446940               74.47216989                0.61540497                0.16652419                0.07188585               -0.29282087               -0.08448705                0.98786804               -0.56375738
              18.68835405               14.07323491               74.00453383                0.37200412                0.95654423                0.03947743               -0.46443317               -0.80573461                9.31471647               -1.17986361
              19.70503389               13.57733295               73.69133787                0.36381856                1.63213257                0.04995269               -1.38156882               -0.67937438               16.00717672               -0.46190183
              20.72099670               13.07487734               73.37114728                0.36102709                1.57575734                0.50578717               -2.47286022               -0.64799694               15.13392430               -0.47121098
              21.73654904               12.56590671               73.04796504                0.36302994                1.55700337                1.04170234               -3.79632710               -0.76250839               14.58772250               -0.47673968
              22.75213677               12.05355166               72.72016011                0.36968249                1.61268481                1.69865417               -5.38651806               -0.81026519               13.88109249               -0.51367280
              23.76880273               11.54158020               72.38324777                0.38191354                1.82834300                2.41870021               -7.23072101               -0.72627319               12.60208534               -0.58689672
              24.78870363               11.03408322               72.02894324                0.39957311                2.28350317                3.10063040               -9.19686872               -0.48027804               10.22752177               -0.71075810
              25.81447279               10.53367760               71.64473254                0.42340227                2.91011531                3.59439637              -10.95966769               -0.16694836                6.12521206               -0.90437745
              26.84690594               10.03884048               71.21213754                0.72116575                3.24331419                3.71902776              -11.97129010               -0.03887276                3.29063286               -1.53452016
              12.32241257                5.17965250               77.31070164                1.00000000               -0.14921310               -0.14488286                0.51651559               -0.01766889               -0.38848288                0.48916225
              13.32092043                4.69535460               76.87809030                1.00000000               -0.14476258               -0.12735643                0.46180347               -0.00305406               -0.47025927                0.05446230
              14.31951731                4.21078189               76.44327201                1.00000000               -0.13435632               -0.10822761                0.40667243               -0.00251643               -0.48886724               -0.05384869
              15.31823331                3.72575351               76.01014034                0.65215189               -0.13822650               -0.08975254                0.34835752               -0.03849977               -0.45092325               -0.31394867
              16.31675278                3.23972914               75.57635841                0.46924529               -0.13970594               -0.06448431                0.29300557               -0.06418457               -0.43517496               -0.30227971
              17.31543919                2.75283316               75.14411417                0.14195062               -1.23522881               -0.06249732                0.21860807               -1.08712761                0.88307674               -0.55834856
              18.29204821                2.24531815               74.73768014                0.00010000               -4.14577818                1.28156111                0.24498386               -6.76807709               10.41772203               -2.89657041
              19.23252363                1.60348051               74.49470212                0.00010000               -1.86412400               -0.06508302               -1.42863377               -6.56029692               19.66108258                0.36191518
              20.25476573                0.94685703               74.24297108                0.00010000                5.53172435               -1.42735290               -2.17659277               -6.15891272               18.90978550                0.70098419
              21.34315811                0.28440421               73.98012305                1.00000000                4.79146337                0.58918648               -2.45712000               -5.98074338                8.85341686               -0.01631066
              22.35059499               -0.25535722               73.54054472                1.00000000                0.74368824                0.58643042               -2.43233901               -0.14973719                0.00513501                0.00492750
              12.80653377                6.17820367               77.17423503                1.00000000               -0.12085778               -0.13388081                0.43863344               -0.00852274                0.02444246                0.68593029
              13.80532520                5.69408104               76.74144861                1.00000000               -0.11205396               -0.11847096                0.38477373                0.00585329                0.10043464                0.07802111
              14.80429269                5.20969962               76.30968909                1.00000000               -0.09752550               -0.10008191                0.33088491                0.00486879                0.16040891               -0.24365154
              15.80337469                4.72485599               75.87804006                0.80158926               -0.08607909               -0.08847142                0.28538081               -0.01844172                0.24378796               -0.26651166
              16.80257111                4.23908430               75.44831717                0.67276795               -0.08006379               -0.06578735                0.21460384               -0.04193736                0.23645522               -0.23379896
              17.80177341                3.75220819               75.01730805                0.34075383               -0.17636744               -0.05487609                0.14188552               -0.37503719                0.27899119               -0.41671508
              18.79904376                3.25813376               74.58961421                0.00010000                0.71889036                0.59474160                0.02117226               -7.43992574               10.07536099               -1.53576958
              19.81615122                2.60282968               74.35544883                0.00010000                2.68354936               -1.66360889               -1.28477495              -10.25815908               18.24399772                1.04433547
              20.85271475                1.93258350               74.08633850                0.00010000                3.41532931               -0.83658354               -1.74114602               -8.50774807               15.89415952                0.98507793
              21.88445780                1.29029607               73.79969489                1.00000000                1.80721505                0.42216402               -1.47317944               -4.97512944                7.65140817               -0.02898532
              22.88885905                0.75050708               73.36013303                1.00000000                0.44012483                0.42332867               -1.45443534               -0.15623200               -0.00002080               -0.02620686
              13.29048738                7.17697488               77.04092957                1.00000000               -0.09458243               -0.10765989                0.35848960               -0.01183401                0.16084455                0.80650806
              14.28954155                6.69298518               76.60497080                1.00000000               -0.08238179               -0.09949990                0.30756051               -0.00050267                0.35324680               -0.00226288
              15.28883974                6.20878026               76.17244845                0.00010000               -0.05308801               -0.07898416                0.25568564               -0.02052893                0.90155879               -0.67755310
              16.28847979                5.72398408               75.74748182                0.00010000               -0.01389534               -0.62524383                0.22666462               -0.39890808                1.26571338                0.43529263
              17.28856183                5.23841340               75.32272854                0.00010000                0.02045967               -1.11781822                0.13487343               -0.35166073                1.06734766                1.59722645
              18.28888898                4.75173564               74.89485779                0.00010000                0.20331852               -1.94737597                0.06388453                0.01455497                1.07490791                3.18719727
              19.29262820                4.25721298               74.47176196                0.00010000                3.20108604               -4.58119751               -0.07947785               -7.51963631               10.59855695                6.17778629
              20.35291070                3.57020833               74.23703162                0.00010000                5.22580842               -2.65915951               -2.01529542              -13.22899795               16.56619133                2.87787291
              21.39714437                2.93012536               73.93688059                0.00010000                3.64106171               -0.27464666               -1.94590057              -10.26615601               12.55506543                1.51410998
              22.42573194                2.29284749               73.61858824                1.00000000                1.49519807                0.11964630               -0.42385595               -4.74866594                6.08314319               -0.06210103
              23.42704833                1.75310935               73.17902481                1.00000000                0.13163937                0.12299527               -0.42123381               -0.13407922               -0.01030430               -0.06960105
              13.77427649                8.17605047               76.90615851                1.00000000               -0.07667250               -0.07414662                0.27956316               -0.01085049                0.26913000                0.69110210
              14.77350977                7.69209104               76.46648848                0.44269706               -0.06966393               -0.08414542                0.23464126                0.00814425                0.46519260               -0.37643207
              15.77288321                7.20811993               76.03040905                0.00010000               -0.38731923               -0.10016507                0.17631364               -0.54965072                2.42536909               -1.19380780
              16.76576338                6.71235111               75.63004039                0.00010000               -0.25484373               -0.94969631               -0.30100329               -1.40739858                4.46097634                0.71054020
              17.76778634                6.21672794               75.23237123                0.00010000                0.87507701               -1.99578016               -0.82038375               -1.51441985                5.01485865                2.78066247
              18.78326492                5.71326067               74.84169331                0.00010000                3.11960037               -3.78383234               -1.48390761               -2.93587449                6.76580831                5.47341011
              19.83017835                5.16650981               74.48005992                0.00010000                4.76969793               -6.70198005               -2.45847623               -6.90952212                8.57492057                8.83140080
              20.87865888                4.54964649               74.13381911                0.00010000                4.72870629               -1.65890498               -3.28685146              -11.54128691                9.25047743                3.98174383
              21.92475247                3.92709057               73.79643813                0.00010000                4.39208036                0.30926490               -3.66115828              -12.76138573                8.18634824                2.38711268
              22.96650049                3.29268900               73.43643749                0.00010000                2.04506327                2.82726185                0.31152295               -9.28526440                3.97214395                0.92632720
              23.96565374                2.75296699               72.99688399                0.42830063               -0.08467511                4.43314327                0.29881933               -5.09350895                0.01515957                1.88754490
              14.25818923                9.17549195               76.76988556                0.98477063               -0.05542584               -0.04029760                0.20299163               -0.01033086               -0.00477988                0.61245849
              15.25763497                8.69130227               76.32238182                0.31518239               -0.03012884               -0.07229914                0.17052479               -0.00520273                0.42333809               -0.56599533
              16.25758665                8.20677695               75.88316610                0.00010000               -0.29555773               -0.16285459                0.09576377               -0.85514365                3.84358225               -1.77395448
              17.25172382                7.70499016               75.50423696                0.00010000               -0.01113895               -0.64443174               -0.70166268               -1.79515945                7.13851521               -0.13567324
              18.25736387                7.19849779               75.12838577                0.00010000                1.43329007               -1.56740993               -1.56972343               -2.57642214                7.72332936                1.39335347
              19.28038962                6.67605899               74.75941420                0.00010000                3.03440336               -2.82932765               -2.61080953               -4.70899470                8.35636727                2.90792618
              20.31805194                6.12317338               74.39764871                0.00010000                4.05572959               -2.93107178               -3.79206287               -8.76951652                8.53122341                3.46626893
              21.36150421                5.53703023               74.03820382                0.00010000                4.04111021               -0.44327650               -4.89848054              -11.95070347                7.64323946                3.63923458
              22.39887415                4.93631066               73.66866627                0.00010000                2.63230085                2.11077263               -5.34149526              -12.94860098                5.37772980                3.18278544
              23.41415023                4.34939273               73.27374988                0.00010000                0.28740133                6.32911369               -5.58349070               -9.65695947                2.63293772                2.97444375
              24.40462217                3.84177222               72.85346594                0.42967208               -0.95280552                8.22363917               -4.95722396               -5.34676555                1.67286019                4.02446140
              14.74244923               10.17524452               76.63294572                0.99068000               -0.03285196               -0.01445750                0.11650713               -0.01400927               -0.00079510                0.63077304
              15.74212071                9.69064506               76.18011351                0.31446876               -0.01783850               -0.05369095                0.10556586               -0.05086203                0.14639306               -0.46322892
              16.74209246                9.20486284               75.73003361                0.00010000               -0.19906763               -0.15339020                0.04696344               -1.09239212                4.79905067               -1.91692943
              17.73813935                8.69946247               75.37056709                0.00010000                0.15483009               -0.43449685               -0.97991268               -2.37543235                9.34397230               -0.85972702
              18.74518906                8.18537974               75.00971862                0.00010000                1.31350432               -0.92590890               -2.07131962               -3.53231998                9.44449839                0.10794951
              19.76440944                7.65667412               74.65083263                0.00010000                2.43138599               -1.22578627               -3.31952177               -5.67894350                9.54901154                0.93523205
              20.79381678                7.10788838               74.29251226                0.00010000                3.10490482               -0.65750743               -4.71370159               -8.38833331                9.14523594                1.61709175
              21.82650754                6.54078096               73.92898960                0.00010000                2.98005899                1.11889844               -6.10059547              -10.45399088                7.85812728                2.20304168
              22.85341796                5.96930602               73.55129264                0.00010000                2.06960997                3.71338901               -7.28168732              -10.31860824                5.63042290                2.86535770
              23.86789974                5.41927127               73.15099289                0.00010000                1.02707414                6.49687247               -7.96959515               -6.65502313                2.90077394                3.52421347
              24.87395944                4.91743977               72.72436037                0.43075768                0.60597045                6.96777656               -8.08267354               -2.95199152                1.36492056                3.15915141
              15.22710797               11.17520280               76.49659074                1.00000000               -0.01085642                0.00491802                0.03360260               -0.01267370               -0.00515548                0.69210157
              16.22699941               10.69022845               76.03809934                0.33873941               -0.00932899               -0.03035976                0.04214801               -0.06865460                0.03956279               -0.45038894
              17.22692139               10.20370915               75.58040626                0.00010000               -0.16505660               -0.08855861                0.01860669               -1.18627966                5.49074802               -1.68741708
              18.22369828                9.69630022               75.23137726                0.00010000                0.12922202               -0.15940537               -1.14248839               -2.62603015               10.84382653               -1.31778188
              19.22950583                9.17997962               74.88033444                0.00010000                1.03019175               -0.22382014               -2.35879632               -3.81174844               10.74394345               -0.77225263
              20.24430211                8.65154327               74.52844569                0.00010000                1.83363007               -0.04644615               -3.72504360               -5.46533480               10.56968701               -0.21807692
              21.26617843                8.11002323               74.17376482                0.00010000                2.33523190                0.71102578               -5.24918174               -7.19067235                9.96310904                0.33358809
              22.29100675                7.55940820               73.81118697                0.00010000                2.39166165                2.18696518               -6.84595524               -8.15830696                8.62808431                0.92642457
              23.31401167                7.01057844               73.43334743                0.00010000                2.09546313                4.07791390               -8.31634088               -7.43303508                6.44840759                1.54099530
              24.33291601                6.47933018               73.03266694                0.00010000                1.76168375                5.57794140               -9.36866331               -4.51139666                3.48312475                1.91873353
              25.34924534                5.98112775               72.60282427                0.43215601                1.63293304                5.78354770               -9.66700481               -2.01043991                1.59358162                1.46393505
              15.71214444               12.17534288               76.36052383                1.00000000                0.00968214                0.02477506               -0.04366581               -0.00762467                0.00158410                0.73114650
              16.71224126               11.69003786               75.89621360                0.36145556                0.00753277               -0.00966352               -0.01745167               -0.06947537                0.03098285               -0.46626104
              17.71229510               11.20309167               75.43249048                0.00010000               -0.14464887               -0.04630405               -0.00994751               -1.13042580                6.08254600               -1.62763770
              18.70934829               10.69627437               75.08975568                0.00010000                0.07079713                0.12266951               -1.21942616               -2.47334625               11.98591223               -1.49035072
              19.71371104               10.18090333               74.74524244                0.00010000                0.78554206                0.29635093               -2.48887825               -3.47008780               11.77353277               -1.20991780
              20.72505913                9.65574519               74.39845410                0.00010000                1.42136797                0.66947465               -3.90099396               -4.62636838               11.43620195               -0.86017619
              21.74213840                9.12210889               74.04718136                0.00010000                1.88635334                1.41493274               -5.47399335               -5.59985397               10.72215134               -0.48419935
              22.76278619                8.58452026               73.68667351                0.00010000                2.13484410                2.54810962               -7.13885954               -5.89727962                9.35339378               -0.09833563
              23.78483528                8.05086430               73.31001743                0.00010000                2.21681476                3.81757713               -8.71143987               -5.06202022                7.11178136                0.22048846
              24.80712249                7.53083010               72.90907349                0.00010000                2.26601060                4.72467153               -9.88810474               -2.97440763                3.92685416                0.25140091
              25.83015549                7.03311073               72.47610916                0.43334914                2.30330041                4.67911337              -10.30017459               -1.32655842                1.81314080               -0.33197929
              16.19756552               13.17569830               76.22463501                1.00000000                0.02955925                0.04665183               -0.12227388               -0.00470708                0.00259732                0.73482319
              17.19786111               12.69003518               75.75413648                0.38791269                0.02554262                0.00936639               -0.07281445               -0.06369139                0.06087658               -0.50964783
              18.19807637               12.20278307               75.28488935                0.00010000               -0.07207112               -0.02048958               -0.04009687               -0.94256195                6.72387489               -1.39391990
              19.19641969               11.69875361               74.94830232                0.00010000                0.12784403                0.30379606               -1.25246956               -1.99312204               13.03861888               -1.39690262
              20.20063325               11.18590663               74.60852886                0.00010000                0.70747501                0.57945998               -2.52297181               -2.71568990               12.63342160               -1.22369976
              21.21056919               10.66493276               74.26567414                0.00010000                1.23865183                1.00957238               -3.92962706               -3.42878589               12.15759294               -1.02110645
              22.22540629               10.13832189               73.91727328                0.00010000                1.68682816                1.65801239               -5.48968086               -3.90843419               11.34799701               -0.81252640
              23.24430575                9.61037039               73.55874216                0.00010000                2.05275688                2.49424661               -7.14210754               -3.87490592                9.92101604               -0.62490832
              24.26646142                9.08692998               73.18312981                0.00010000                2.34378396                3.35337448               -8.71513698               -3.13035926                7.59872400               -0.53364563
              25.29118143                8.57382361               72.78170825                0.00010000                2.58457486                3.93142940               -9.91489815               -1.73075371                4.22828962               -0.69722662
              26.31815292                8.07471002               72.34554876                0.43476143                2.69714920                3.78768685              -10.37545385               -0.74272055                1.97974464               -1.35564216
              16.68337653               14.17627592               76.08834317                0.91141644                0.05061333                0.06898294               -0.20155919               -0.00427738                0.04801664                0.66432426
              17.68388267               13.69022519               75.61175564                0.30758016                0.06744494                0.02900305               -0.13059572               -0.05679696                0.41333960               -0.52748597
              18.68472543               13.20268188               75.14265282                0.00010000                0.12398070               -0.01473591               -0.11494191               -0.69764003                7.53367488               -1.13088564
              19.68636228               12.70235029               74.80937398                0.00010000                0.42463289                0.27829606               -1.28336909               -1.19256675               13.93273656               -0.90832137
              20.69321809               12.19249253               74.47405666                0.00010000                0.88529376                0.63692171               -2.53187185               -1.57764486               13.39676252               -0.79453106
              21.70406816               11.67593664               74.13442012                0.00010000                1.26569974                1.10147998               -3.90908503               -1.90632241               12.76398898               -0.70313914
              22.71853208               11.15526914               73.78852508                0.00010000                1.63059142                1.68478596               -5.43035301               -2.09370386               11.87734845               -0.61594741
              23.73667998               10.63440519               73.43195090                0.00010000                2.01213992                2.34080072               -7.04103675               -1.98401759               10.41543518               -0.55058637
              24.75877488               10.11793179               73.05771878                0.00010000                2.40236962                2.95844210               -8.58427304               -1.49589533                8.04333281               -0.55202599
              25.78472738                9.60945869               72.65636089                0.00010000                2.73766882                3.36029185               -9.77820334               -0.74602425                4.50651807               -0.71468151
              26.81352826                9.10886446               72.21715773                0.43576187                2.88008830                3.27663687              -10.24034469               -0.27292620                2.15709987               -1.30461207
              17.16958142               15.17707796               75.95079222                0.93645833                0.07377820                0.08020428               -0.29133864               -0.02578227                0.29939844                0.60951572
              18.17031921               14.69061524               75.46980580                0.62364191                0.12085215                0.03900565               -0.18798419               -0.08582637                0.91567363               -0.53523474
              19.17199847               14.20248835               75.00141573                0.37104404                0.62192448               -0.01935281               -0.19688612               -0.58748210                8.69914585               -1.13359544
              20.18275770               13.70431953               74.67752417                0.36364203                1.17477656                0.19692424               -1.36532751               -0.55262255               14.96792846               -0.42478130
              21.19549400               13.19864507               74.34549005                0.36092049                1.34542187                0.61525337               -2.60064604               -0.64026755               14.01492149               -0.41030331
              22.20966613               12.68696236               74.00869633                0.36273937                1.47848286                1.10257198               -3.96386625               -0.77157527               13.29747817               -0.38907884
              23.22506366               12.17201761               73.66525527                0.36901700                1.61483081                1.67484678               -5.47002541               -0.83564055               12.38194345               -0.38929413
              24.24196275               11.65718641               73.31107814                0.38020590                1.82131832                2.27812128               -7.07013549               -0.76766271               10.95720590               -0.41488298
              25.26149002               11.14609882               72.93939881                0.39662120                2.16827586                2.81670339               -8.61622620               -0.53633425                8.66473944               -0.49045724
              26.28532827               10.64102944               72.54069252                0.41875155                2.61964120                3.15707540               -9.83890555               -0.23271426                5.08371315               -0.65665113
              27.31388285               10.14024276               72.10140462                0.71830513                2.85545797                3.13782907              -10.30859862               -0.04321009                2.68787226               -1.20748982
              12.75140344                5.32138393               78.31520815                1.00000000               -0.12117239               -0.10710778                0.38779245               -0.00481695               -0.38899802                0.48594161
              13.75019172                4.83292400               77.88241797                1.00000000               -0.12695134               -0.11204180                0.40409514                0.00742854               -0.47216033                0.05428999
              14.74886441                4.34421877               77.44741504                1.00000000               -0.13704291               -0.11434903                0.41954498                0.00798728               -0.49235131               -0.05089430
              15.74745086                3.85511299               77.01406755                0.66067948               -0.15859345               -0.11776001                0.43193987               -0.02305736               -0.45232846               -0.29741249
              16.74569254                3.36514190               76.58010593                0.47345786               -0.17757184               -0.11577194                0.44781743               -0.04508998               -0.44077175               -0.30125697
              17.74389942                2.87443235               76.14752273                0.13763476               -1.17989930               -0.13477787                0.45190555               -0.96132596                0.88815322               -0.55958898
              18.72209456                2.36527446               75.74106673                0.00010000               -3.39208837                1.09181756                0.39056825               -5.60506134                9.80052924               -2.88008636
              19.67605765                1.74432602               75.48201941                0.00010000               -1.08183944               -0.39633177               -1.11980529               -5.48647066               18.33813395                0.13717903
              20.70045777                1.10676796               75.22228633                0.00010000                5.33590812               -1.49640926               -1.96984215               -5.31245236               18.13860874                0.41920363
              21.78277582                0.45970608               74.95550636                1.00000000                4.48200737                0.60775875               -2.45653220               -5.20799147                8.62548625               -0.04311762
              22.79009792               -0.07990451               74.51648832                1.00000000                0.73221004                0.58585941               -2.36137311               -0.13807263                0.00036553               -0.03906273
              13.23981521                6.32031286               78.17802326                1.00000000               -0.09666233               -0.09762507                0.32185284               -0.00695039                0.02200718                0.67963746
              14.23884858                5.83180358               77.74506720                1.00000000               -0.09827109               -0.10494509                0.33915436                0.00550316                0.09697886                0.07769539
              15.23784979                5.34307528               77.31313467                1.00000000               -0.10449340               -0.10822060                0.35576750                0.00475274                0.16145827               -0.23857205
              16.23675872                4.85393539               76.88139386                0.82382813               -0.11339116               -0.11722497                0.38009339               -0.01520100                0.23951239               -0.24488530
              17.23558196                4.36398418               76.45134542                0.68810380               -0.12694170               -0.11701914                0.38334463               -0.03608464                0.22461283               -0.22849105
              18.23421988                3.87308458               76.02001155                0.34902576               -0.22424267               -0.12879787                0.38927369               -0.31295323                0.25340175               -0.41170927
              19.23109711                3.37619263               75.59161669                0.00010000                0.81131570                0.44882674                0.37039596               -6.34990891                9.42026243               -1.57089818
              20.25044620                2.74036271               75.34431498                0.00010000                2.92730541               -1.81263515               -0.97443274               -8.75800658               17.33522216                0.48006941
              21.28964322                2.09180386               75.07003458                0.00010000                3.67929680               -0.99022849               -1.54735274               -7.21359744               15.67806954                0.37368314
              22.32403213                1.46578366               74.78465755                1.00000000                1.93422788                0.48719709               -1.51058392               -4.15406300                7.68939822               -0.00114466
              23.32832778                0.92595409               74.34557507                1.00000000                0.42956425                0.47295661               -1.42696286               -0.16273723               -0.00042752               -0.03390660
              13.72828299                7.31943143               78.04397729                1.00000000               -0.07436295               -0.07455982                0.25376385               -0.00981447                0.15690378                0.79742948
              14.72753936                6.83082509               77.60787988                1.00000000               -0.07276683               -0.08994772                0.27436253                0.00011520                0.34802649               -0.00035156
              15.72682765                6.34205435               77.17520638                0.00010000               -0.06507132               -0.09165283                0.29338323               -0.01751600                0.90698769               -0.67253778
              16.72623793                5.85276849               76.75029774                0.00010000               -0.05029918               -0.62093238                0.33112932               -0.33394905                1.25541136                0.22621955
              17.72582167                5.36280152               76.32501596                0.00010000               -0.04030140               -1.09116898                0.31586054               -0.24205003                1.04599973                1.17155116
              18.72543190                4.87185640               75.89684455                0.00010000                0.09982908               -1.84690107                0.32508274                0.16294914                1.04288936                2.49028335
              19.72781825                4.37425099               75.47285590                0.00010000                2.99271929               -4.20601886                0.29158457               -6.33042122                9.65241437                5.08908469
              20.78528629                3.70807332               75.21956225                0.00010000                5.14733053               -2.62384462               -1.51226096              -11.35154025               15.44276922                1.69719601
              21.83076486                3.08696339               74.91823946                0.00010000                4.01290212               -0.42172645               -1.84474429               -8.95070629               13.01569381               -0.24990353
              22.86554433                2.46945002               74.61464119                0.00010000                1.78687347                0.24539807               -0.52967899               -3.76206078                6.77889104               -0.22551230
              23.86650233                1.92955462               74.17529085                1.00000000                0.09579967                0.25294871               -0.45624368               -0.14806739                0.02154279               -0.30085032
              14.21683160                8.31882166               77.90847901                1.00000000               -0.06036288               -0.04459475                0.18744862               -0.00677978                0.26415702                0.68007192
              15.21622797                7.83000462               77.46873496                0.45835858               -0.06377647               -0.08026317                0.21454483                0.01220181                0.45237160               -0.36678670
              16.21555607                7.34124222               77.03243232                0.00010000               -0.34476971               -0.11870688                0.22595759               -0.50495932                2.19438625               -1.18789141
              17.20933257                6.84151675               76.62761054                0.00010000               -0.19515035               -0.94249041               -0.17979042               -1.25281782                3.95961634                0.32704185
              18.21165306                6.34216080               76.22525153                0.00010000                0.83484094               -1.92091050               -0.59683776               -1.25052900                4.38289558                2.01852256
              19.22602939                5.83614655               75.82884676                0.00010000                2.83093514               -3.53179182               -1.09926306               -2.39048006                5.84969771                4.24998011
              20.26827176                5.29207225               75.45858999                0.00010000                4.23368028               -6.10755435               -1.85870808               -5.72928597                7.53511339                7.08430874
              21.31070300                4.68788581               75.10558850                0.00010000                4.04903154               -1.60259711               -2.54762384               -9.75460503                8.12343247                2.47753493
              22.34925239                4.08336933               74.75926258                0.00010000                4.77483410                0.15689167               -2.91042435              -10.85796806                8.74232835                0.36331702
              23.40619968                3.47069163               74.43856847                0.00010000                2.79524125                2.72086266               -3.14946555               -8.77215655                2.69509849               -0.99297692
              24.40515722                2.93101306               73.99890181                0.42261163               -0.10424612                4.48655907               -0.77841545               -5.41550711               -2.86614407                1.64503164
              14.70578147                9.31853954               77.77149089                1.00000000               -0.04186296               -0.01659663                0.12115077               -0.00735225               -0.00728436                0.59226665
              15.70536284                8.82921983               77.32406564                0.33450845               -0.02825612               -0.07268790                0.16664542                0.00004689                0.39764169               -0.54951706
              16.70521634                8.33968022               76.88448159                0.00010000               -0.25499206               -0.18509271                0.16472556               -0.79700903                3.42686291               -1.73917122
              17.70026299                7.83391869               76.49783504                0.00010000                0.04824683               -0.67706693               -0.56741782               -1.65806582                6.26687470               -0.37543090
              18.70618128                7.32438331               76.11386050                0.00010000                1.37239276               -1.54287386               -1.32259957               -2.28605018                6.66774574                0.87651489
              19.72771085                6.80122056               75.73552259                0.00010000                2.76559961               -2.68635838               -2.16955537               -4.07419304                7.07908154                2.10036384
              20.76149327                6.25209990               75.36361896                0.00010000                3.55931305               -2.75538769               -3.07159285               -7.49443529                7.12661892                2.43216220
              21.79889711                5.67602138               74.99460600                0.00010000                3.46532069               -0.53326132               -3.87749498              -10.01977846                6.43389248                2.24247498
              22.83079969                5.09010122               74.62154871                0.00010000                2.17801827                1.66238363               -4.37107926              -10.32621790                4.09411803                1.76253645
              23.84245748                4.52386727               74.22098644                0.00010000                0.33748173                5.25033393               -4.30814105               -8.47712018                1.94742271               -0.33882762
              24.83754932                4.01928580               73.80814032                0.42380289               -0.49081557                7.16971521               -4.18754451               -5.06615460                1.89022284                0.28417142
              15.19532396               10.31848973               77.63374120                1.00000000               -0.02357390                0.00385843                0.04847750               -0.00793654                0.00194910                0.60451184
              16.19508823                9.82855087               77.18122829                0.33641768               -0.02034670               -0.05774558                0.11634894               -0.04385906                0.12849199               -0.44536129
              17.19491703                9.33754036               76.73107743                0.00010000               -0.18100298               -0.18125814                0.15258282               -1.03088059                4.25719675               -1.85052118
              18.19146817                8.82797541               76.36140715                0.00010000                0.18565753               -0.48007859               -0.83920631               -2.22806509                8.21978355               -0.95757142
              19.19863018                8.31130332               75.99011910                0.00010000                1.26803839               -0.94624901               -1.82957372               -3.20243769                8.15281179               -0.15422319
              20.21682893                7.78241939               75.61979688                0.00010000                2.24760290               -1.22844764               -2.88190052               -5.00881673                8.03799843                0.51037816
              21.24358224                7.23696450               75.24925203                0.00010000                2.77385895               -0.74258711               -3.96980553               -7.22218386                7.49491250                1.00222725
              22.27230611                6.67722059               74.87423887                0.00010000                2.56499507                0.75865593               -4.97318721               -8.72998329                6.22584188                1.35546195
              23.29488214                6.11661701               74.48709364                0.00010000                1.75832884                2.89566033               -5.72527107               -8.37559352                4.34776767                1.55612752
              24.30747269                5.57569830               74.08265314                0.00010000                0.90574597                4.83764363               -6.11258891               -5.19749520                2.18475362                1.97245098
              25.31299706                5.07440736               73.65565999                0.42494733                0.55243702                5.06624052               -6.03895229               -2.30027621                1.07926203                1.03199518
              15.68550046               11.31861671               77.49662923                1.00000000               -0.00654412                0.02213444               -0.02082209               -0.00523977               -0.00186889                0.67071070
              16.68543502               10.82806492               77.03867115                0.36336098               -0.01631343               -0.04075780                0.06963682               -0.06150768                0.03073569               -0.43134331
              17.68517419               10.33605505               76.58128528                0.00010000               -0.17481414               -0.12447154                0.14576321               -1.12102534                4.87666035               -1.61394757
              18.68193873                9.82431711               76.22057376                0.00010000                0.12571786               -0.21098934               -1.00626503               -2.47049172                9.57528421               -1.29714394
              19.68768855                9.30545833               75.85769207                0.00010000                0.99673021               -0.27819992               -2.14698120               -3.48418019                9.33116570               -0.82610418
              20.70187334                8.77665161               75.49304340                0.00010000                1.72799242               -0.13612586               -3.33852996               -4.87855681                8.95146823               -0.35335599
              21.72224840                8.23724816               75.12476803                0.00010000                2.13858005                0.49260925               -4.56698120               -6.26854805                8.18102911                0.10150886
              22.74464494                7.69119450               74.74864853                0.00010000                2.12808508                1.69878037               -5.74489436               -6.93559634                6.85321841                0.54032597
              23.76481010                7.14801443               74.35915866                0.00010000                1.80361377                3.15390161               -6.72370190               -6.14380695                4.95326387                0.94488268
              24.78071721                6.62062014               73.95065256                0.00010000                1.46577905                4.23005134               -7.33105476               -3.65864719                2.61270195                1.00981454
              25.79412568                6.12061062               73.51934720                0.42614198                1.34084631                4.26229468               -7.42235417               -1.61524878                1.25165904                0.37653137
              16.17632274               12.31893242               77.35985869                1.00000000                0.00969809                0.04140569               -0.08662364               -0.00313779                0.00193901                0.71164387
              17.17641972               11.82773571               76.89626851                0.38736098               -0.00392073               -0.02553998                0.02497028               -0.06127607                0.02740211               -0.44412132
              18.17624433               11.33505093               76.43318539                0.00010000               -0.18823328               -0.08809822                0.13377667               -1.05685781                5.43195015               -1.55222265
              19.17265506               10.82375562               76.07811185                0.00010000                0.01838775                0.07560168               -1.09858845               -2.31924401               10.65272862               -1.39391596
              20.17661208               10.30573933               75.72104443                0.00010000                0.74064522                0.24091473               -2.32537999               -3.18473124               10.32278479               -1.12378465
              21.18746796                9.77969687               75.36083442                0.00010000                1.35281530                0.56107040               -3.59769432               -4.17754620                9.80543818               -0.79231601
              22.20366839                9.24681669               74.99524659                0.00010000                1.76799795                1.17682464               -4.91007600               -4.96735964                8.93969412               -0.44214321
              23.22282792                8.71119619               74.62030632                0.00010000                1.94559816                2.08397603               -6.18791233               -5.12634303                7.56317988               -0.10095469
              24.24258035                8.17969504               74.23072301                0.00010000                1.94378171                3.06107515               -7.28826070               -4.31077613                5.58742929                0.13534586
              25.26170356                7.66029933               73.82081383                0.00010000                1.90653948                3.70469252               -8.01558542               -2.48138747                3.01823237                0.06640959
              26.28071114                7.15965326               73.38539219                0.42737179                1.90075864                3.57097060               -8.16588933               -1.07794106                1.41266504               -0.61516850
              16.66783112               13.31944482               77.22323389                1.00000000                0.02598621                0.05987770               -0.15544168               -0.00278280                0.00417480                0.71365030
              17.66809098               12.82755412               76.75371285                0.41572833                0.00930034               -0.01021022               -0.01544977               -0.05482809                0.05969072               -0.48425258
              18.66801712               12.33429309               76.28537243                0.00010000               -0.16127574               -0.06774439                0.12051882               -0.85354863                6.05119578               -1.33451736
              19.66486546               11.82582915               75.93622206                0.00010000                0.00177755                0.28447608               -1.15346892               -1.83858973               11.68640132               -1.27442177
              20.66805267               11.31027662               75.58367341                0.00010000                0.61897957                0.56141698               -2.41944911               -2.49577763               11.19693194               -1.07682960
              21.67724505               10.78787302               75.22720857                0.00010000                1.16746025                0.93539234               -3.72884053               -3.13186462               10.57372378               -0.85454508
              22.69140188               10.26078465               74.86433755                0.00010000                1.59973359                1.47237446               -5.07640104               -3.52875161                9.63376409               -0.62443734
              23.70923973                9.73287402               74.49116255                0.00010000                1.90447791                2.14246501               -6.39429155               -3.44651991                8.20101138               -0.42027822
              24.72949144                9.20923593               74.10230907                0.00010000                2.09457603                2.80361755               -7.54188956               -2.73642997                6.12275238               -0.32823261
              25.75113125                8.69471399               73.69147168                0.00010000                2.21837841                3.20781993               -8.31370222               -1.48485675                3.34158230               -0.51185678
              26.77385900                8.19203003               73.25257424                0.42826960                2.27277583                3.00244233               -8.48133165               -0.60366019                1.57340107               -1.18110032
              17.16004849               14.32012997               77.08622850                0.92869870                0.04264048                0.07712784               -0.22061355               -0.00218335                0.04088421                0.63498813
              18.16047489               13.82753150               76.61082979                0.33248175                0.04249200                0.00551369               -0.05773250               -0.04659681                0.38661009               -0.49726387
              19.16089833               13.33369605               76.14249837                0.00010000               -0.02875805               -0.06279542                0.06580350               -0.57424423                6.83585205               -1.08537844
              20.15989973               12.82944514               75.79685667                0.00010000                0.18771674                0.33538997               -1.20784099               -1.06378511               12.58891701               -0.82008025
              21.16465266               12.31696766               75.44874975                0.00010000                0.72114528                0.67639443               -2.49316491               -1.44850636               11.98913064               -0.67910860
              22.17432264               11.79840472               75.09554433                0.00010000                1.17198467                1.08498532               -3.81659207               -1.76075859               11.23719682               -0.56106180
              23.18809236               11.27626417               74.73526399                0.00010000                1.55618061                1.57603725               -5.17561551               -1.91836376               10.23856945               -0.44280752
              24.20544625               10.75404549               74.36412047                0.00010000                1.89597095                2.10770232               -6.50655070               -1.79666001                8.76962732               -0.34515812
              25.22601178               10.23576739               73.97662437                0.00010000                2.18830364                2.58390417               -7.67297112               -1.33485808                6.61806399               -0.32313259
              26.24921232                9.72445573               73.56575989                0.00010000                2.39970493                2.85836625               -8.46212729               -0.65276401                3.64058390               -0.47638723
              27.27400587                9.21970210               73.12392853                0.42953819                2.47935516                2.70834381               -8.61330751               -0.20635329                1.73460992               -1.01925959
              17.65298438               15.32098738               76.94783912                0.94473098                0.06085865                0.08574067               -0.29756314               -0.03870934                0.29133631                0.57067229
              18.65359296               14.82766439               76.46841020                0.63298737                0.08171110                0.01328885               -0.09739507               -0.08570261                0.86005855               -0.49811423
              19.65461860               14.33303718               76.00059611                0.37026971                0.33625883               -0.06588650                0.01038139               -0.38434514                7.94656518               -1.08154318
              20.66031814               13.83253695               75.66403132                0.36348937                0.77521859                0.30918049               -1.31452680               -0.41979264               13.59500725               -0.38680975
              21.67012297               13.32380451               75.31913436                0.36084486                1.12076154                0.68368451               -2.61875810               -0.60118039               12.60039818               -0.35380542
              22.68273337               12.80957272               74.96868771                0.36270289                1.36354267                1.11680060               -3.96204036               -0.73388208               11.76949190               -0.31467493
              23.69739383               12.29230540               74.61075960                0.36831692                1.55349692                1.60412248               -5.34254954               -0.79708610               10.73941241               -0.29021044
              24.71380331               11.77502806               74.24184506                0.37846372                1.74951065                2.09825695               -6.70080575               -0.73386332                9.29317836               -0.28509867
              25.73238404               11.26091401               73.85661872                0.39342522                2.01689703                2.51466225               -7.90356469               -0.52011092                7.19120928               -0.32857138
              26.75414125               10.75188132               73.44795443                0.41394913                2.34275761                2.74255898               -8.73960640               -0.24296258                4.14675863               -0.46759740
              27.77923919               10.24619690               73.00596557                0.71521380                2.50979392                2.64947994               -8.89722966               -0.04511003                2.15888388               -0.92485029
              13.18021297                5.46374111               79.31845749                1.00000000               -0.09426285               -0.07138264                0.26519114                0.00738934               -0.38968078                0.48271714
              14.17927034                4.97114193               78.88617221                1.00000000               -0.10961355               -0.09689017                0.34721233                0.01748466               -0.47461931                0.05447768
              15.17802070                4.47832475               78.45166291                1.00000000               -0.13872486               -0.11879175                0.42755162                0.01798605               -0.49685615               -0.04755383
              16.17649585                3.98515265               78.01877914                0.66870664               -0.17692664               -0.14245628                0.50511385               -0.00915312               -0.45498056               -0.28198228
              17.17448217                3.49122502               77.58531476                0.47883542               -0.21271974               -0.16205692                0.58574776               -0.02809325               -0.44363708               -0.29862560
              18.17224145                2.99666376               77.15315228                0.13881901               -1.04600269               -0.20115757                0.66398820               -0.79755393                0.80320664               -0.56006624
              19.15356211                2.48661650               76.74549150                0.00010000               -2.70873750                0.83101289                0.48351899               -4.79319487                9.12087718               -2.66752974
              20.11806670                1.88163295               76.47230601                0.00010000               -0.47555821               -0.67447115               -0.83415282               -4.70648829               16.98698797               -0.05225569
              21.14405095                1.25974460               76.20357424                0.00010000                5.16995747               -1.56405678               -1.77763533               -4.63141020               17.15242492                0.18079576
              22.22146585                0.62523949               75.93099240                1.00000000                4.22937220                0.58988691               -2.43370406               -4.57888627                8.27421679               -0.04894731
              23.22863839                0.08568802               75.49331725                1.00000000                0.71725435                0.53384015               -2.24842391               -0.11744101               -0.01009442               -0.06836425
              13.67288604                6.46302728               79.18067209                1.00000000               -0.07326697               -0.06366911                0.21080129               -0.00506015                0.01948483                0.67320708
              14.67215337                5.97017303               78.74823170                1.00000000               -0.08454187               -0.09157697                0.29401349                0.00560970                0.09317897                0.07784399
              15.67119520                5.47713683               78.31680444                1.00000000               -0.10995954               -0.11464535                0.37571676                0.00479932                0.16156734               -0.23257747
              16.66995418                4.98372809               77.88564193                0.84284196               -0.13747602               -0.14304320                0.46450128               -0.01248910                0.23631978               -0.22499401
              17.66844568                4.48960445               77.45598406                0.70282699               -0.16920031               -0.16433561                0.53746370               -0.03115275                0.21912365               -0.22283583
              18.66657017                3.99465218               77.02509352                0.36247397               -0.26500541               -0.19788307                0.61828754               -0.25062230                0.24970505               -0.40692758
              19.66314557                3.49492663               76.59702213                0.00010000                0.89337977                0.27024409                0.69913791               -5.51836331                8.71337430               -1.50265225
              20.68443777                2.87488823               76.33596017                0.00010000                3.13940019               -1.93771038               -0.71387830               -7.62533860               16.27174842                0.06170350
              21.72593358                2.24410403               76.05539144                0.00010000                3.91337552               -1.19226564               -1.42240751               -6.27107608               15.22512007               -0.23056280
              22.76270528                1.63113836               75.76948321                1.00000000                2.05409377                0.45934195               -1.54001144               -3.51425450                7.58857057               -0.04394876
              23.76701545                1.09102642               75.33159377                1.00000000                0.43101740                0.40387946               -1.37334974               -0.13412023                0.00523522               -0.09911711
              14.16582027                7.46246772               79.04600485                1.00000000               -0.05472798               -0.04444841                0.15452255               -0.00764840                0.15297804                0.78822900
              15.16527299                6.96931039               78.61045805                1.00000000               -0.06293191               -0.08017436                0.24138688                0.00073148                0.34269200                0.00236283
              16.16456163                6.47603184               78.17831611                0.00010000               -0.07472720               -0.10249662                0.32603435               -0.01592276                0.91028466               -0.66657308
              17.16377844                5.98229179               77.75410441                0.00010000               -0.08133057               -0.61867198                0.42556314               -0.29556046                1.24792339                0.02285924
              18.16293502                5.48793831               77.32904575                0.00010000               -0.09358077               -1.06753056                0.48440538               -0.19116652                1.03566953                0.76605144
              19.16190683                4.99270610               76.90135945                0.00010000                0.00118906               -1.75349746                0.57081795                0.22166612                1.04027274                1.84345370
              20.16295880                4.49202138               76.47759365                0.00010000                2.72378486               -3.87468490                0.64739079               -5.44170318                8.75472908                4.09264095
              21.21638252                3.84287874               76.20678640                0.00010000                4.97102533               -2.53673996               -1.10688602              -10.00524641               14.23613836                0.72005502
              22.26237931                3.23589929               75.89998571                0.00010000                4.39379235               -0.65281844               -1.77528110               -8.38834579               13.21488960               -1.15730983
              23.30425837                2.63442633               75.60799466                0.00010000                2.19002778                1.76729262               -0.73744388               -6.20378628                7.29501193               -3.67212326
              24.30617986                2.09376561               75.16989994                0.95436674                0.19214892                3.09958657               -0.58153643               -3.03363624                0.06955539               -1.45677265
              14.65904773                8.46213831               78.90990748                1.00000000               -0.04438505               -0.01963197                0.10090882               -0.00318850                0.25796146                0.66776879
              15.65860388                7.96856954               78.47077938                0.47503665               -0.05761908               -0.07458976                0.19418043                0.01363497                0.43772103               -0.35405547
              16.65789535                7.47508690               78.03492820                0.00010000               -0.32336903               -0.13417057                0.27048690               -0.47110061                1.96686190               -1.17771054
              17.65213650                6.97135465               77.62644458                0.00010000               -0.18436559               -0.93034268               -0.05425924               -1.14645516                3.48945304               -0.05183561
              18.65420804                6.46825384               77.22043448                0.00010000                0.73919597               -1.83888925               -0.37391726               -1.08380959                3.83818564                1.27613263
              19.66692042                5.95958224               76.81970805                0.00010000                2.49654155               -3.27949743               -0.74650991               -2.02574695                5.12318442                3.08950063
              20.70413887                5.41743293               76.44288575                0.00010000                3.67672559               -5.54333976               -1.35642250               -4.84433436                6.68165659                5.44749164
              21.74045493                4.82415343               76.08286663                0.00010000                3.12401007               -1.48246867               -1.97417710               -8.52577419                7.73418387                1.17712013
              22.76661907                4.23104766               75.73822964                0.00010000                2.01541489                0.39155203               -2.10315486               -8.28362327                6.80384576               -1.28766685
              23.78076323                3.66648421               75.37344818                0.00010000                1.05225455                3.20525893               -4.74122894               -5.78904079                2.23295942               -3.68539706
              24.78766416                3.15301815               74.98131568                0.41718676                0.69009320                4.84659285               -2.81528945               -3.24965550                0.85649165               -1.18885543
              15.15289403                9.46207508               78.77230858                1.00000000               -0.02969324                0.00290512                0.04625487               -0.00233360               -0.00696076                0.57363942
              16.15259710                8.96781860               78.32571473                0.35539366               -0.02697612               -0.07186134                0.16402658                0.00118938                0.37174243               -0.53004816
              17.15235451                8.47334843               77.88646062                0.00010000               -0.24573515               -0.20190824                0.22784819               -0.74857407                3.01418597               -1.69235622
              18.14768240                7.96368493               77.49288861                0.00010000                0.03383643               -0.68911594               -0.42171837               -1.54155293                5.43313261               -0.62551610
              19.15303124                7.45116052               77.10193378                0.00010000                1.22652001               -1.48950675               -1.06864129               -2.04606285                5.73444276                0.34053853
              20.17221280                6.92711615               76.71602310                0.00010000                2.42348364               -2.51106803               -1.76054845               -3.54449380                6.04353933                1.27833214
              21.20150091                6.38115459               76.33621685                0.00010000                3.00197548               -2.53245429               -2.47308719               -6.43763092                6.12511045                1.38663480
              22.23225231                5.81322936               75.96065392                0.00010000                2.64375765               -0.51528814               -3.07276827               -8.23482160                5.56205955                0.93904229
              23.25437607                5.24373033               75.58124468                0.00010000                1.71273798                1.58854792               -3.59959727               -7.46789443                3.92262389               -0.18444914
              24.26650707                4.69853150               75.18758706                0.00010000                0.68713997                3.12849849               -3.31325078               -4.53838184                1.80895229               -0.98155612
              25.26811886                4.19069747               74.76971505                0.41810887                0.16117974                3.69273222               -3.51264429               -2.69006400                0.97066669               -2.65223961
              15.64751404               10.46219641               78.63391527                1.00000000               -0.01597089                0.02122226               -0.01032820               -0.00177434                0.00277980                0.58297524
              16.64735433                9.96713232               78.18244049                0.35993696               -0.02282506               -0.06286165                0.12661595               -0.03933553                0.11623702               -0.42599388
              17.64705753                9.47104873               77.73308527                0.00010000               -0.19304880               -0.20130964                0.24187442               -0.96812510                3.71233073               -1.77006328
              18.64349335                8.95757233               77.35378297                0.00010000                0.13990164               -0.50161455               -0.68508824               -2.07351314                7.11052697               -1.08083266
              19.64985557                8.43846370               76.97312715                0.00010000                1.12715662               -0.93141610               -1.57264093               -2.87915944                6.96957864               -0.46880998
              20.66603648                7.90936087               76.59319462                0.00010000                1.97087358               -1.18387697               -2.46365753               -4.38185709                6.77421822                0.00672827
              21.68927304                7.36678384               76.21311615                0.00010000                2.35731384               -0.75478669               -3.32854008               -6.14101140                6.23859338                0.28720832
              22.71318276                6.81384767               75.82952586                0.00010000                2.13430022                0.54589529               -4.08890537               -7.12685191                5.16277245                0.34748542
              23.73195904                6.26281862               75.43678722                0.00010000                1.49228487                2.10582002               -4.58031402               -6.40483216                3.58326701                0.24582047
              24.74302846                5.72905418               75.02874111                0.00010000                0.87859596                3.14171356               -4.82008312               -3.87356947                1.82220722               -0.09882552
              25.74953096                5.22687280               74.60358133                0.41935258                0.65025054                3.41143583               -4.74567748               -1.77962024                1.03006696               -0.97048852
              16.14298674               11.46249953               78.49617430                1.00000000               -0.00286696                0.03873415               -0.06788076               -0.00133985               -0.00002615                0.64891306
              17.14295807               10.96656136               78.03949207                0.38824052               -0.02173731               -0.05092872                0.09292377               -0.05345075                0.02938460               -0.40857485
              18.14255200               10.46932224               77.58332152                0.00010000               -0.20804542               -0.15443327                0.25220890               -1.04377441                4.24606513               -1.53267803
              19.13879716                9.95365264               77.21125196                0.00010000                0.05537557               -0.24122945               -0.85690645               -2.28697857                8.28653521               -1.31286184
              20.14365951                9.43253220               76.83739481                0.00010000                0.87291766               -0.30086978               -1.91173587               -3.13127159                7.98464875               -0.95270450
              21.15625552                8.90343861               76.46167509                0.00010000                1.52671904               -0.18135867               -2.95165807               -4.27720471                7.52776336               -0.60123374
              22.17419389                8.36605885               76.08242520                0.00010000                1.87124877                0.34563307               -3.95631465               -5.35519994                6.74773874               -0.29451221
              23.19368049                7.82414727               75.69628908                0.00010000                1.84395138                1.30697389               -4.84727238               -5.74107555                5.54822206               -0.05208065
              24.21107291                7.28584673               75.29887339                0.00010000                1.56505056                2.38010921               -5.52455889               -4.93320892                3.95299406                0.07688138
              25.22498150                6.76136578               74.88604585                0.00010000                1.29081548                3.11424953               -5.88663166               -2.85655259                2.06609402               -0.06470124
              26.23688922                6.25892618               74.45437719                0.42008064                1.19077213                3.03537611               -5.87993161               -1.25790433                1.00873976               -0.86293990
              16.63936357               12.46297110               78.35879135                1.00000000                0.00990366                0.05509827               -0.12487411               -0.00051776                0.00216519                0.68644390
              17.63946260               11.96611374               77.89671301                0.41478645               -0.01364004               -0.03862567                0.06146185               -0.05263592                0.02915138               -0.41613372
              18.63909077               11.46796007               77.43516602                0.00010000               -0.24593953               -0.12712479                0.25215688               -0.96634653                4.74555892               -1.46963261
              19.63454381               10.95274774               77.06778391                0.00010000               -0.08233001                0.04338552               -0.96444785               -2.12320942                9.25575101               -1.33749771
              20.63744417               10.43244631               76.69873484                0.00010000                0.62109613                0.20662637               -2.13001832               -2.85440823                8.87952643               -1.11554290
              21.64696574                9.90573370               76.32650021                0.00010000                1.20081064                0.48466692               -3.27377000               -3.68129024                8.29230120               -0.84536203
              22.66146038                9.37369651               75.94897984                0.00010000                1.58038175                0.98784430               -4.37904692               -4.29064233                7.40580755               -0.57334404
              23.67857337                8.83998715               75.56291526                0.00010000                1.73079891                1.70017016               -5.37926624               -4.33008634                6.13357614               -0.33772885
              24.69607636                8.31042081               75.16425222                0.00010000                1.71222894                2.43086151               -6.16796901               -3.55567786                4.44609049               -0.22631372
              25.71281795                7.79133917               74.74876179                0.00010000                1.65878527                2.86373133               -6.62267020               -2.00370463                2.37205071               -0.41525359
              26.72925206                7.28758032               74.31279138                0.42124529                1.64341129                2.68127436               -6.63074000               -0.84955562                1.13372850               -1.11576805
              17.13669110               13.46360150               78.22152618                1.00000000                0.02252871                0.06996760               -0.18379857                0.00013835                0.00624574                0.68650508
              18.13691638               12.96578885               77.75382748                0.44591755               -0.00500152               -0.02655957                0.03489979               -0.04696822                0.06167284               -0.45179333
              19.13659107               12.46677974               77.28729973                0.00010000               -0.25348248               -0.11047177                0.25239485               -0.74718333                5.31987237               -1.26523607
              20.13184673               11.95452035               76.92523294                0.00010000               -0.15028417                0.26958447               -1.03913300               -1.63847914               10.21972687               -1.18714304
              21.13358538               11.43666473               76.56013988                0.00010000                0.47663907                0.55015487               -2.27347642               -2.22597641                9.70262747               -0.99890078
              22.14137951               10.91313195               76.19109733                0.00010000                1.02711053                0.87512819               -3.48413831               -2.77584391                9.02074081               -0.79456802
              23.15412759               10.38581574               75.81574526                0.00010000                1.44874750                1.31472184               -4.65493490               -3.08571642                8.06060421               -0.58969550
              24.17035446                9.85815067               75.43085633                0.00010000                1.72398726                1.84161824               -5.72234046               -2.96065032                6.72274597               -0.42036047
              25.18860734                9.33446396               75.03229201                0.00010000                1.86967166                2.33693396               -6.57624453               -2.30449438                4.92698621               -0.37037381
              26.20774790                8.81864040               74.61543420                0.00010000                1.94042379                2.60545140               -7.07415050               -1.22476724                2.65460512               -0.57949423
              27.22741581                8.31255167               74.17592213                0.42238107                1.96679157                2.37538162               -7.07536249               -0.47731763                1.25956949               -1.21717255
              17.63499162               14.46437045               78.08393090                0.94658492                0.03533727                0.08343355               -0.23776983               -0.00004597                0.03328240                0.60262658
              18.63534500               13.96558255               77.61060099                0.36040115                0.02119879               -0.01483565                0.00778109               -0.03864061                0.36140960               -0.46153125
              19.63541560               13.46575063               77.14396889                0.00010000               -0.17278761               -0.10588627                0.21416380               -0.43627631                6.05724374               -1.02777600
              20.63188924               12.95813943               76.78521716                0.00010000               -0.05512778                0.38568423               -1.11107555               -0.90141878               11.07903665               -0.75404353
              21.63431304               12.44344941               76.42419337                0.00010000                0.52043025                0.70674989               -2.39465768               -1.28214899               10.45939742               -0.60677226
              22.64229785               11.92323627               76.05808828                0.00010000                1.02071420                1.06250724               -3.64860758               -1.57036222                9.66113519               -0.48682112
              23.65472733               11.39999094               75.68501277                0.00010000                1.42071480                1.47032189               -4.86164310               -1.69248959                8.64486159               -0.36838548
              24.67071214               10.87681951               75.30181989                0.00010000                1.73847068                1.89422893               -5.97206906               -1.56093611                7.26377043               -0.27267624
              25.68949674               10.35715949               74.90425936                0.00010000                1.97613749                2.25373750               -6.86752972               -1.13869048                5.38479507               -0.25437019
              26.71023489                9.84344820               74.48711835                0.00010000                2.11932185                2.43240136               -7.39124662               -0.54514205                2.92340222               -0.40395102
              27.73188318                9.33508795               74.04489158                0.42337077                2.16482835                2.25600086               -7.36937649               -0.15490296                1.39172638               -0.88436353
              18.13426597               15.46527017               77.94484096                0.95322270                0.04974149                0.08997174               -0.30233612               -0.05036780                0.28154486                0.53166565
              19.13476339               14.96549214               77.46785790                0.64299617                0.05213429               -0.00904122               -0.01848373               -0.08856837                0.80860501               -0.45806073
              20.13530866               14.46466201               77.00162336                0.36927458                0.06780978               -0.10886169                0.17829894               -0.17359902                7.09171885               -1.01612067
              21.13611958               13.96223404               76.65123363                0.36323917                0.37684545                0.40946073               -1.22992599               -0.27008049               12.00773554               -0.35154081
              22.14284557               13.45079973               76.29311489                0.36084094                0.86555752                0.73503196               -2.54952183               -0.53934475               11.01987034               -0.31097829
              23.15343073               12.93438209               75.92945552                0.36253102                1.19244919                1.11458289               -3.83908262               -0.66558899               10.14450317               -0.26674460
              24.16669455               12.41522218               75.55840428                0.36773613                1.42682329                1.52312331               -5.08817863               -0.72061969                9.09149389               -0.23433056
              25.18196720               11.89603525               75.17706203                0.37685662                1.62551467                1.92157377               -6.23829283               -0.65866787                7.72023922               -0.21823571
              26.19920484               11.37953871               74.78132752                0.39044885                1.84746955                2.23792232               -7.17784180               -0.46653071                5.87291724               -0.24806832
              27.21891659               10.86728843               74.36590040                0.40914714                2.09167010                2.38402327               -7.74686083               -0.22518149                3.34444355               -0.36792850
              28.24103825               10.35767169               73.92346003                0.71203390                2.21216561                2.25837352               -7.72923294               -0.04616751                1.72590029               -0.74554566
              13.60818039                5.60660908               80.32051197                1.00000000               -0.06864808               -0.03794422                0.14908670                0.01907838               -0.39104642                0.47977202
              14.60749391                5.10989457               79.88936221                1.00000000               -0.09300158               -0.08199526                0.29144591                0.02736836               -0.47854291                0.05509433
              15.60632036                4.61298464               79.45596607                1.00000000               -0.13972551               -0.12141142                0.43061683                0.02771449               -0.50361630               -0.04380182
              16.60469940                4.11574777               79.02416983                0.67616322               -0.19368467               -0.16375223                0.56759937                0.00291660               -0.46037479               -0.26807312
              17.60244666                3.61783078               78.59182088                0.48610531               -0.24562936               -0.20343128                0.70690600               -0.01334336               -0.44478716               -0.29459649
              18.59978681                3.11934854               78.16080250                0.14794086               -0.85441496               -0.26096902                0.85431493               -0.60949886                0.62956749               -0.56184593
              19.58535836                2.60886260               77.75073711                0.00010000               -2.10360673                0.51748397                0.60435833               -4.25483928                8.32232621               -2.27341802
              20.55771468                2.01597259               77.46533636                0.00010000               -0.02692443               -0.88562031               -0.56962629               -4.12593878               15.60618814               -0.22531937
              21.58481988                1.40674947               77.18673363                0.00010000                5.04012308               -1.59683293               -1.59941125               -4.13108397               15.98119579               -0.04471170
              22.65851714                0.78174551               76.90683228                1.00000000                4.02132275                0.61569178               -2.35697438               -4.12030714                7.80269855                0.02750491
              23.66524633                0.24217517               76.47151984                1.00000000                0.67291935                0.52138869               -2.06185624               -0.06053086               -0.02067083               -0.02070312
              14.10508568                6.60622964               80.18223929                1.00000000               -0.05058710               -0.03242303                0.10568462               -0.00271426                0.01667903                0.66694535
              15.10457981                6.10907461               79.75094747                1.00000000               -0.07073914               -0.07849499                0.24951348                0.00644537                0.08869612                0.07854963
              16.10367090                5.61177052               79.32064900                1.00000000               -0.11371624               -0.11927536                0.39070143                0.00511305                0.16044518               -0.22564998
              17.10230549                5.11411025               78.89068388                0.85950534               -0.15790291               -0.16623698                0.53859858               -0.01033412                0.23482605               -0.20693893
              18.10051284                4.61579647               78.46209469                0.71758568               -0.20647880               -0.20793278                0.67703289               -0.02690219                0.22151493               -0.21631592
              19.09817591                4.11673885               78.03237730                0.38185063               -0.30074490               -0.26188015                0.82948012               -0.19281884                0.26909667               -0.40285862
              20.09449795                3.61403744               77.60559945                0.00010000                0.96679714                0.06887930                1.00169761               -4.87474712                7.95183363               -1.33466529
              21.11751186                3.00711639               77.33003742                0.00010000                3.30623156               -2.02023150               -0.48685150               -6.66769923               15.01986301               -0.27861957
              22.16062258                2.39078114               77.04158643                0.00010000                4.10446792               -1.28852395               -1.35240324               -5.50897246               14.53382466               -0.75993736
              23.19960121                1.78790243               76.75385732                0.91955433                2.17943942                0.51485381               -1.71456774               -3.01894386                7.36390540                0.00475105
              24.20421136                1.24738906               76.31810808                1.00000000                0.46101508                0.42610442               -1.42930249               -0.10950963                0.01770101               -0.08695657
              14.60243615                7.60596062               80.04706774                1.00000000               -0.03542170               -0.01781672                0.06093640               -0.00552810                0.14894552                0.77923489
              15.60208193                7.10832467               79.61270762                1.00000000               -0.05245808               -0.07038911                0.20863652                0.00101805                0.33723732                0.00579602
              16.60138699                6.61059913               79.18172707                0.00010000               -0.08075836               -0.11135069                0.35355691               -0.01722179                0.91211955               -0.65972383
              17.60046676                6.11242303               78.75880901                0.00010000               -0.10534864               -0.62072067                0.51047240               -0.28085653                1.24589256               -0.17105356
              18.59928001                5.61367213               78.33470406                0.00010000               -0.13886506               -1.05005244                0.64104943               -0.18358184                1.04034056                0.37892518
              19.59768946                5.11411094               77.90826091                0.00010000               -0.08970658               -1.67329647                0.80345318                0.22169750                1.07141991                1.23433778
              20.59748588                4.61024019               77.48580372                0.00010000                2.49637662               -3.58192778                0.98489224               -4.71473003                7.85680912                3.11836672
              21.64761700                3.97556796               77.19742453                0.00010000                4.81842519               -2.47778476               -0.83119494               -8.83651354               12.92758770               -0.02593000
              22.69385439                3.38097899               76.88273384                0.00010000                4.69566724               -0.72120571               -1.63811666               -7.47000970               13.20056908               -1.94816489
              23.74153034                2.79204259               76.59989231                0.00010000                2.51142494                1.47444320               -1.09673939               -6.10550585                7.61675964               -5.03299150
              24.74408289                2.25069726               76.16366012                0.51908696                0.25525450                3.00158920               -0.83170165               -4.01749923                0.07748110               -3.39321277
              15.10024703                8.60587330               79.91049718                1.00000000               -0.02853599                0.00219577                0.01975828               -0.00095695                0.25036848                0.65566941
              16.09996167                8.10766683               79.47261857                0.49349664               -0.05094602               -0.06834536                0.17369995                0.01169600                0.42133734               -0.33755250
              17.09922811                7.60954351               79.03784206                0.00010000               -0.31731541               -0.14615521                0.30925588               -0.45159017                1.74732436               -1.16330768
              18.09361536                7.10169583               78.62652536                0.00010000               -0.20374041               -0.91765267                0.06420715               -1.08811842                3.05253730               -0.41843307
              19.09515330                6.59479542               78.21777319                0.00010000                0.62132231               -1.75853609               -0.17070044               -0.99836394                3.36692564                0.55577140
              20.10604180                6.08327292               77.81391656                0.00010000                2.17965113               -3.04051508               -0.44288952               -1.78937152                4.50372755                1.97276481
              21.13874632                5.54239889               77.43146154                0.00010000                3.20004908               -5.03189917               -0.97403344               -4.19167260                6.00492007                3.88101597
              22.17004279                4.95756069               77.06610496                0.00010000                2.80007189               -1.37124859               -1.55111719               -7.42741963                7.27542347                0.02780322
              23.19474776                4.37635702               76.71719949                0.00010000                1.88650204                0.34378364               -2.06871470               -7.58523801                6.74912883               -2.43268632
              24.20777283                3.81739129               76.34374389                0.00010000                0.59021418                2.84503167               -2.65695299               -6.01501842                4.10958051               -7.37329577
              25.20655204                3.30742084               75.94259602                0.41178396               -0.12207853                4.66390555               -3.25476544               -3.56585650                2.40621144               -6.07914993
              15.59882995                9.60600453               79.77241598                1.00000000               -0.01843032                0.02051038               -0.02184640               -0.00057221               -0.00360028                0.55733833
              16.59864565                9.10695776               79.32734617                0.37796303               -0.02518833               -0.07065948                0.16054826               -0.00236049                0.34567409               -0.50717415
              17.59832618                8.60767602               78.88903855                0.00010000               -0.25965836               -0.21326559                0.28361484               -0.71473633                2.60953530               -1.63457786
              18.59345248                8.09406997               78.48940067                0.00010000               -0.02952691               -0.68502138               -0.28342157               -1.45765737                4.64271379               -0.88112224
              19.59773565                7.57850141               78.09248768                0.00010000                1.04230444               -1.41646645               -0.83871460               -1.86562675                4.89674022               -0.20635962
              20.61429857                7.05330064               77.70031162                0.00010000                2.08145055               -2.31854829               -1.42142805               -3.13083546                5.17369466                0.44740485
              21.63936466                6.50960220               77.31415721                0.00010000                2.54059485               -2.29492842               -2.02059759               -5.59405487                5.33966372                0.36406583
              22.66511047                5.94814299               76.93315063                0.00010000                2.14771850               -0.45127817               -2.55880557               -6.99499189                5.04266889               -0.31836348
              23.68231903                5.38785466               76.54955676                0.00010000                1.25278438                1.37738422               -2.96583391               -6.33076465                3.99520581               -1.97419405
              24.69016615                4.84894322               76.15472143                0.00010000                0.51938176                2.89358531               -3.16881252               -3.72646961                2.08144739               -3.26145972
              25.69270666                4.34397537               75.73788744                0.41273027                0.25405084                3.14573070               -3.22053746               -1.62848948                1.04976266               -4.36371502
              16.09832913               10.60628351               79.63353464                1.00000000               -0.00861628                0.03571745               -0.06430975               -0.00126493                0.00339111                0.56260210
              17.09824297               10.10625364               79.18376061                0.38525475               -0.02539829               -0.06684314                0.13590481               -0.03877371                0.10729209               -0.40605319
              18.09782116                9.60527820               78.73591491                0.00010000               -0.23030700               -0.21776397                0.31881209               -0.91244070                3.17386150               -1.68097793
              19.09363683                9.08799540               78.34770538                0.00010000                0.03944682               -0.50055194               -0.53875407               -1.93342186                6.03246702               -1.22577377
              20.09861010                8.56646609               77.95866628                0.00010000                0.93437350               -0.88524303               -1.33758262               -2.59353546                5.87917150               -0.82556870
              21.11232430                8.03690196               77.57052373                0.00010000                1.67063833               -1.09896487               -2.11228469               -3.84330632                5.68544292               -0.55095976
              22.13202287                7.49650032               77.18268123                0.00010000                1.97830975               -0.70539864               -2.84086941               -5.25711511                5.24322006               -0.48239712
              23.15189049                6.94853513               76.79246076                0.00010000                1.76546834                0.43102463               -3.45945330               -5.92724456                4.42703102               -0.71140830
              24.16733223                6.40390471               76.39548736                0.00010000                1.26161165                1.71161985               -3.86852836               -5.07389739                3.19229437               -1.17012558
              25.17712273                5.87526300               75.98625147                0.00010000                0.82928616                2.51811103               -4.01562602               -2.86000550                1.64638387               -1.85445071
              26.18391796                5.37033545               75.56074645                0.41356833                0.67952318                2.50832004               -4.02565653               -1.24619817                0.85138863               -2.78867237
              16.59886439               11.60671888               79.49527161                1.00000000                0.00111010                0.05129521               -0.11119659               -0.00011835                0.00072481                0.62343823
              17.59887549               11.10562090               79.04052963                0.41585550               -0.02643896               -0.05880100                0.11303564               -0.05065097                0.03193162               -0.38403702
              18.59833561               10.60332074               78.58632946                0.00010000               -0.26396719               -0.17990604                0.33973092               -0.96492583                3.61176950               -1.44804116
              19.59359615               10.08405894               78.20343563                0.00010000               -0.06886116               -0.24853610               -0.71316148               -2.09798833                7.00481440               -1.36286233
              20.59695839                9.56079655               77.81945736                0.00010000                0.69010370               -0.28913473               -1.68999725               -2.79306959                6.70572537               -1.14306151
              21.60739822                9.03132134               77.43401024                0.00010000                1.28153967               -0.17672826               -2.61652807               -3.72788107                6.25530635               -0.93857889
              22.62258918                8.49549423               77.04564174                0.00010000                1.58814832                0.27647145               -3.47234976               -4.56056132                5.55489779               -0.80402833
              23.63916119                7.95676348               76.65170308                0.00010000                1.57620158                1.06696172               -4.19437620               -4.75353011                4.54440971               -0.77321206
              24.65411321                7.42208706               76.24866748                0.00010000                1.36870554                1.89227178               -4.70435486               -3.95673188                3.23271086               -0.89715121
              25.66653530                6.89930544               75.83291992                0.00010000                1.17622901                2.36714536               -4.95095910               -2.22313012                1.69551973               -1.25974061
              26.67763779                6.39414177               75.40174857                0.41463310                1.11024942                2.27287529               -4.89988768               -0.94593862                0.85738844               -2.03375847
              17.10052274               12.60730942               79.35736121                1.00000000                0.01053522                0.06582462               -0.15914337                0.00127220                0.00251283                0.65714948
              18.10062809               12.10507762               78.89749775                0.44394369               -0.02190629               -0.04953137                0.09277624               -0.04769719                0.03309115               -0.38566379
              19.10008461               11.60168007               78.43822853                0.00010000               -0.32134143               -0.15676236                0.34939534               -0.86897177                4.04022655               -1.38452871
              20.09420126               11.08302468               78.05882289                0.00010000               -0.22991516                0.02970486               -0.83200039               -1.90864877                7.83298539               -1.32045167
              21.09548631               10.56068340               77.67844407                0.00010000                0.44338660                0.20217662               -1.93575100               -2.51874229                7.46416013               -1.18017702
              22.10306899               10.03336739               77.29535902                0.00010000                0.99415949                0.45361248               -2.97815229               -3.19986892                6.88316873               -1.00432340
              23.11536950                9.50202975               76.90766565                0.00010000                1.35790370                0.87317872               -3.93928737               -3.66136224                6.05781611               -0.84388147
              24.13022706                8.96987437               76.51272099                0.00010000                1.51430711                1.43993473               -4.76154366               -3.61464512                4.94886250               -0.74209549
              25.14565564                8.44175014               76.10736362                0.00010000                1.51891728                1.98671267               -5.36423834               -2.89641889                3.55100379               -0.76989943
              26.16060541                7.92260591               75.68836042                0.00010000                1.48354460                2.27310525               -5.66311813               -1.59496220                1.88448525               -1.04518768
              27.17532653                7.41579296               75.25277739                0.41569649                1.47211198                2.07223028               -5.59412511               -0.65945709                0.91559271               -1.72493966
              17.60335342               13.60803538               79.21955792                1.00000000                0.01974694                0.07791537               -0.20795058                0.00205010                0.00799292                0.65674711
              18.60355089               13.10463027               78.75441084                0.47823979               -0.01721510               -0.04035779                0.07778611               -0.04064358                0.06344025               -0.41631409
              19.60300911               12.60018550               78.29042032                0.00010000               -0.35655201               -0.14315908                0.36045359               -0.63174060                4.55200896               -1.18998685
              20.59641985               12.08465303               77.91543940                0.00010000               -0.33841412                0.26694489               -0.92061872               -1.41453444                8.68986959               -1.13470368
              21.59624083               11.56484008               77.53820388                0.00010000                0.28173240                0.55869077               -2.11292941               -1.93881296                8.19009930               -0.98776690
              22.60205449               11.04039359               77.15752580                0.00010000                0.83070634                0.84713562               -3.23992341               -2.41126649                7.51480522               -0.83356979
              23.61285496               10.51295781               76.77123886                0.00010000                1.25466967                1.21038462               -4.28112866               -2.64714625                6.60854706               -0.68895090
              24.62714789                9.98556218               76.37671574                0.00010000                1.52991662                1.62559545               -5.17948719               -2.49442428                5.42516370               -0.58778999
              25.64345329                9.46182131               75.97078418                0.00010000                1.67226740                1.99471693               -5.84671222               -1.90205258                3.92469764               -0.60074522
              26.66059324                8.94476755               75.54998867                0.00010000                1.73106262                2.16523045               -6.17976185               -0.98960987                2.09888671               -0.83776891
              27.67807454                8.43558638               75.11106699                0.41646877                1.74813086                1.93419876               -6.08670171               -0.36974654                1.00898342               -1.41892752
              18.10737395               14.60886772               79.08147310                0.96659579                0.02911459                0.08825981               -0.25162167                0.00167335                0.02655442                0.56835133
              19.10766509               14.10427047               78.61098542                0.39042549                0.00265427               -0.03204510                0.06363889               -0.03095264                0.33501879               -0.42286562
              20.10742703               13.59881689               78.14678165                0.00010000               -0.32045531               -0.13898349                0.33475594               -0.29193793                5.22412704               -0.96053129
              21.10125599               13.08836358               77.77463516                0.00010000               -0.32287713                0.44100788               -1.00246047               -0.71990995                9.46931412               -0.70891906
              22.10096949               12.57185721               77.40085659                0.00010000                0.27349725                0.74509133               -2.26283346               -1.09979102                8.86921761               -0.57652404
              23.10672593               12.05031010               77.02257217                0.00010000                0.81442446                1.05548812               -3.44972805               -1.36701157                8.08250000               -0.47678787
              24.11725798               11.52623744               76.63803113                0.00010000                1.23745706                1.39389825               -4.54852219               -1.45807953                7.11689342               -0.38284457
              25.13147507               11.00238627               76.24467909                0.00010000                1.55756184                1.73084468               -5.50218011               -1.32279928                5.88478381               -0.31374860
              26.14840922               10.48164448               75.83927378                0.00010000                1.77865366                1.99975074               -6.21731724               -0.94625174                4.30428392               -0.31739196
              27.16704815                9.96591052               75.41793496                0.00010000                1.89423627                2.10955543               -6.57492200               -0.44315831                2.31680167               -0.46744484
              28.18629394                9.45447693               74.97654100                0.41751948                1.92457954                1.92813596               -6.45616914               -0.11518854                1.10900386               -0.88725432
              18.61258139               15.60980057               78.94179239                0.96290643                0.04012683                0.09328498               -0.30547734               -0.06037584                0.27103959                0.49065157
              19.61298266               15.10398937               78.46804053                0.65561665                0.02479244               -0.02810990                0.04891849               -0.08798045                0.75554999               -0.41563405
              20.61307724               14.59740583               78.00416208                0.36856485               -0.20006685               -0.14110658                0.31442229                0.03921205                6.16769724               -0.93869547
              21.60898133               14.09347319               77.63943280                0.36304211               -0.03893771                0.51096108               -1.12301276               -0.11066237               10.29627952               -0.32085953
              22.61229849               13.57974191               77.26814393                0.36095644                0.56763562                0.78846908               -2.42663417               -0.46559226                9.36019089               -0.28394799
              23.62033404               13.06150335               76.89190606                0.36244445                0.96593537                1.11932481               -3.65432486               -0.58449625                8.49910783               -0.24630594
              24.63161720               12.54083577               76.50899603                0.36720780                1.24754106                1.45983322               -4.79232885               -0.63029238                7.49327414               -0.21970142
              25.64528486               12.02017907               76.11707921                0.37527241                1.46934093                1.77927974               -5.78636318               -0.56999382                6.26231569               -0.20764858
              26.66100402               11.50181632               75.71306188                0.38779964                1.68063779                2.01718440               -6.54293806               -0.40154108                4.70418867               -0.23684376
              27.67889762               10.98695866               75.29301721                0.40453478                1.88169602                2.10481395               -6.93854667               -0.19841480                2.66020127               -0.34488404
              28.69863794               10.47414909               74.85138091                0.70905968                1.97403205                1.96721594               -6.82182956               -0.04655690                1.37669586               -0.66122654
              14.03469156                5.74988192               81.32143922                1.00000000               -0.04461715               -0.00714968                0.04028330                0.03030789               -0.39386657                0.47750216
              15.03424539                5.24907331               80.89200112                1.00000000               -0.07754024               -0.06746859                0.23728524                0.03726513               -0.48521684                0.05626126
              16.03314076                4.74808284               80.46027525                1.00000000               -0.14059281               -0.12200158                0.42877392                0.03718225               -0.51418475               -0.03959108
              17.03143353                4.24676308               80.03013113                0.68339153               -0.20935003               -0.18129486                0.61888515                0.01227833               -0.47005451               -0.25605939
              18.02895376                3.74478547               79.59945288                0.49605597               -0.27584803               -0.23905170                0.80874439               -0.00141086               -0.44589484               -0.28920421
              19.02591657                3.24227724               79.17023857                0.16392358               -0.67394881               -0.31406478                1.01908813               -0.41502298                0.41939507               -0.56441995
              20.01547478                2.73142346               78.75757867                0.00010000               -1.58613136                0.17432584                0.83045381               -3.82290639                7.39719671               -1.84950503
              20.99419395                2.14772443               78.46091349                0.00010000                0.33520787               -1.04967594               -0.32709766               -3.64852563               14.17709413               -0.38616760
              22.02217894                1.54914475               78.17158601                0.00010000                4.92698297               -1.62396817               -1.42078087               -3.73812299               14.69009507               -0.21400431
              23.09273361                0.93173951               77.88385292                1.00000000                3.83354610                0.64338382               -2.24530620               -3.77954986                7.22792807                0.00394521
              24.09884986                0.39209748               77.45208013                1.00000000                0.61162541                0.50495242               -1.83454213                0.03760666               -0.02054155               -0.04694066
              14.53580325                6.74981042               81.18278578                1.00000000               -0.02856750               -0.00436962                0.00702846                0.00021276                0.01320610                0.66127827
              15.53551758                6.24839862               80.75322197                1.00000000               -0.05677811               -0.06590438                0.20586688                0.00827106                0.08292320                0.07990968
              16.53466769                5.74686283               80.32461846                1.00000000               -0.11562863               -0.12192715                0.40051122                0.00566934                0.15755689               -0.21774132
              17.53320501                5.24495013               79.89641390                0.87364341               -0.17425622               -0.18669207                0.60156648               -0.00910567                0.23521920               -0.19078606
              18.53118257                4.74239495               79.46952472                0.73295254               -0.23788284               -0.24735748                0.80056256               -0.02386856                0.23365236               -0.20875188
              19.52844735                4.23913660               79.04168312                0.40781319               -0.33302219               -0.32118254                1.02190205               -0.14546174                0.31080217               -0.39963857
              20.52452212                3.73316672               78.61705608                0.00010000                1.02003472               -0.14484150                1.27485629               -4.32261683                7.13722522               -1.12647490
              21.54884804                3.13722767               78.32622314                0.00010000                3.41340225               -2.07159162               -0.30113068               -5.82257207               13.57269686               -0.60973728
              22.59279017                2.53290507               78.02834338                0.00010000                4.23068488               -1.39109078               -1.28500855               -4.86551795               13.52227690               -1.13614419
              23.63346174                1.93817335               77.73519186                0.87061190                2.30388935                0.60702090               -1.98361942               -2.64121924                6.92700959               -0.00565205
              24.63886796                1.39714701               77.30300772                1.00000000                0.54062139                0.46579624               -1.55041979               -0.03543440                0.01657606               -0.10844214
              15.03751942                7.74979453               81.04722358                1.00000000               -0.01610163                0.00465177               -0.02667489               -0.00347651                0.14446157                0.77106399
              16.03735840                7.24775522               80.61463078                1.00000000               -0.04083953               -0.06093400                0.17612256                0.00089743                0.33138114                0.01018769
              17.03670263                6.74564430               80.18538725                0.00010000               -0.08195526               -0.11767852                0.37557537               -0.02293115                0.91302845               -0.65219965
              18.03571930                6.24302924               79.76431385                0.00010000               -0.12063538               -0.62779063                0.58481734               -0.28774326                1.25190803               -0.35701392
              19.03428992                5.73983832               79.34186674                0.00010000               -0.17418625               -1.04046489                0.78504208               -0.21014294                1.06645467                0.00285783
              20.03223557                5.23585359               78.91742851                0.00010000               -0.16792769               -1.60748873                1.02409836                0.17737908                1.14298405                0.63474732
              21.03093137                4.72852663               78.49729149                0.00010000                2.28842891               -3.32334814                1.30152909               -4.10171229                6.91174775                2.12540901
              22.07800415                4.10629260               78.19016250                0.00010000                4.64957666               -2.41221411               -0.65604934               -7.79131419               11.44670474               -0.70964398
              23.12392290                3.52132294               77.86722338                0.00010000                4.88315655               -0.86670266               -1.47116510               -6.56200598               12.71114781               -2.66941398
              24.17566728                2.94387993               77.58605988                0.00010000                2.81354777                1.30079146               -1.68370162               -5.79064818                7.54138955               -5.76392712
              25.18019386                2.40141341               77.15326591                0.40621908                0.45265741                3.00304161               -1.22496119               -4.28584398                0.07743962               -4.46633998
              15.53981234                8.74990346               80.91030264                1.00000000               -0.01265877                0.01949349               -0.05578259               -0.00024024                0.24183316                0.64480234
              16.53968575                8.24717994               80.47425338                0.51279782               -0.04386468               -0.06110733                0.15305536                0.00677047                0.40320501               -0.31844748
              17.53893505                7.74450926               80.04111332                0.00010000               -0.32148135               -0.15301404                0.34175784               -0.44987668                1.53503924               -1.14569730
              18.53325612                7.23239432               79.62772872                0.00010000               -0.23898451               -0.90733879                0.16749864               -1.07776772                2.64370839               -0.77409523
              19.53415536                6.72158565               79.21702047                0.00010000                0.50252488               -1.68490417                0.00324593               -0.98211629                2.94074970               -0.15344722
              20.54330662                6.20698682               78.81085026                0.00010000                1.89467585               -2.81982578               -0.19601002               -1.65521581                3.93668591                0.86914924
              21.57204887                5.66669975               78.42340508                0.00010000                2.84594153               -4.56552068               -0.69147549               -3.67398128                5.28529321                2.32574276
              22.60022545                5.08898339               78.05184428                0.00010000                2.59569232               -1.28931534               -1.33891279               -6.57133776                6.61698811               -0.96911094
              23.62396272                4.51557102               77.69685535                0.00010000                1.86664266                0.23178184               -1.96223027               -6.80038614                6.27622352               -3.47666044
              24.63755831                3.96418918               77.32030912                0.00010000                0.70607002                2.34573977               -2.22055006               -5.71125596                3.89354749               -8.64480491
              25.63808412                3.45720784               76.91622038                0.40658053                0.05258135                4.19296677               -2.36710652               -3.56872217                2.68828868               -7.72472744
              16.04296165                9.75018439               80.77187165                1.00000000               -0.00736381                0.03446854               -0.08449232                0.00074653                0.00033051                0.54155705
              17.04288801                9.24653307               80.32892569                0.40300016               -0.02354674               -0.06760716                0.15448354               -0.00831153                0.31878167               -0.48076296
              18.04249071                8.74258402               79.89213291                0.00010000               -0.29002308               -0.21854924                0.33161215               -0.69978306                2.21297512               -1.56804653
              19.03708755                8.22488246               79.48722018                0.00010000               -0.12178097               -0.66862101               -0.16483369               -1.41542939                3.88456487               -1.14117613
              20.04005510                7.70614023               79.08515949                0.00010000                0.84648039               -1.33015002               -0.64950464               -1.74800434                4.11380776               -0.76360060
              21.05401716                7.17945708               78.68759453                0.00010000                1.77000398               -2.11718780               -1.16221202               -2.82501227                4.36967288               -0.38883869
              22.07545518                6.63721621               78.29580490                0.00010000                2.18444882               -2.05241893               -1.71408072               -4.93996259                4.58834063               -0.62946033
              23.09770613                6.08050629               77.90947781                0.00010000                1.86271076               -0.39581645               -2.25599923               -6.12829256                4.48537912               -1.42437119
              24.11270939                5.52595857               77.52192801                0.00010000                1.10496032                1.23671889               -2.66149812               -5.58300348                3.73965965               -3.22081656
              25.11980534                4.99079472               77.12421080                0.00010000                0.50363514                2.47887444               -2.92875703               -3.37735416                2.14036853               -4.60898195
              26.12278209                4.48527274               76.70530430                0.40748529                0.29767526                2.50151875               -3.04091667               -1.57796461                1.13810805               -5.69389629
              16.54712992               10.75059283               80.63262908                1.00000000               -0.00100229                0.04786677               -0.11464644               -0.00032539                0.00392713                0.54085532
              17.54711990               10.24582780               80.18515858                0.41224096               -0.02699640               -0.06947935                0.14207957               -0.04018518                0.10010365               -0.38417441
              18.54658999                9.74013827               79.73946151                0.00010000               -0.28642864               -0.22681098                0.38237974               -0.87076120                2.64073559               -1.58693120
              19.54139132                9.21902190               79.34300789                0.00010000               -0.09846674               -0.48022870               -0.41322418               -1.82388103                4.97792013               -1.38812869
              20.54462066                8.69498265               78.94637550                0.00010000                0.71695374               -0.81235240               -1.14444499               -2.36172619                4.84230606               -1.21204861
              21.55573040                8.16464307               78.55094893                0.00010000                1.37898756               -0.98126674               -1.84634025               -3.40855877                4.67757989               -1.13819347
              22.57220041                7.62565137               78.15629876                0.00010000                1.65934229               -0.61111752               -2.50677334               -4.57160897                4.33997683               -1.25518631
              23.58891724                7.08106706               77.76033679                0.00010000                1.49069051                0.39582517               -3.06935771               -5.07545844                3.74155875               -1.68097894
              24.60201422                6.54030539               77.35941665                0.00010000                1.08899041                1.50344345               -3.46583597               -4.27497476                2.79616471               -2.36230999
              25.61069705                6.01376667               76.94842859                0.00010000                0.77772866                2.16336449               -3.65049418               -2.35308574                1.49692514               -3.19741939
              26.61756879                5.50723821               76.52306820                0.40830754                0.68717386                2.04736616               -3.63117474               -0.97296532                0.79907106               -3.94349490
              17.05248520               11.75114173               80.49395037                1.00000000                0.00536576                0.06174782               -0.15098801                0.00071606                0.00092307                0.59623148
              18.05253886               11.24514348               80.04175279                0.44406833               -0.03019090               -0.06542707                0.12940191               -0.04783584                0.03328740               -0.35959857
              19.05188139               10.73804780               79.59011614                0.00010000               -0.33866556               -0.19798248                0.41024714               -0.89427116                2.97649788               -1.36432180
              20.04576555               10.21527789               79.19698873                0.00010000               -0.23409898               -0.23434843               -0.58794076               -1.92789772                5.73437410               -1.44048143
              21.04719941                9.68989319               78.80359487                0.00010000                0.47058551               -0.24432032               -1.50330670               -2.49377790                5.46824677               -1.37957106
              22.05517726                9.15983174               78.40934453                0.00010000                1.01997972               -0.12557005               -2.35674334               -3.26110953                5.06254253               -1.33163592
              23.06759900                8.62499386               78.01297820                0.00010000                1.31828428                0.27851926               -3.13040336               -3.91773144                4.47066243               -1.36134784
              24.08154295                8.08842280               77.61240156                0.00010000                1.34556440                0.95327603               -3.77252950               -4.00155105                3.66022057               -1.51116788
              25.09451029                7.55602744               77.20478630                0.00010000                1.21339296                1.63003636               -4.21605208               -3.24589966                2.62505205               -1.81837131
              26.10581081                7.03406201               76.78702667                0.00010000                1.09347024                1.98000006               -4.40788215               -1.77052681                1.38445264               -2.29363301
              27.11637969                6.52622007               76.35637944                0.40939894                1.05688882                1.82624448               -4.33507514               -0.72613533                0.70641340               -2.99961209
              17.55914073               12.75182778               80.35560849                1.00000000                0.01163750                0.07414058               -0.18924313                0.00214210                0.00258489                0.62669221
              18.55925711               12.24451925               79.89856853                0.47516124               -0.02852864               -0.05842895                0.11824438               -0.04326210                0.03520563               -0.35593835
              19.55857016               11.73617862               79.44215392                0.00010000               -0.41345626               -0.18104589                0.42660418               -0.77315135                3.32405255               -1.29927974
              20.55098798               11.21433493               79.05114390                0.00010000               -0.41894577                0.03680609               -0.71269840               -1.69936782                6.40143598               -1.33640563
              21.55019124               10.69009625               78.66001982                0.00010000                0.22097737                0.23018381               -1.76390121               -2.20508526                6.06915041               -1.29987991
              22.55540753               10.16213167               78.26693717                0.00010000                0.75317405                0.47078250               -2.73782195               -2.77055527                5.53392053               -1.23573360
              23.56525473                9.63122176               77.87019409                0.00010000                1.12225572                0.83386882               -3.61488262               -3.12447411                4.80857990               -1.19730331
              24.57785264                9.10013258               77.46768439                0.00010000                1.31011394                1.30069892               -4.34305470               -3.02730830                3.88748007               -1.22635223
              25.59145700                8.57290612               77.05696745                0.00010000                1.36206228                1.72557289               -4.85207929               -2.37239217                2.77249042               -1.37379576
              26.60509389                8.05336667               76.63549942                0.00010000                1.36364875                1.91242350               -5.07382588               -1.27555039                1.47060711               -1.71009154
              27.61872998                7.54376310               76.20090887                0.41029847                1.36360898                1.70947197               -4.95695833               -0.50739951                0.73383624               -2.32094186
              18.06714510               13.75262454               80.21736717                1.00000000                0.01776758                0.08376071               -0.22825759                0.00290371                0.00997877                0.62622954
              19.06732278               13.24397490               79.75538321                0.51196326               -0.02712110               -0.05118528                0.11223122               -0.03589695                0.06395466               -0.38068310
              20.06660268               12.73442688               79.29450880                0.00010000               -0.47311040               -0.16901889                0.44515354               -0.51413266                3.76292286               -1.11513576
              21.05786057               12.21601401               78.90682057                0.00010000               -0.56508566                0.28163623               -0.80833551               -1.18587118                7.12769549               -1.11191268
              22.05530097               11.69449686               78.51788129                0.00010000                0.03900352                0.59413155               -1.95887379               -1.65987429                6.67201605               -1.02842358
              23.05864064               11.16924739               78.12629886                0.00010000                0.59038168                0.85942939               -3.02577956               -2.07299192                6.04030497               -0.94442388
              24.06710860               10.64167124               77.73012268                0.00010000                1.03358885                1.16775597               -3.98735294               -2.25535327                5.22798459               -0.87773490
              25.07931242               10.11443677               77.32726659                0.00010000                1.33598781                1.50242447               -4.79015393               -2.09099085                4.22919367               -0.85676588
              26.09382836                9.59053890               76.91535777                0.00010000                1.50651978                1.78139098               -5.35629152               -1.56283721                3.02821184               -0.93514987
              27.10944281                9.07231048               76.49183896                0.00010000                1.58052375                1.88520451               -5.59996034               -0.79597893                1.61305302               -1.19000007
              28.12543883                8.56040951               76.05418809                0.41100746                1.59960186                1.66329238               -5.45089329               -0.28403832                0.79104072               -1.70468917
              18.57649808               14.75350300               80.07889847                0.98997925                0.02387461                0.09100350               -0.26090660                0.00152457                0.02061176                0.53245798
              19.57673683               14.24349555               79.61187377                0.42291477               -0.01248411               -0.04528379                0.10772292               -0.02614167                0.30701705               -0.38270931
              20.57624840               13.73279825               79.15066401                0.00010000               -0.47681240               -0.16498279                0.42951212               -0.14301184                4.36110524               -0.89259038
              21.56720058               13.21996766               78.76516795                0.00010000               -0.62440106                0.51037773               -0.89317998               -0.53083040                7.80733100               -0.68177861
              22.56376038               12.70197888               78.37893670                0.00010000               -0.02136324                0.80246175               -2.12098783               -0.91861241                7.25084586               -0.57905125
              23.56677331               12.17932025               77.98909372                0.00010000                0.55989510                1.07704068               -3.25533041               -1.17409253                6.51054312               -0.51412514
              24.57495828               11.65457688               77.59404233                0.00010000                1.01959269                1.36135527               -4.28020848               -1.24304485                5.63537976               -0.45889346
              25.58716517               11.13018107               77.19177629                0.00010000                1.36841350                1.63226372               -5.14108512               -1.11038485                4.58630410               -0.42851309
              26.60232655               10.60853394               76.77991301                0.00010000                1.60692680                1.83433657               -5.75397546               -0.77940272                3.31626964               -0.46088683
              27.61930370               10.09107076               76.35561991                0.00010000                1.72623106                1.89578836               -6.01849782               -0.35731063                1.77548696               -0.61194861
              28.63685117                9.57702895               75.91576819                0.41177589                1.75474668                1.71789222               -5.84204872               -0.08388382                0.86315355               -0.97433435
              19.08719049               15.75444461               79.93873141                0.97436248                0.03142055                0.09416144               -0.30091528               -0.06829720                0.25838238                0.44678531
              20.08750470               15.24306923               79.46883627                0.66924434                0.00399225               -0.04263199                0.10051566               -0.08908219                0.69942769               -0.37060004
              21.08727034               14.73112723               79.00791180                0.36778440               -0.47206827               -0.16710183                0.41888768                0.25981071                5.20957545               -0.85937461
              22.07806333               14.22622157               78.62877338                0.36282150               -0.48471064                0.62539106               -1.00766097                0.05721880                8.52295513               -0.29542291
              23.07757612               13.71054610               78.24458220                0.36106781                0.22487286                0.85672207               -2.28083019               -0.39009337                7.66748526               -0.27017776
              24.08256079               13.19078821               77.85636902                0.36220447                0.69053812                1.14679544               -3.45642897               -0.50364015                6.85698072               -0.24708755
              25.09138689               12.66889835               77.46255771                0.36663095                1.02934355                1.43214663               -4.51982052               -0.54244726                5.94010365               -0.23454482
              26.10314766               12.14708205               77.06133476                0.37422271                1.29818646                1.69009775               -5.41900478               -0.48538655                4.88652243               -0.23457143
              27.11735062               11.62722563               76.65046876                0.38506375                1.53269653                1.86916898               -6.06964593               -0.34038324                3.63462166               -0.26949089
              28.13380159               11.11022625               76.22712946                0.40000851                1.72470781                1.91554929               -6.36660183               -0.17312534                2.05174097               -0.36887789
              29.15184477               10.59476735               75.78702343                0.70614956                1.80431809                1.77383987               -6.19080976               -0.04653009                1.08080945               -0.63715433
              14.45917925                5.89346601               82.32131764                1.00000000               -0.02257068                0.02048395               -0.05968965                0.04102774               -0.39913248                0.47626208
              15.45895355                5.38857811               81.89410792                1.00000000               -0.06362965               -0.05349545                0.18544795                0.04722270               -0.49620647                0.05807390
              16.45790666                4.88350638               81.46454155                1.00000000               -0.14164359               -0.12026876                0.42185754                0.04649069               -0.53034112               -0.03485044
              17.45612067                4.37806103               81.03654753                0.68898211               -0.22426716               -0.19492354                0.65844456                0.01812685               -0.48707850               -0.24616570
              18.45342132                3.87190302               80.60799577                0.50852878               -0.30358763               -0.26954482                0.89146938                0.00503571               -0.45008075               -0.27953060
              19.45004892                3.36517105               80.18118426                0.19041451               -0.53969655               -0.36149048                1.15713055               -0.26810068                0.25319581               -0.56566605
              20.44262739                2.85291767               79.76734619                0.00010000               -1.13998547               -0.11225501                1.13051851               -3.36955105                6.39658463               -1.56810614
              21.42724921                2.27762993               79.45879440                0.00010000                0.65274808               -1.19573012               -0.11069426               -3.15522200               12.61171403               -0.51014632
              22.45568235                1.68895465               79.15831801                0.00010000                4.76661858               -1.65337638               -1.25611108               -3.28246517               13.23742138               -0.26301649
              23.52258158                1.07914653               78.86192616                1.00000000                3.63493649                0.64358978               -2.19372313               -3.38912663                6.53928534               -0.10545943
              24.52838108                0.53938117               78.43482900                1.00000000                0.57994933                0.46532651               -1.67504661                0.07647210               -0.01429179               -0.11441942
              14.96447743                6.89367085               82.18237986                1.00000000               -0.00718411                0.01995115               -0.08402672                0.00381656                0.00833095                0.65655560
              15.96440559                6.38804315               81.75506481                1.00000000               -0.04236631               -0.05405497                0.16336378                0.01125845                0.07475778                0.08204198
              16.96363011                5.88230369               81.32865923                1.00000000               -0.11509853               -0.12230468                0.40419387                0.00632314                0.15199043               -0.20867808
              17.96210362                5.37611180               80.90271521                0.88449510               -0.18567193               -0.20465516                0.65234398               -0.00956753                0.23807105               -0.17659100
              18.95991667                4.86920757               80.47810594                0.74959739               -0.26215147               -0.28347433                0.90758712               -0.02412621                0.25942938               -0.19865479
              19.95686059                4.36155614               80.05281534                0.44282535               -0.36071176               -0.37661508                1.19361988               -0.11684913                0.37715307               -0.39697984
              20.95270243                3.85179512               79.63109658                0.00010000                1.04089549               -0.32591518                1.51019674               -3.77620216                6.26465577               -0.96857622
              21.97767850                3.26567263               79.32401480                0.00010000                3.46984825               -2.09379965               -0.21155564               -5.00021177               11.97962900               -0.83692157
              23.02209940                2.67242089               79.01588626                0.00010000                4.28992801               -1.49379601               -1.17214843               -4.17962921               12.23402331               -1.28272277
              24.06347706                2.08558243               78.71418493                0.92290181                2.34058822                0.62501268               -2.04640956               -2.23262205                6.30709327               -0.12537038
              25.06891116                1.54403443               78.28709968                1.00000000                0.54341005                0.43883176               -1.49700719               -0.01287261                0.00303941               -0.16682615
              15.47051097                7.89386503               82.04653424                1.00000000                0.00349023                0.02252125               -0.10757312               -0.00156285                0.13882293                0.76441125
              16.47054588                7.38749701               81.61623007                1.00000000               -0.02732469               -0.05200934                0.14381037                0.00023751                0.32419670                0.01580479
              17.46996448                6.88106028               81.18923858                0.00010000               -0.07602193               -0.12098930                0.39073777               -0.03528198                0.91277548               -0.64379486
              18.46902544                6.37396793               80.77050535                0.00010000               -0.12350165               -0.64020952                0.64653189               -0.31739957                1.27023513               -0.53847016
              19.46749445                5.86623353               80.35040491                0.00010000               -0.19505232               -1.03869225                0.91350263               -0.26995510                1.12516961               -0.37326936
              20.46512439                5.35763874               79.92874288                0.00010000               -0.22537981               -1.55331280                1.22904463                0.08480736                1.26548483                0.02170838
              21.46298685                4.84639937               79.51183430                0.00010000                2.07474071               -3.06973920                1.58436509               -3.55645366                5.90511668                1.06377605
              22.50661921                4.23575394               79.18430354                0.00010000                4.45965572               -2.34047321               -0.55819814               -6.80334245                9.81585551               -1.24283542
              23.55217997                3.65907873               78.85331054                0.00010000                4.98481968               -1.01508534               -1.29714956               -5.71995794               11.74760510               -3.14169434
              24.60631560                3.09164679               78.56621828                0.00010000                2.95198249                1.03809189               -1.85812562               -5.40596205                7.10157348               -6.10768454
              25.61121962                2.54815780               78.13916090                0.40103122                0.49040159                2.84267314               -1.26576830               -4.36969100                0.05649437               -5.02900114
              15.97718222                8.89412127               81.90938153                1.00000000                0.00328698                0.03221062               -0.12519754               -0.00095564                0.23167651                0.63623029
              16.97721509                8.38700297               81.47567967                0.53375822               -0.03643377               -0.05298559                0.13192389               -0.00116148                0.38246138               -0.29669412
              17.97645355                7.87988390               81.04467722                0.00010000               -0.33163583               -0.15466905                0.36719242               -0.46843184                1.32648317               -1.12461589
              18.97058238                7.36330761               80.62987533                0.00010000               -0.28033989               -0.90003202                0.25001774               -1.11792055                2.25300397               -1.12400912
              19.97084675                6.84843373               80.21783811                0.00010000                0.39042651               -1.61795835                0.14194682               -1.03373630                2.54099133               -0.86576904
              20.97839091                6.33048989               79.80999636                0.00010000                1.63057067               -2.61067726               -0.00274822               -1.60555818                3.36901114               -0.25553703
              22.00345816                5.79040034               79.41763203                0.00010000                2.52706889               -4.11400227               -0.48061342               -3.26826860                4.46671372                0.76307057
              23.02893228                5.21886317               79.03932670                0.00010000                2.41746151               -1.22954413               -1.19244535               -5.81027089                5.74467912               -1.79446709
              24.05180739                4.65211918               78.67795488                0.00010000                1.86732332                0.08991456               -1.79534365               -6.11598218                5.64324914               -4.27396088
              25.06627875                4.10634427               78.29933289                0.00010000                0.83439551                1.84986650               -2.03637072               -5.39748295                3.56709975               -9.45945420
              26.06849530                3.60088790               77.89525389                0.40176678                0.22165531                3.75459080               -1.98757486               -3.44252634                2.48199272               -8.96352300
              16.48472848                9.89450925               81.77072614                1.00000000                0.00315440                0.04503131               -0.14163413                0.00112708                0.00432165                0.52838799
              17.48476002                9.38643730               81.33043584                0.42918478               -0.02186353               -0.06299523                0.14685639               -0.01724162                0.29064904               -0.45186780
              18.48429121                8.87796690               80.89567080                0.00010000               -0.33214096               -0.21637778                0.37098188               -0.70684921                1.81983698               -1.49777158
              19.47811720                8.35596729               80.48610400                0.00010000               -0.23268816               -0.64216631               -0.07198832               -1.41968314                3.14225891               -1.40568423
              20.47963744                7.83387437               80.07949759                0.00010000                0.64647097               -1.23219920               -0.50603158               -1.69368286                3.34855875               -1.33138133
              21.49104662                7.30542520               79.67706738                0.00010000                1.48053772               -1.90508974               -0.97584098               -2.60966614                3.55959141               -1.23442262
              22.50924820                6.76411932               79.27987560                0.00010000                1.88241600               -1.80885255               -1.51168651               -4.41428839                3.76918887               -1.58440064
              23.52869494                6.21116306               78.88803065                0.00010000                1.65655132               -0.34356831               -2.06337956               -5.42854013                3.78373708               -2.39495382
              24.54237922                5.66087703               78.49632680                0.00010000                1.04511439                1.08405164               -2.49488941               -4.95812996                3.25455632               -4.19822206
              25.54959723                5.12864412               78.09614628                0.00010000                0.54513031                2.10772411               -2.73400991               -3.02482364                1.90759591               -5.66361782
              26.55328183                4.62324962               77.67706910                0.40259507                0.36846014                1.97512621               -2.70171756               -1.43320683                1.04553465               -6.73485014
              16.99334866               10.89502190               81.63124171                1.00000000                0.00639449                0.05774287               -0.15993241               -0.00040691                0.00435641                0.52097578
              17.99341260               10.38574306               81.18660220                0.44049931               -0.02810436               -0.07091619                0.14499444               -0.04250535                0.09151489               -0.36230799
              18.99278657                9.87555635               80.74356251                0.00010000               -0.35656794               -0.23125030                0.43117007               -0.84701810                2.10912503               -1.49464300
              19.98628125                9.35046428               80.33944090                0.00010000               -0.26356957               -0.44269974               -0.31407073               -1.75394524                3.93431595               -1.56247149
              20.98751518                8.82378974               79.93577738                0.00010000                0.48356919               -0.71567829               -0.99834061               -2.18730570                3.81954415               -1.61598220
              21.99595263                8.29238809               79.53359692                0.00010000                1.09596777               -0.83624101               -1.66177021               -3.06736724                3.67664316               -1.73686763
              23.00943454                7.75422329               79.13254576                0.00010000                1.38255735               -0.48736867               -2.29827548               -4.03495427                3.41844899               -2.00721911
              24.02360378                7.21199180               78.73107360                0.00010000                1.28645998                0.40147383               -2.85693694               -4.42802518                2.98744184               -2.55167071
              25.03516374                6.67380022               78.32617064                0.00010000                0.99029530                1.36459040               -3.26742680               -3.69415664                2.28460492               -3.34014654
              26.04340968                6.14849875               77.91324159                0.00010000                0.77282102                1.88589156               -3.46164855               -2.01879080                1.25522930               -4.20818806
              27.05062016                5.64039042               77.48812295                0.40335231                0.72104739                1.65296155               -3.40411350               -0.82189830                0.69747533               -4.88835972
              17.50327801               11.89566410               81.49225185                1.00000000                0.00974539                0.07022802               -0.18591310                0.00077094                0.00085990                0.56992612
              18.50337547               11.38501897               81.04311767                0.47458904               -0.03241936               -0.07073137                0.14090716               -0.04740255                0.03273019               -0.33680169
              19.50262963               10.87334189               80.59453440                0.00010000               -0.42852847               -0.21272633                0.46397191               -0.83509790                2.33933073               -1.28736119
              20.49480490               10.34711329               80.19167681                0.00010000               -0.43310545               -0.19997743               -0.48648304               -1.78491267                4.46805436               -1.53685847
              21.49396752                9.81956080               79.78939122                0.00010000                0.22304181               -0.16951841               -1.35805672               -2.24260245                4.24128713               -1.64267914
              22.49926573                9.28870038               79.38687537                0.00010000                0.74889412               -0.03448518               -2.17356188               -2.87841758                3.88332340               -1.75057602
              23.50894540                8.75437195               78.98303367                0.00010000                1.06458852                0.33579572               -2.91829674               -3.40742524                3.39350697               -1.92678355
              24.52055750                8.21919253               78.57625249                0.00010000                1.15218714                0.92452442               -3.54356934               -3.43017927                2.76697528               -2.21495673
              25.53198914                7.68816883               78.16434644                0.00010000                1.10368516                1.49512679               -3.98100143               -2.73519563                1.99358763               -2.63518343
              26.54263121                7.16636195               77.74476228                0.00010000                1.05356888                1.75465148               -4.16567503               -1.45967686                1.06280558               -3.15744566
              27.55306052                6.65630885               77.31504707                0.40412859                1.04293122                1.55875227               -4.05705192               -0.57709977                0.56833338               -3.76996804
              18.01465434               12.89642646               81.35357634                1.00000000                0.01324251                0.08029428               -0.21472228                0.00234228                0.00222677                0.59713498
              19.01478676               12.38432844               80.89986264                0.50754369               -0.03320206               -0.06538004                0.13703432               -0.04058807                0.03459190               -0.32876380
              20.01399029               11.87130182               80.44676061                0.00010000               -0.52113382               -0.19845977                0.48473914               -0.68315586                2.60187408               -1.22209369
              21.00436408               11.34646473               80.04456892                0.00010000               -0.64571244                0.06387174               -0.61182274               -1.50530401                4.96554333               -1.37486340
              22.00107605               10.82039938               79.64316604                0.00010000               -0.03954764                0.28969635               -1.62238191               -1.92655024                4.67687457               -1.45286862
              23.00357313               10.29169839               79.24060258                0.00010000                0.48589151                0.53240902               -2.56003091               -2.40533543                4.19493086               -1.50562379
              24.01079388                9.76093920               78.83536799                0.00010000                0.88150866                0.85914589               -3.40598156               -2.68572866                3.57533773               -1.58548365
              25.02120331                9.23048229               78.42585990                0.00010000                1.12482673                1.25712133               -4.10819497               -2.56486385                2.84414178               -1.72787776
              26.03329041                8.70370275               78.01032204                0.00010000                1.24364111                1.60019575               -4.59410850               -1.97172505                2.01151806               -1.96498130
              27.04607613                8.18359178               77.58688390                0.00010000                1.29469703                1.72425567               -4.79014797               -1.03722610                1.06673564               -2.32954182
              28.05918435                7.67156547               77.15363822                0.40498401                1.31082239                1.51622100               -4.64154387               -0.39580214                0.55462850               -2.86223310
              18.52752091               13.89726999               81.21499276                1.00000000                0.01674368                0.08630889               -0.24428363                0.00320037                0.01181217                0.59798903
              19.52768835               13.38371137               80.75665547                0.54805811               -0.03453487               -0.05826069                0.13738324               -0.03220785                0.06145799               -0.34799151
              20.52683021               12.86937270               80.29932339                0.00010000               -0.60435431               -0.18698703                0.50603525               -0.39779913                2.96428077               -1.04609561
              21.51560126               12.34839073               79.89927269                0.00010000               -0.83136784                0.31552333               -0.70753516               -0.96260676                5.55241457               -1.11045518
              22.51020286               11.82535473               79.49902640                0.00010000               -0.24910299                0.65879517               -1.82136147               -1.40287868                5.14616739               -1.10129895
              23.51061920               11.29934856               79.09701021                0.00010000                0.31220333                0.91295257               -2.85472472               -1.77709163                4.56668364               -1.09598768
              24.51644692               10.77155487               78.69149180                0.00010000                0.79387363                1.18426735               -3.78574297               -1.92622323                3.85886529               -1.11155244
              25.52649667               10.24433496               78.28091266                0.00010000                1.14991147                1.46327743               -4.55925635               -1.76274742                3.05409870               -1.16880747
              26.53944515                9.72017275               77.86365835                0.00010000                1.37636489                1.68065019               -5.09540428               -1.29436612                2.15556240               -1.30426313
              27.55402397                9.20084706               77.43798946                0.00010000                1.48759747                1.73946340               -5.30716637               -0.64564494                1.14395996               -1.56692447
              28.56919710                8.68663327               77.00204913                0.40565323                1.51731300                1.52947200               -5.12308730               -0.21757435                0.58301740               -2.00793246
              19.04183557               14.89815264               81.07625497                1.00000000                0.02043190                0.09002002               -0.26861699                0.00197909                0.01469861                0.50341829
              20.04203989               14.38316322               80.61313987                0.45662533               -0.02403084               -0.05294998                0.14045879               -0.02440429                0.27944766               -0.34779336
              21.04135496               13.86756208               80.15537189                0.00010000               -0.64549867               -0.18249790                0.49884470                0.00567030                3.48794321               -0.83068857
              22.02912992               13.35277520               79.75677156                0.00010000               -0.96471582                0.59815785               -0.78947932               -0.34090150                6.12462032               -0.66773475
              23.02206064               12.83357528               79.35843684                0.00010000               -0.36493786                0.88463054               -1.98237120               -0.74840348                5.61670827               -0.60215371
              24.02183116               12.30995744               78.95746557                0.00010000                0.26111845                1.13312169               -3.08533323               -1.00358931                4.93072413               -0.57874081
              25.02728301               11.78462455               78.55242696                0.00010000                0.77496556                1.37796289               -4.08112714               -1.06014967                4.15784468               -0.56741776
              26.03733047               11.25974784               78.14185739                0.00010000                1.18039896                1.60178644               -4.91275251               -0.93506040                3.30422012               -0.57838271
              27.05089099               10.73731576               77.72419427                0.00010000                1.46861161                1.75711352               -5.49406080               -0.64550972                2.35167374               -0.63892347
              28.06670271               10.21838105               77.29756500                0.00010000                1.61847262                1.78574655               -5.72415526               -0.29035326                1.25211714               -0.78801289
              29.08326044                9.70215491               76.85970003                0.40643343                1.65577357                1.61311286               -5.51172582               -0.05916019                0.62888920               -1.09380453
              19.55753933               15.89907039               80.93577409                0.98683993                0.02514941                0.09177496               -0.29405552               -0.07142611                0.23894213                0.41498233
              20.55779082               15.38265237               80.47005084                0.68475198               -0.01038422               -0.05108480                0.13677340               -0.09228946                0.64462605               -0.33396173
              21.55733164               14.86572274               80.01253984                0.36715004               -0.75103953               -0.18393378                0.49394663                0.48274423                4.24739224               -0.78842672
              22.54277003               14.36035388               79.61927958                0.36253168               -0.96395485                0.75786873               -0.89296135                0.23024110                6.73157321               -0.27418212
              23.53805255               13.84304734               79.22252732                0.36074174               -0.16359414                0.94720603               -2.13025956               -0.31795399                5.95976789               -0.26557993
              24.53949815               13.32201099               78.82277748                0.36209678                0.37004915                1.20535549               -3.27356901               -0.42996219                5.20805074               -0.26066914
              25.54545353               12.79911412               78.41859962                0.36573520                0.78030540                1.44895767               -4.30751749               -0.46496320                4.39196376               -0.26539882
              26.55510426               12.27637069               78.00869911                0.37255154                1.12241103                1.66228509               -5.17733940               -0.41257691                3.52893105               -0.27983405
              27.56790175               11.75531502               77.59166896                0.38240614                1.41367504                1.79992624               -5.79620375               -0.28935883                2.59174692               -0.32155327
              28.58337776               11.23656199               77.16568517                0.39582960                1.62822147                1.81809438               -6.05836198               -0.15346938                1.46557994               -0.41264703
              29.60046618               10.71889553               76.72756471                0.70341328                1.70884222                1.67406219               -5.84632169               -0.04607244                0.80262116               -0.63678710
              14.88112835                6.03728272               83.32024543                1.00000000               -0.00309994                0.04422065               -0.14819523                0.05098951               -0.40799932                0.47619655
              15.88109736                5.52832100               82.89571008                1.00000000               -0.05170173               -0.04036951                0.13705174                0.05698879               -0.51333261                0.06045500
              16.88009432                5.01915048               82.46871240                1.00000000               -0.14298076               -0.11582405                0.40952530                0.05544768               -0.55361273               -0.02995473
              17.87823774                4.50950441               82.04330002                0.69248700               -0.23894525               -0.20439149                0.68532843                0.01939823               -0.51129378               -0.23825772
              18.87531542                3.99897451               81.61728227                0.52273499               -0.33038324               -0.29617872                0.95949953                0.00542969               -0.45725933               -0.26496809
              19.87163008                3.48770177               81.19338119                0.22748103               -0.47595417               -0.40633898                1.27276812               -0.18372719                0.15624408               -0.56130760
              20.86579633                2.97256055               80.78018904                0.00010000               -0.80868355               -0.32534744                1.40772601               -2.74910949                5.38669426               -1.42724030
              21.85545640                2.40708070               80.45869960                0.00010000                0.89996388               -1.21005958                0.08987829               -2.37117877               11.01524964               -0.60133769
              22.88379561                1.82874791               80.14646379                0.00010000                4.57759594               -1.64898306               -1.24514071               -2.74790628               11.48195474               -0.04647625
              23.94700832                1.22511278               79.83997845                1.00000000                3.44813676                0.62610454               -2.20510514               -3.03582286                5.74745151               -0.13386178
              24.95275834                0.68526773               79.41857920                1.00000000                0.57500216                0.42108562               -1.58922745                0.04958470               -0.00946466               -0.11499548
              15.39059997                7.03772493               83.18110524                1.00000000                0.01333963                0.03991752               -0.16529249                0.00803129                0.00086857                0.65283481
              16.39073337                6.52791731               82.75648924                1.00000000               -0.02714377               -0.04322779                0.12256937                0.01539775                0.06205064                0.08488149
              17.39005709                6.01799224               82.33270234                1.00000000               -0.11068295               -0.12000338                0.39992974                0.00658594                0.14213469               -0.19855457
              18.38851971                5.50746049               81.90946078                0.89414715               -0.18930319               -0.22023446                0.68781255               -0.01297923                0.24510893               -0.16380229
              19.38627103                4.99601272               81.48767646                0.76800470               -0.27599638               -0.31668681                0.99396965               -0.02908698                0.30428164               -0.18478237
              20.38299978                4.48363838               81.06555552                0.48841757               -0.38276297               -0.42975138                1.34276915               -0.11099181                0.46854013               -0.39083157
              21.37861577                3.96930708               80.64726002                0.06636333                1.03255786               -0.46469286                1.71650652               -3.04907815                5.29670071               -0.88669291
              22.40365094                3.39498010               80.32199203                0.00010000                3.43423682               -2.04783529               -0.65809198               -3.98301906                9.70755858               -0.42161550
              23.44730051                2.81225808               80.00490041                0.00010000                4.23696252               -1.61637421               -0.89772992               -3.52208132               10.66604118               -1.29957085
              24.48839019                2.23137382               79.69426367                0.99311248                2.28993669                0.57327535               -1.89908030               -1.89697145                5.58116468               -0.13293257
              25.49309924                1.68947858               79.27306758                1.00000000                0.47090544                0.37057236               -1.28860200               -0.05551606                0.00000701               -0.13836116
              15.90090422                8.03808107               83.04507211                1.00000000                0.02337794                0.03556181               -0.18010491                0.00001819                0.13063839                0.75979107
              16.90113800                7.52745645               82.61750699                1.00000000               -0.01106850               -0.04385128                0.11174551               -0.00123696                0.31334676                0.02300286
              17.90068285                7.01675041               82.19320201                0.00010000               -0.05901658               -0.12037588                0.39652084               -0.05723870                0.90927165               -0.63362643
              18.89995767                6.50509972               81.77724449                0.00010000               -0.10635331               -0.65725003                0.68950111               -0.37370141                1.30148136               -0.71816252
              19.89855579                5.99264077               81.36013679                0.00010000               -0.19208966               -1.04175638                1.01332211               -0.37049248                1.22389625               -0.75551643
              20.89611588                5.47910674               80.94200941                0.00010000               -0.25413721               -1.50434000                1.40436933               -0.07404657                1.44548893               -0.62091556
              21.89347304                4.96326670               80.52897879                0.00010000                1.83645705               -2.76936076                1.82009214               -2.97728585                4.84348250               -0.07850044
              22.93284502                4.36612399               80.17899854                0.00010000                4.17436102               -2.28065834               -0.19421899               -5.78505124                7.90902406               -0.63879588
              23.97696026                3.79642043               79.84128038                0.00010000                4.95016866               -1.25912726               -0.99556312               -5.00123506               10.60384321               -3.68143403
              25.03184839                3.23657828               79.54889736                0.00010000                2.92391188                0.68491328               -1.57329155               -5.02650761                6.55122304               -6.36726322
              26.03543850                2.69267917               79.12795054                0.39666002                0.35901089                2.52752957               -0.96821513               -4.25077515                0.04167415               -5.50544156
              16.41184959                9.03843617               82.90779869                1.00000000                0.01897048                0.04054506               -0.18714365               -0.00336612                0.21881261                0.63114976
              17.41203929                8.52704028               82.47689186                0.55564256               -0.02902687               -0.04416305                0.11022337               -0.01165599                0.35761264               -0.27187708
              18.41126905                8.01558472               82.04845717                0.00010000               -0.34419870               -0.15035548                0.38423531               -0.50941741                1.11590253               -1.09991974
              19.40515532                7.49431549               81.63272908                0.00010000               -0.32074461               -0.89482532                0.30635985               -1.21294295                1.86985062               -1.47056544
              20.40485416                6.97517759               81.21985940                0.00010000                0.28688021               -1.55337198                0.23992230               -1.16284060                2.15295668               -1.58744670
              21.41089292                6.45355158               80.81079530                0.00010000                1.35993223               -2.39693402                0.13761221               -1.62713163                2.80017147               -1.42828601
              22.43205280                5.91391986               80.41379282                0.00010000                2.19516289               -3.63261135               -0.27727584               -2.88910005                3.49765438               -0.79573732
              23.45479618                5.34936694               80.02799538                0.00010000                2.23843572               -1.26318411               -0.94367466               -5.13798371                4.79541259               -2.43311852
              24.47682152                4.78707554               79.66094848                0.00010000                1.84025548               -0.13210292               -1.57173223               -5.57851161                4.94554926               -5.07738861
              25.49160129                4.24507209               79.27958171                0.00010000                0.95302210                1.35176904               -1.93073997               -5.08399001                3.09552186              -10.23296041
              26.49588196                3.74002918               78.87646888                0.39704993                0.42806692                3.25137545               -1.83255041               -3.18385909                2.23160929              -10.07188811
              16.92362867               10.03889198               82.76903897                1.00000000                0.01276617                0.05252302               -0.19184372                0.00044507                0.00789035                0.51965962
              17.92375633                9.52657319               82.33186282                0.45686932               -0.02046867               -0.05702354                0.13765645               -0.02792857                0.26012976               -0.42097286
              18.92321930                9.01374330               81.89955255                0.00010000               -0.38251959               -0.21014531                0.39934538               -0.73526163                1.42488341               -1.42757126
              19.91610594                8.48720321               81.48578041                0.00010000               -0.35782041               -0.60579171               -0.00630852               -1.47312594                2.40176342               -1.67088197
              20.91606289                7.96157333               81.07503886                0.00010000                0.43625171               -1.12041102               -0.40697965               -1.70168952                2.57939609               -1.90628426
              21.92483097                7.43116806               80.66807771                0.00010000                1.19063983               -1.67269268               -0.85078134               -2.46784500                2.71499197               -2.08781972
              22.93987569                6.89061447               80.26557117                0.00010000                1.60493492               -1.57854734               -1.37475646               -3.96339246                2.89086281               -2.54387078
              23.95692967                6.34086031               79.86821022                0.00010000                1.49045981               -0.37775649               -1.93385555               -4.82955417                2.97198803               -3.32880852
              24.96968488                5.79377837               79.47203022                0.00010000                1.01426415                0.92036443               -2.41349084               -4.42649166                2.62938416               -5.13703730
              25.97721496                5.26361367               79.06953061                0.00010000                0.60811330                1.79574117               -2.66210593               -2.69118235                1.57164528               -6.63034022
              26.98184715                4.75770668               78.65126995                0.39782182                0.46321919                1.57319399               -2.56455713               -1.29701742                0.89210176               -7.76284899
              17.43649607               11.03948663               82.62943043                1.00000000                0.01333298                0.06568235               -0.19857844               -0.00157645                0.00444433                0.50510744
              18.43662940               10.52589981               82.18805847                0.47063505               -0.02811374               -0.07130868                0.14434226               -0.04751132                0.08088040               -0.34140352
              19.43593379               10.01138181               81.74808491                0.00010000               -0.43833142               -0.23204115                0.46527720               -0.84052980                1.57641473               -1.41042510
              20.42786277                9.48219966               81.33672647                0.00010000               -0.45391369               -0.38952559               -0.24063758               -1.72242839                2.89036519               -1.74086038
              21.42685552                8.95276937               80.92640868                0.00010000                0.23160578               -0.59611931               -0.89446459               -2.06691138                2.78431446               -2.02417195
              22.43249488                8.42009773               80.51771352                0.00010000                0.81185924               -0.66767470               -1.54510805               -2.80250748                2.64167942               -2.34032986
              23.44309270                7.88234892               80.11033325                0.00010000                1.12731561               -0.34892566               -2.18946845               -3.60347914                2.42701933               -2.75446241
              24.45504120                7.34181181               79.70319806                0.00010000                1.12228141                0.42385277               -2.78042286               -3.91130392                2.12401754               -3.39294561
              25.46553833                6.80548283               79.29406812                0.00010000                0.94040669                1.26970029               -3.23197214               -3.23187634                1.64715170               -4.23604435
              26.47384933                6.28098691               78.87919562                0.00010000                0.81086216                1.68285605               -3.43739802               -1.74192207                0.92499061               -5.12081660
              27.48175557                5.77149306               78.45498593                0.39848036                0.79062442                1.37993742               -3.33068418               -0.68290405                0.55688137               -5.77313810
              17.95077077               12.04020562               82.49023211                1.00000000                0.01401480                0.07714721               -0.21457534               -0.00003051                0.00046643                0.54664813
              18.95091092               11.52514701               82.04457093                0.50638628               -0.03309585               -0.07468156                0.14674824               -0.04839316                0.02882811               -0.31644872
              19.95010885               11.00910248               81.59939558                0.00010000               -0.53205533               -0.22170301                0.49943794               -0.78833729                1.70143539               -1.21872354
              20.94026981               10.47941270               81.18725907                0.00010000               -0.66411309               -0.14789374               -0.40675584               -1.67104415                3.20208206               -1.64177545
              21.93682659                9.94965095               80.77643373                0.00010000               -0.05342671               -0.06828393               -1.24866428               -2.03792846                3.00099265               -1.91434739
              22.93920128                9.41781457               80.36587329                0.00010000                0.46327140                0.08933097               -2.05574606               -2.57028393                2.66956551               -2.17578196
              23.94609202                8.88363596               79.95461227                0.00010000                0.81842036                0.43525220               -2.81580645               -3.00328721                2.25615692               -2.48820042
              24.95556969                8.34933737               79.54153017                0.00010000                0.98901148                0.95515247               -3.47519964               -2.98616704                1.79143871               -2.88851721
              25.96587225                7.81917238               79.12516627                0.00010000                1.03982997                1.44058807               -3.95091253               -2.34707764                1.27771595               -3.38497850
              26.97636629                7.29727079               78.70371317                0.00010000                1.06522651                1.62808687               -4.15585684               -1.23019285                0.68550651               -3.92806289
              27.98717678                6.78530543               78.27523840                0.39925023                1.08104954                1.40116643               -4.02274472               -0.46861868                0.40501225               -4.47597548
              18.46661268               13.04102957               82.35131404                1.00000000                0.01520036                0.08500369               -0.23470288                0.00191953                0.00161640                0.57048517
              19.46676468               12.52440618               81.90130922                0.54122725               -0.03556585               -0.07045871                0.14827020               -0.03857153                0.03081468               -0.30494736
              20.46590136               12.00694775               81.45184871                0.00010000               -0.64356310               -0.21043921                0.52241166               -0.60010920                1.87961229               -1.15452328
              21.45389342               11.47924178               81.03890745                0.00010000               -0.91031385                0.10947865               -0.52711586               -1.33040086                3.53051668               -1.42469158
              22.44769508               10.95140369               80.62757218                0.00010000               -0.33946117                0.37745722               -1.50680789               -1.68486166                3.27087092               -1.61861875
              23.44710419               10.42188435               80.21573655                0.00010000                0.19045385                0.63250409               -2.43754888               -2.10210452                2.82304539               -1.78773184
              24.45150416                9.89105396               79.80207446                0.00010000                0.63386209                0.93726361               -3.30050720               -2.33390232                2.29087821               -1.97975775
              25.45978144                9.36091486               79.38552049                0.00010000                0.95796006                1.28628830               -4.03664567               -2.20506080                1.73875314               -2.22116101
              26.47066336                8.83429459               78.96508528                0.00010000                1.16654911                1.57045142               -4.55974620               -1.66878285                1.19170895               -2.52734216
              27.48311242                8.31354865               78.53969646                0.00010000                1.28252748                1.65100541               -4.77657237               -0.86066290                0.62742045               -2.90485860
              28.49631391                7.79951638               78.10807800                0.40011185                1.32014919                1.44418098               -4.61003753               -0.31307314                0.36231341               -3.36123906
              18.98405594               14.04190570               82.21248149                1.00000000                0.01653639                0.08802338               -0.25585566                0.00369259                0.01194138                0.57166868
              19.98422131               13.52373784               81.75813087                0.58541439               -0.03924380               -0.06309385                0.15286699               -0.02839104                0.05447740               -0.31817196
              20.98327107               13.00489369               81.30462950                0.00010000               -0.75077263               -0.19898605                0.54491024               -0.28306718                2.16770032               -0.98601393
              21.96920586               12.48160227               80.89266986                0.00010000               -1.13921353                0.36821474               -0.61681795               -0.74794912                3.97994190               -1.12014962
              22.96048680               11.95720009               80.48145406                0.00010000               -0.58484675                0.75155950               -1.69800551               -1.17160857                3.60607783               -1.18769200
              23.95750892               11.43046465               80.06920437                0.00010000               -0.00516672                1.00469122               -2.72458750               -1.52626893                3.06006505               -1.26238793
              24.96038346               10.90238123               79.65440782                0.00010000                0.53594621                1.25333710               -3.67363857               -1.65911617                2.44157096               -1.35867741
              25.96822784               10.37506313               79.23608146                0.00010000                0.97396693                1.49560528               -4.48174771               -1.50495009                1.82443592               -1.48851258
              26.97986280                9.85058141               78.81344968                0.00010000                1.28516935                1.67251334               -5.05474172               -1.08915952                1.23440464               -1.67248467
              27.99393123                9.33029089               78.38569564                0.00010000                1.45585243                1.70330702               -5.28702212               -0.53322414                0.64552469               -1.93494647
              29.00897985                8.81418905               77.95172635                0.40073859                1.50486187                1.50604470               -5.08766490               -0.16793445                0.36215513               -2.30058991
              19.50302224               15.04279004               82.07352613                1.00000000                0.01866198                0.09001619               -0.27639742                0.00342045                0.01399048                0.48020396
              20.50320886               14.52314430               81.61468295                0.49224981               -0.03233308               -0.05848912                0.16266035               -0.02059230                0.25273482               -0.31832661
              21.50237558               14.00296803               81.16064090                0.00010000               -0.82904119               -0.19354499                0.54244868                0.15900770                2.62033484               -0.77544691
              22.48662804               13.48660608               80.74937837                0.00010000               -1.34875233                0.70598053               -0.68984310               -0.15158458                4.44690571               -0.66098454
              23.47540053               12.96643488               80.33928927                0.00010000               -0.76151811                0.99267184               -1.84684824               -0.59205626                3.96931332               -0.63405915
              24.47139768               12.44197817               79.92738706                0.00010000               -0.08385913                1.22431746               -2.94244001               -0.85867952                3.31714636               -0.65366968
              25.47372335               11.91612070               79.51241979                0.00010000                0.50422909                1.44319102               -3.95731602               -0.91150702                2.63110707               -0.68640884
              26.48148226               11.39082696               79.09352124                0.00010000                0.99645287                1.63693945               -4.82539748               -0.79733790                1.96727808               -0.73716092
              27.49365241               10.86774485               78.67003180                0.00010000                1.36790154                1.76318881               -5.44561345               -0.54377413                1.33871972               -0.82288967
              28.50884029               10.34761479               78.24113680                0.00010000                1.57532490                1.77210400               -5.69778045               -0.24106837                0.69977967               -0.96688378
              29.52515891                9.82963728               77.80553368                0.40147151                1.63186183                1.60565967               -5.46883567               -0.03983778                0.38210218               -1.21233877
              20.02341582               16.04370602               81.93285030                1.00000000                0.02156451                0.09159810               -0.29360274               -0.07443816                0.22562296                0.39439021
              21.02363147               15.52256806               81.47157174                0.70044798               -0.02131882               -0.05762470                0.16334172               -0.09190063                0.59753757               -0.30666186
              22.02298945               15.00102279               81.01779074                0.36625542               -1.04620785               -0.19452388                0.54190038                0.71907809                3.30083451               -0.72441739
              23.00270731               14.49572188               80.61091415                0.36242726               -1.48579337                0.91158060               -0.77835745                0.40946407                4.95295050               -0.25673462
              23.99327358               13.97705353               80.20197701                0.36112786               -0.60289013                1.06186429               -1.97609849               -0.25123962                4.24262541               -0.26609100
              24.99064951               13.45495100               79.79089764                0.36186151                0.00154748                1.29728289               -3.11094087               -0.36524047                3.52594856               -0.28012698
              25.99330453               12.93124505               79.37640736                0.36550034                0.50037133                1.51243455               -4.16553123               -0.39933595                2.79237742               -0.30201114
              27.00065694               12.40780192               78.95778798                0.37115668                0.94474812                1.69749598               -5.07546660               -0.35252554                2.11221122               -0.32985491
              28.01219949               11.88584518               78.53454468                0.37964875                1.32802525                1.81003270               -5.73820348               -0.24873905                1.49521694               -0.37668321
              29.02721744               11.36573297               78.10596222                0.39189088                1.59693139                1.81181846               -6.02791847               -0.13943153                0.84557941               -0.45750670
              30.04413812               10.84630225               77.67009700                0.70086847                1.69206789                1.66649676               -5.80049988               -0.04515163                0.50711016               -0.63336808
              15.30008996                6.18127031               84.31835373                1.00000000                0.01299669                0.06305509               -0.22116374                0.05954298               -0.42146325                0.47713190
              16.30021993                5.66822889               83.89684895                1.00000000               -0.04227438               -0.02850100                0.09377913                0.06581182               -0.53813282                0.06307201
              17.29924447                5.15492739               83.47273205                1.00000000               -0.14474982               -0.10844043                0.39160276                0.06295201               -0.58438829               -0.02608811
              18.29732493                4.64097435               83.05025410                0.69687928               -0.25247555               -0.20830761                0.69669091                0.01506919               -0.53662040               -0.23201752
              19.29419496                4.12581527               82.62718576                0.53988297               -0.35289493               -0.31578710                1.00386208                0.00235338               -0.45614389               -0.24622278
              20.29026703                3.60959622               82.20663962                0.27313997               -0.45760528               -0.44849347                1.36388069               -0.14113792                0.12171427               -0.53901025
              21.28504285                3.09023090               81.79550071                0.00010000               -0.44937897               -0.49593972                1.61070642               -1.81318651                4.45175694               -1.32221606
              22.28127945                2.53901833               81.46059197                0.00010000                0.94998677               -0.20769396                0.10071429               -2.66296716                9.28218642               -1.93737747
              23.30404259                1.97115190               81.13341519                0.00010000                4.20678796               -1.95390169               -1.49050535               -2.64537390                9.80477115                0.20423340
              24.36541521                1.36789887               80.81782406                1.00000000                3.34738555                0.61059999               -2.18831378               -3.00057281                4.97917667               -0.07070518
              25.37099030                0.82810450               80.40304445                1.00000000                0.55750906                0.37913701               -1.48397359                0.05188070               -0.00593390               -0.07177317
              15.81372681                7.18190086               84.17907401                1.00000000                0.03226964                0.05485469               -0.23313509                0.01250388               -0.01067891                0.64982168
              16.81404950                6.66794388               83.75751620                1.00000000               -0.01127735               -0.03372194                0.08458247                0.02025573                0.04172197                0.08807510
              17.81350126                6.15384298               83.33665782                1.00000000               -0.10089120               -0.11472304                0.38587772                0.00576655                0.12438191               -0.18810849
              18.81203168                5.63889128               82.91647146                0.90479697               -0.17968517               -0.23189852                0.70105526               -0.01951165                0.25455506               -0.15266918
              19.80990756                5.12265740               82.49798534                0.78949707               -0.26919229               -0.34375045                1.04394967               -0.03837441                0.37413810               -0.16771843
              20.80664783                4.60511129               82.07967072                0.54336513               -0.38538099               -0.48077847                1.45778554               -0.12303772                0.61184103               -0.37094011
              21.80219994                4.08527151               81.66542671                0.18340257                0.37707238               -0.59671722                1.93249161               -1.51726928                3.83215587               -0.83461649
              22.81418928                3.53694139               81.31085297                0.00010000                3.04743212               -1.10218269               -0.62186817               -3.12199902                7.77341316               -0.68993104
              23.86314858                2.95161288               80.99793166                0.00010000                4.63719507               -2.08749565               -0.43293783               -3.63105530                9.69505135               -1.18610777
              24.90693318                2.37400487               80.67620333                1.00000000                2.40774505                0.55423075               -1.82031702               -1.72311613                4.67036016               -0.06967341
              25.91130348                1.83189587               80.26132764                1.00000000                0.43702974                0.32715886               -1.13374314               -0.06307817               -0.00192554               -0.09948716
              16.32825400                8.18236740               84.04293214                1.00000000                0.04289193                0.04382763               -0.24123779                0.00097189                0.11803418                0.75759609
              17.32868292                7.66755445               83.61846498                1.00000000                0.00792052               -0.03671458                0.08045355               -0.00375545                0.29511082                0.03210173
              18.32841241                7.15263293               83.19716899                0.00010000               -0.02813175               -0.11540100                0.39016711               -0.08924777                0.89559155               -0.61993003
              19.32812028                6.63633638               82.78429538                0.00010000               -0.06024750               -0.67654480                0.70231314               -0.45735989                1.33287274               -0.89506946
              20.32720746                6.11894026               82.37067135                0.00010000               -0.14640563               -1.04373359                1.05962725               -0.52118121                1.35507073               -1.13961714
              21.32519217                5.59998065               81.95683027                0.00010000               -0.21700435               -1.46277167                1.51461376               -0.34153067                1.69163827               -1.28179971
              22.32286737                5.07829656               81.54823614                0.00010000                1.36529635               -2.36891452                2.00922872               -1.44973742                4.09865415               -1.25060550
              23.35249810                4.51697467               81.18041916                0.00010000                3.57453160               -2.79761348                0.83773590               -4.26994906                5.89297865               -0.36823733
              24.39435800                3.92940199               80.83339928                0.00010000                4.90859039               -1.58956511               -0.25238125               -5.10038600                9.35601200               -4.56023762
              25.45066990                3.37898348               80.53475245                0.00010000                2.97943703                0.35234737               -1.47075526               -4.45093560                5.85164376               -6.68290574
              26.45394674                2.83464767               80.11979660                0.39240608                0.32768398                2.21174298               -0.80225073               -4.03109805                0.03736696               -6.10024942
              16.84337215                9.18277741               83.90563866                1.00000000                0.03367207                0.04516500               -0.23902355               -0.00755348                0.20197569                0.63100660
              17.84370887                8.66720959               83.47788414                0.57904883               -0.02188870               -0.03516134                0.08808626               -0.02381659                0.32714929               -0.24339963
              18.84293438                8.15153496               83.05236193                0.00010000               -0.35658609               -0.14225993                0.39096677               -0.56951656                0.89692480               -1.07105459
              19.83657715                7.62536038               82.63600253                0.00010000               -0.35473585               -0.88920638                0.33259957               -1.36031788                1.47975068               -1.80666983
              20.83583966                7.10178273               82.22263655                0.00010000                0.19418868               -1.48704287                0.28761177               -1.38919615                1.76511598               -2.30541464
              21.84046092                6.57585586               81.81274860                0.00010000                1.01857557               -2.16150371                0.21357697               -1.71337646                2.27675868               -2.62898707
              22.85621117                6.03789322               81.41208651                0.00010000                1.86119761               -3.07975446               -0.10861172               -2.54005788                2.69643021               -2.48663046
              23.87768488                5.48098912               81.02045321                0.00010000                2.14604396               -2.37952322               -0.58131104               -4.44470416                3.95204193               -3.64558645
              24.89913205                4.91982158               80.64652024                0.00010000                1.74919546               -0.21926730               -1.44093482               -5.03243945                4.07104906               -6.19351658
              25.91266878                4.38105182               80.26071809                0.00010000                1.01105461                0.87199581               -1.87832309               -4.62851790                2.55268159              -11.03952506
              26.91935314                3.87613073               79.85860288                0.39265711                0.66843578                2.74139590               -1.80838622               -2.80718745                1.95604173              -11.24040885
              17.35923858               10.18327070               83.76688926                1.00000000                0.02104570                0.05767489               -0.23280520               -0.00148250                0.01059356                0.51760940
              18.35944903                9.66685123               83.33318897                0.48746186               -0.01836452               -0.05013525                0.12641788               -0.04080596                0.22632922               -0.38848942
              19.35887129                9.14978773               82.90365771                0.00010000               -0.43914364               -0.20150734                0.41378034               -0.77932412                1.02433835               -1.35929948
              20.35066616                8.61855225               82.48597783                0.00010000               -0.49716142               -0.55959822                0.03462931               -1.57003486                1.65292637               -1.92536912
              21.34892806                8.08919940               82.07135799                0.00010000                0.20739951               -0.99356487               -0.34785421               -1.77134572                1.79321048               -2.46929843
              22.35481415                7.55675058               81.66005176                0.00010000                0.90024466               -1.40349704               -0.78746672               -2.40486038                1.84974877               -2.95497422
              23.36693295                7.01670147               81.25238047                0.00010000                1.34307494               -1.39001405               -1.30780456               -3.55435766                1.96998385               -3.60833538
              24.38167565                6.46938421               80.84935354                0.00010000                1.33567822               -0.50880919               -1.90625866               -4.35102220                2.03238015               -4.47027333
              25.39364652                5.92501664               80.44805698                0.00010000                1.00573749                0.80608506               -2.47029833               -3.99918251                1.85298821               -6.17483026
              26.40179040                5.39642340               80.04290417                0.00010000                0.69993302                1.54240205               -2.75256728               -2.36090756                1.15724422               -7.60227670
              27.40764518                4.88947559               79.62577796                0.39320158                0.58547765                1.24142430               -2.62003185               -1.15358007                0.72882602               -8.77371446
              17.87618146               11.18393091               83.62727014                1.00000000                0.01942678                0.07213736               -0.22869244               -0.00384678                0.00406921                0.49565829
              18.87637573               10.66620688               83.18948905                0.50290675               -0.02672965               -0.07059883                0.13946910               -0.05432837                0.06749181               -0.32234577
              19.87564687               10.14750482               82.75286805                0.00010000               -0.53054743               -0.22920506                0.48129587               -0.84697790                1.04328126               -1.33395025
              20.86576478                9.61416841               82.33462815                0.00010000               -0.67162240               -0.32277220               -0.18575418               -1.72255829                1.84338311               -1.91136078
              21.86221442                9.08191143               81.91788809                0.00010000               -0.04515645               -0.45445236               -0.82122070               -1.99687071                1.72296357               -2.42013728
              22.86486165                8.54778592               81.50269476                0.00010000                0.51379858               -0.47944344               -1.48221075               -2.60770684                1.54656813               -2.94278448
              23.87249039                8.01009294               81.08875639                0.00010000                0.87438066               -0.19173683               -2.16952657               -3.27471366                1.33087918               -3.52112999
              24.88234926                7.47081293               80.67546515                0.00010000                0.98094098                0.48577747               -2.83219826               -3.49965125                1.12164086               -4.25775507
              25.89210921                6.93594328               80.26153120                0.00010000                0.93212099                1.22177305               -3.35548150               -2.85995634                0.87726865               -5.13828381
              26.90099168                6.41189986               79.84449363                0.00010000                0.90339752                1.54382209               -3.60489915               -1.52526315                0.51551819               -6.03816005
              27.91017716                5.90095921               79.42150927                0.39400495                0.91854771                1.21108410               -3.48644840               -0.57080830                0.38278768               -6.68112796
              18.39460970               12.18471345               83.48796035                1.00000000                0.01788641                0.08279324               -0.23555876               -0.00167811               -0.00022554                0.52849958
              19.39478856               11.66543925               83.04605263                0.54010930               -0.03197490               -0.07686695                0.14626322               -0.05085812                0.02216007               -0.29914648
              20.39397020               11.14520363               82.60452316                0.00010000               -0.64900886               -0.22636957                0.51588281               -0.75024946                1.06909609               -1.16093258
              21.38180838               10.61209681               82.18354170                0.00010000               -0.92985272               -0.08041562               -0.34003610               -1.58035523                1.94107603               -1.74280329
              22.37537314               10.08011036               81.76441794                0.00010000               -0.36649367                0.05476201               -1.15958327               -1.87425783                1.73362011               -2.17671205
              23.37447851                9.54716171               81.34576045                0.00010000                0.15192578                0.24133800               -1.98483837               -2.32867546                1.38637551               -2.59205219
              24.37841166                9.01286673               80.92671754                0.00010000                0.56768853                0.57277764               -2.80334358               -2.68624197                1.00937817               -3.04222905
              25.38583228                8.47909976               80.50674850                0.00010000                0.84744034                1.03474224               -3.54841805               -2.63981752                0.68397094               -3.55149813
              26.39536047                7.94945210               80.08532819                0.00010000                1.02184630                1.44646059               -4.11428631               -2.04802561                0.43789334               -4.11909916
              27.40626921                7.42729984               79.66164514                0.00010000                1.13749179                1.58061397               -4.38031726               -1.05573458                0.23003193               -4.69103350
              28.41811030                6.91369727               79.23459217                0.39462883                1.18410959                1.34467628               -4.24608432               -0.38573730                0.20750412               -5.19235918
              18.91469630               13.18558678               83.34888228                1.00000000                0.01720846                0.08889127               -0.24807066                0.00084121                0.00077744                0.54792978
              19.91486839               12.66466955               82.90282804                0.57723417               -0.03559933               -0.07325199                0.15123377               -0.03840114                0.02442058               -0.28450565
              20.91398432               12.14297743               82.45720884                0.00010000               -0.78087210               -0.21717012                0.53824897               -0.52172053                1.16821950               -1.09604415
              21.89925095               11.61256010               82.03402660                0.00010000               -1.21599785                0.17100029               -0.44892920               -1.17017992                2.10888772               -1.47422885
              22.88966436               11.08300667               81.61302988                0.00010000               -0.68595912                0.48867198               -1.40131020               -1.47653313                1.84190331               -1.77926683
              23.88553176               10.55261268               81.19185160                0.00010000               -0.14184278                0.76442918               -2.35202989               -1.85349750                1.38376279               -2.06317162
              24.88682750               10.02154849               80.76935785                0.00010000                0.37178913                1.05846264               -3.28025636               -2.05576540                0.90034129               -2.36609583
              25.89296755                9.49150778               80.34512698                0.00010000                0.80605550                1.37321006               -4.11275756               -1.92823717                0.50686164               -2.70402503
              26.90294861                8.96487249               79.91912711                0.00010000                1.13321364                1.61622183               -4.73781960               -1.44185190                0.25438301               -3.07760870
              27.91563182                8.44351214               79.49135246                0.00010000                1.33594689                1.67039744               -5.02906016               -0.73155792                0.11504896               -3.46953810
              28.92966755                7.92785274               79.06143747                0.39537410                1.40357329                1.47342595               -4.87303818               -0.25251576                0.13713041               -3.85988724
              19.43646098               14.18649128               83.20987565                1.00000000                0.01689042                0.09005679               -0.26272688                0.00356517                0.01099656                0.54673265
              20.43662989               13.66397421               82.75971281                0.62471312               -0.04078763               -0.06568596                0.15858372               -0.02598127                0.04507384               -0.29031327
              21.43564523               13.14086023               82.31022160                0.00010000               -0.91271732               -0.20427602                0.56057194               -0.16877378                1.38798834               -0.93253032
              22.41837554               12.61551682               81.88693634                0.00010000               -1.49276608                0.43755587               -0.52629789               -0.54038562                2.43011853               -1.13109240
              23.40578991               12.08988380               81.46506629                0.00010000               -0.97543993                0.86822387               -1.57382182               -0.96463309                2.04886409               -1.27220623
              24.39886674               11.56245030               81.04251846                0.00010000               -0.36943304                1.12890466               -2.61947913               -1.31679988                1.48921955               -1.42574387
              25.39840125               11.03403599               80.61801903                0.00010000                0.25383955                1.36741745               -3.63776771               -1.44714344                0.92011365               -1.60173662
              26.40394353               10.50656396               80.19127770                0.00010000                0.80589116                1.58951639               -4.54934072               -1.30814849                0.47016680               -1.80268573
              27.41451907                9.98177654               79.76256351                0.00010000                1.23571351                1.74452363               -5.23291767               -0.93774830                0.19759645               -2.03331129
              28.42865780                9.46070779               79.33224902                0.00010000                1.49298576                1.76323249               -5.54718175               -0.45230728                0.07541488               -2.29443839
              29.44437879                8.94316579               78.90029583                0.39604577                1.57209828                1.58423702               -5.36254529               -0.13214072                0.10853033               -2.58330507
              19.95980174               15.18738791               83.07072702                1.00000000                0.01780704                0.09092832               -0.27999295                0.00418806                0.01806129                0.45650168
              20.95997981               14.66335583               82.61639308                0.52966774               -0.03677540               -0.06163257                0.17278833               -0.01623784                0.22556999               -0.28905549
              21.95906623               14.13889191               82.16622086                0.00010000               -1.02800749               -0.19627520                0.56038146                0.31580420                1.77457578               -0.72593019
              22.93941966               13.62131122               81.74297470                0.00010000               -1.78140086                0.83154053               -0.58426681                0.03732348                2.80196240               -0.65447288
              23.92343822               13.10037115               81.32149987                0.00010000               -1.21880439                1.12331237               -1.69975806               -0.44943998                2.31131721               -0.66564868
              24.91504357               12.57519077               80.89861677                0.00010000               -0.48336233                1.34684911               -2.81244687               -0.73771392                1.64155615               -0.72743708
              25.91377097               12.04889684               80.47328064                0.00010000                0.20102253                1.55313882               -3.89915150               -0.79415817                0.99887735               -0.80332751
              26.91906403               11.52329811               80.04534944                0.00010000                0.81394232                1.73380765               -4.87674521               -0.69331253                0.50185446               -0.89262936
              27.93004982               10.99976296               79.61528200                0.00010000                1.30661963                1.84895239               -5.61526469               -0.47042745                0.20503196               -1.00220438
              28.94519642               10.47877679               79.18360940                0.00010000                1.60294587                1.85266138               -5.95571049               -0.20731317                0.07177217               -1.13935836
              29.96210873                9.95953748               78.75032332                0.39669021                1.69123161                1.69678652               -5.74042617               -0.02592889                0.09895421               -1.31705840
              20.48460892               16.18830984               82.92990203                1.00000000                0.01922194                0.09219312               -0.29312628               -0.07611119                0.21869835                0.37231847
              21.48480114               15.66274156               82.47331768                0.71742477               -0.03014982               -0.06142686                0.17847958               -0.08662373                0.54904482               -0.27839563
              22.48400592               15.13693472               82.02337785                0.36549549               -1.35791838               -0.19571842                0.56109835                0.96427202                2.38251126               -0.66553740
              23.45764277               14.63214763               81.60371243                0.36212097               -2.05421799                1.08364058               -0.65192386                0.59307664                3.22213895               -0.24211052
              24.44292156               14.11235004               81.18300535                0.36076731               -1.10279970                1.19788958               -1.80154023               -0.18968307                2.52095471               -0.26948036
              25.43558677               13.58938728               80.76055866                0.36189130               -0.42554073                1.41965093               -2.95183093               -0.30824409                1.78110749               -0.30159487
              26.43441075               13.06509876               80.33528899                0.36472255                0.18121903                1.62019260               -4.08182303               -0.34338072                1.08006826               -0.33905283
              27.43921115               12.54124011               79.90718978                0.36987795                0.76105483                1.79420058               -5.10898074               -0.30244600                0.55482486               -0.37810600
              28.44963184               12.01875558               79.47690489                0.37775366                1.27629361                1.89926201               -5.90040214               -0.21575219                0.26249189               -0.42735623
              29.46473703               11.49776102               79.04512680                0.38827063                1.63534919                1.89842318               -6.28970458               -0.12864224                0.13558095               -0.49484530
              30.48233883               10.97710152               78.61155471                0.69867278                1.76017990                1.75640448               -6.07845687               -0.04294042                0.16179849               -0.61109264
              15.71570865                6.32538482               85.31582215                1.00000000                0.02477295                0.07581383               -0.27319791                0.06565040               -0.43999051                0.47851961
              16.71595638                5.80824796               84.89758566                1.00000000               -0.03536236               -0.01851744                0.05798109                0.07237924               -0.57112990                0.06543861
              17.71500141                5.29077718               84.47654445                1.00000000               -0.14523797               -0.09840534                0.36794895                0.06787452               -0.62257887               -0.02482487
              18.71305162                4.77242933               84.05723383                0.69877868               -0.25971945               -0.20634972                0.69007667                0.00685277               -0.56446699               -0.22845050
              19.70980702                4.25245090               83.63735951                0.55911287               -0.36511033               -0.32781338                1.01559096               -0.00374604               -0.43611795               -0.21622750
              20.70574942                3.73085937               83.22065880                0.32805583               -0.44639454               -0.48304362                1.41797286               -0.10475171                0.14669539               -0.47173104
              21.70087913                3.20626423               82.81240317                0.00010000               -0.12818862               -0.63849166                1.71402958               -0.83265877                3.42122837               -1.08129429
              22.70318564                2.66781116               82.46071389                0.00010000                1.08899095               -0.64568641                0.16481937               -2.78036967                7.31978447               -2.75358919
              23.72265894                2.10379964               82.11665369                0.00010000                3.68884789               -1.52477975               -1.22474308               -2.72432806                7.80691003                0.51995934
              24.77696260                1.50694014               81.79621218                1.00000000                2.97699673                0.61118283               -2.12205586               -2.68280703                4.37076588               -0.06794981
              25.78219888                0.96726588               81.38889972                1.00000000                0.52362777                0.34708145               -1.34621196                0.09389616               -0.00662706               -0.06737235
              16.23350201                7.32614296               85.17644254                1.00000000                0.04819788                0.06417632               -0.28247725                0.01651211               -0.02771422                0.64691117
              17.23398399                6.80806278               84.75818089                1.00000000                0.00437246               -0.02587110                0.05130484                0.02485795                0.01067358                0.09111245
              18.23358946                6.28979313               84.34041990                1.00000000               -0.08503514               -0.10647379                0.36092997                0.00329667                0.09264105               -0.17845952
              19.23228329                5.77036584               83.92348188                0.91639163               -0.15174634               -0.23810339                0.68608267               -0.02796058                0.25507776               -0.14540439
              20.23055454                5.24917276               83.50855545                0.81557801               -0.22440294               -0.36268418                1.03923078               -0.05108028                0.46280373               -0.14438867
              21.22779523                4.72602893               83.09471123                0.60862282               -0.32389464               -0.52332513                1.49844680               -0.13295064                0.85223897               -0.31971642
              22.22407664                4.19987932               82.68590985                0.31733353               -0.05904950               -0.73347249                2.10026053               -0.68482655                2.88141167               -0.71089429
              23.22661424                3.66135429               82.30955467                0.00327086                2.58872652               -0.93260758                0.79298856               -2.44858294                7.30860217               -1.45006570
              24.27585117                3.08855184               81.99624165                0.09089802                4.58935853               -2.35862694               -0.29060452               -3.06070287               10.15349876               -1.57806420
              25.31840141                2.51305196               81.65785733                1.00000000                2.34804612                0.57326368               -1.86899509               -1.61469017                3.45728803               -0.07270522
              26.32281210                1.97073669               81.25039272                1.00000000                0.44106845                0.30665324               -1.06531563               -0.03659387                0.00392917               -0.09123066
              16.75219924                8.32666834               85.04024736                1.00000000                0.06041344                0.04781122               -0.28651299                0.00102552                0.09920284                0.75801812
              17.75280337                7.80773054               84.61911606                1.00000000                0.02825259               -0.03072436                0.05125434               -0.00728111                0.26541579                0.04331119
              18.75276429                7.28864770               84.20100535                0.00010000                0.01547006               -0.10591051                0.36972568               -0.12817896                0.85995287               -0.60074425
              19.75311277                6.76766726               83.79129075                0.00010000                0.01790119               -0.69330966                0.67542834               -0.56290364                1.33665252               -1.06310702
              20.75312231                6.24519721               83.38132934                0.00010000               -0.03644600               -1.03950547                1.02756294               -0.72092642                1.47712190               -1.50787850
              21.75238385                5.72039287               82.97230168                0.00010000               -0.06325384               -1.41392917                1.49548997               -0.72097640                1.98667295               -1.92374075
              22.75185724                5.19159478               82.56916337                0.00010000                0.65788017               -1.99181941                2.05731406               -0.85168533                4.04921301               -2.36526236
              23.76554146                4.64915901               82.19575325                0.00010000                2.89449905               -2.69167317                1.52043243               -3.10893146                5.45511641               -2.59956576
              24.80974722                4.05662710               81.83623276                0.00010000                4.84712467               -2.00021723                1.35340375               -4.43135758                9.72629738               -4.75199778
              25.86248395                3.51840541               81.51948226                0.00010000                2.81751629                0.15389525               -1.61943015               -3.55286489                4.56044747               -6.98746708
              26.86609754                2.97339894               81.11190553                0.38826830                0.36135930                1.92514700               -0.78655927               -3.67959154                0.04180224               -6.75416180
              17.27139814                9.32709918               84.90301822                1.00000000                0.04608734                0.04721683               -0.27715727               -0.01299396                0.18014729                0.63717151
              18.27185901                8.80744830               84.47865358                0.60339966               -0.01544906               -0.02660224                0.06606147               -0.03565809                0.28995036               -0.21083189
              19.27108916                8.28767492               84.05627650                0.00010000               -0.36916528               -0.12982598                0.38512613               -0.63978689                0.66488170               -1.03809358
              20.26447571                7.75649964               83.63938107                0.00010000               -0.38393757               -0.87985270                0.33040731               -1.54704264                1.06347409               -2.11319770
              21.26341041                7.22838265               83.22561164                0.00010000                0.12512149               -1.41306955                0.28129616               -1.70092155                1.34100431               -2.98200755
              22.26697814                6.69775035               82.81506684                0.00010000                0.74331971               -1.91352245                0.19124129               -1.99600529                1.76258679               -3.77829836
              23.27827680                6.16004293               82.41162058                0.00010000                1.62125778               -2.49084494               -0.11373956               -2.60565885                2.18739095               -4.39230935
              24.29940329                5.60752083               82.01636916                0.00010000                1.98504098               -2.63580496               -0.50780786               -3.75680614                2.94131961               -5.93034024
              25.31797762                5.04854750               81.63212978                0.00010000                1.55844913               -0.06781499               -1.64570238               -4.39720796                2.63608567               -7.56668445
              26.33057227                4.51612987               81.24201524                0.00010000                1.06277885                0.46935901               -1.90464792               -3.95764765                2.12992360              -11.61424664
              27.33923320                4.00923963               80.84030115                0.38848709                0.86609223                2.29635344               -1.89851789               -2.46009675                1.60841053              -12.57560702
              17.79124112               10.32761268               84.76438286                1.00000000                0.02733515                0.06147650               -0.26170641               -0.00434356                0.01201078                0.52424855
              18.79151447                9.80719849               84.33439118                0.51979469               -0.01619581               -0.04295305                0.11271362               -0.05195927                0.18847458               -0.35472056
              19.79091721                9.28605118               83.90782816                0.00010000               -0.50251469               -0.19187794                0.41300713               -0.82785621                0.62045383               -1.29581341
              20.78146418                8.75007021               83.48647299                0.00010000               -0.65320165               -0.50455329                0.06035941               -1.69403368                0.89184901               -2.14882165
              21.77785317                8.21693582               83.06808177                0.00010000               -0.03303529               -0.85379862               -0.31710639               -1.90550096                0.96636107               -2.98090842
              22.78080347                7.68212242               82.65232838                0.00010000                0.60602032               -1.11085031               -0.78570113               -2.47890648                0.94099634               -3.80169622
              23.78997358                7.14177788               82.23941508                0.00010000                1.05486431               -1.12268420               -1.34950529               -3.35082068                0.93871792               -4.74875929
              24.80190076                6.59644291               81.83008504                0.00010000                1.16102194               -0.41295400               -2.03733518               -4.06055843                0.89966891               -5.78681226
              25.81319402                6.05527080               81.42262425                0.00010000                1.03690511                0.84492234               -2.65856076               -3.62863570                0.94556824               -7.26878786
              26.82263886                5.52779259               81.01447926                0.00010000                0.87410295                1.26764331               -3.00905686               -2.11677191                0.66913780               -8.68318623
              27.83067608                5.01932601               80.59886931                0.38934727                0.80372148                0.99083244               -2.86297637               -1.03931488                0.60598148               -9.86625679
              18.31213964               11.32832871               84.62485658                1.00000000                0.02416801                0.07753962               -0.24828102               -0.00691905                0.00312580                0.49452016
              19.31238132               10.80658924               84.19084785                0.53842011               -0.02396641               -0.06867022                0.12981550               -0.06072586                0.05055788               -0.30528052
              20.31166031               10.28383736               83.75771083                0.00010000               -0.63354653               -0.22540738                0.47769128               -0.85480771                0.51874861               -1.26500394
              21.29971039                9.74640858               83.33301139                0.00010000               -0.92060681               -0.24560155               -0.13490156               -1.73991500                0.80230564               -2.05631979
              22.29324818                9.21130668               82.90998427                0.00010000               -0.35762230               -0.29804562               -0.75648648               -1.97240806                0.62592922               -2.77708306
              23.29255795                8.67553334               82.48806931                0.00010000                0.18458600               -0.26528666               -1.45343627               -2.49458654                0.35894990               -3.51305936
              24.29693990                8.13758924               82.06694272                0.00010000                0.60706282                0.02060157               -2.22798117               -3.04768187                0.08982577               -4.28441973
              25.30469920                7.59926175               81.64655409                0.00010000                0.85576620                0.61013310               -3.00699385               -3.17027980               -0.04317348               -5.14512826
              26.31405522                7.06544595               81.22695849                0.00010000                0.97412119                1.19618374               -3.65509688               -2.56197809               -0.04470500               -6.07753184
              27.32418163                6.54148274               80.80709763                0.00010000                1.06624146                1.43993495               -3.99534382               -1.36627952                0.01446043               -7.03631162
              28.33538005                6.02905628               80.38525696                0.38957075                1.11984248                1.11020142               -3.89990180               -0.50480920                0.15868225               -7.70804219
              18.83458169               12.32916347               84.48552093                1.00000000                0.02096221                0.08720760               -0.24745357               -0.00398520               -0.00119828                0.51699920
              19.83479131               11.80582509               84.04749619                0.57700126               -0.02899879               -0.07666710                0.13909114               -0.05376134                0.01337558               -0.28461366
              20.83400171               11.28154304               83.60971323                0.00010000               -0.77973781               -0.22544650                0.51009083               -0.71300183                0.45653117               -1.11088413
              21.81919655               10.74515818               83.18045834                0.00010000               -1.23607343               -0.00230042               -0.26865996               -1.50141935                0.70404957               -1.82649515
              22.80928024               10.21097491               82.75324207                0.00010000               -0.72836857                0.19316593               -1.06436333               -1.74407597                0.43527156               -2.40908007
              23.80462918                9.67681669               82.32617653                0.00010000               -0.19943534                0.41647772               -1.93288456               -2.14457305                0.00713090               -2.98022367
              24.80529154                9.14218991               81.89854540                0.00010000                0.30046392                0.74206598               -2.85717567               -2.44377088               -0.38796679               -3.58066034
              25.81063846                8.60864557               81.47056181                0.00010000                0.72209671                1.15216998               -3.75156866               -2.37726180               -0.60316613               -4.21786318
              26.81973347                8.07919448               81.04288054                0.00010000                1.05322378                1.50305715               -4.47676052               -1.82919775               -0.56667855               -4.88823714
              27.83170294                7.55659129               80.61610682                0.00010000                1.28496637                1.60356376               -4.86940738               -0.93715131               -0.32811344               -5.51842237
              28.84543280                7.04153004               80.19031671                0.39032866                1.37298619                1.37793508               -4.77976660               -0.33080310               -0.03364374               -5.99482269
              19.35873671               13.33007286               84.34635263                1.00000000                0.01898246                0.09160705               -0.25382172               -0.00070283               -0.00031274                0.53025216
              20.35892653               12.80505589               83.90433390                0.61459528               -0.03347610               -0.07292765                0.14588638               -0.03794550                0.01607566               -0.26689005
              21.35806719               12.27932843               83.46261369                0.00010000               -0.93382015               -0.21559843                0.53150317               -0.44438672                0.48728813               -1.04629717
              22.34025013               11.74636257               83.02992886                0.00010000               -1.56795166                0.24370777               -0.35905838               -1.01957229                0.72855107               -1.51219344
              23.32670815               11.21517000               82.59954598                0.00010000               -1.08993242                0.61555331               -1.27798519               -1.29489805                0.39161940               -1.91968397
              24.31845148               10.68386290               82.16869595                0.00010000               -0.52362776                0.91839595               -2.27390660               -1.65140214               -0.14888106               -2.31846311
              25.31623560               10.15243056               81.73646933                0.00010000                0.08489609                1.21168977               -3.32136399               -1.84113955               -0.64483888               -2.73963594
              26.32014940                9.62230515               81.30326534                0.00010000                0.66449747                1.50706982               -4.32486328               -1.72376196               -0.91145059               -3.18778612
              27.32952555                9.09550709               80.87032889                0.00010000                1.14768170                1.72829072               -5.13518571               -1.28205978               -0.85760359               -3.64498837
              28.34310304                8.57355401               80.43911526                0.00010000                1.46804680                1.77769497               -5.57629203               -0.64439159               -0.50674207               -4.06974341
              29.35888648                8.05661498               80.01061723                0.39066231                1.57834459                1.60535333               -5.47984198               -0.21270070               -0.13840274               -4.40783132
              19.88460157               14.33099561               84.20722696                1.00000000                0.01752694                0.09104141               -0.26363875                0.00282398                0.00978575                0.52455772
              20.88477684               13.80436653               83.76130255                0.66431790               -0.03971307               -0.06487868                0.15465555               -0.02323295                0.03355833               -0.26462896
              21.88380730               13.27723107               83.31584094                0.00010000               -1.09066510               -0.20176220                0.55300389               -0.05579523                0.64880328               -0.88599336
              22.86296353               12.75003233               82.88214390                0.00010000               -1.89626766                0.51889797               -0.41731335               -0.34034719                0.93917772               -1.13497622
              23.84588195               12.22328598               82.44997763                0.00010000               -1.43114777                1.00064242               -1.42054594               -0.77855386                0.48084822               -1.34396052
              24.83434058               11.69518460               82.01681478                0.00010000               -0.79277281                1.27631653               -2.51028278               -1.14328582               -0.17100144               -1.57599301
              25.83002650               11.16642371               81.58165247                0.00010000               -0.06269416                1.51768119               -3.65575824               -1.28325064               -0.75798917               -1.83531189
              26.83308669               10.63878696               81.14509465                0.00010000                0.64084594                1.73785753               -4.75301440               -1.16474199               -1.07719822               -2.11382700
              27.84284341               10.11376029               80.70879133                0.00010000                1.23102578                1.89261476               -5.63935814               -0.83371168               -1.02161085               -2.39941977
              28.85770721                9.59214519               80.27475200                0.00010000                1.61067113                1.91979142               -6.11873430               -0.39959029               -0.60958628               -2.66574569
              29.87505684                9.07363711               79.84447544                0.39158410                1.73496264                1.77111207               -6.00093702               -0.10962467               -0.19902201               -2.87719546
              20.41205135               15.33189369               84.06792627                1.00000000                0.01750749                0.09033752               -0.27698754                0.00430985                0.02228572                0.43316909
              21.41222642               14.80375832               83.61813871                0.56632654               -0.03829318               -0.06077919                0.17063269               -0.01203949                0.19717204               -0.26016608
              22.41128548               14.27529318               83.17184853                0.00010000               -1.24190720               -0.19164951                0.55454785                0.47099116                0.97936688               -0.68248003
              23.38738828               13.75674053               82.73769303                0.00010000               -2.26503378                0.96859362               -0.45324986                0.22243587                1.23319389               -0.64365277
              24.36598481               13.23518285               82.30529411                0.00010000               -1.74701219                1.26834892               -1.51133634               -0.31934042                0.65414701               -0.69105592
              25.35244803               12.70938923               81.87113812                0.00010000               -0.95082906                1.49253532               -2.66496386               -0.63756107               -0.12000818               -0.79432668
              26.34696823               12.18278419               81.43443676                0.00010000               -0.14650255                1.70117856               -3.88370416               -0.70393239               -0.79421303               -0.91397664
              27.34951798               11.65706230               80.99598633                0.00010000                0.62624328                1.88860790               -5.05801755               -0.61869821               -1.16669717               -1.04367434
              28.35949309               11.13335938               80.55772650                0.00010000                1.28582176                2.01459907               -6.01344819               -0.42217851               -1.12373284               -1.17949840
              29.37523442               10.61194984               80.12202259                0.00010000                1.71085297                2.03280325               -6.53065088               -0.18750653               -0.68019771               -1.31082476
              30.39371015               10.09203723               79.69072515                0.39196846                1.84757335                1.89902448               -6.38175605               -0.01818963               -0.24452012               -1.41034835
              20.94095850               16.33280236               83.92698777                1.00000000                0.01780520                0.09086740               -0.28697996               -0.07442575                0.21164238                0.34907515
              21.94113655               15.80315095               83.47514133                0.73522143               -0.03567897               -0.06073699                0.17922989               -0.07920109                0.49676783               -0.24924433
              22.94024492               15.27339808               83.02901270                0.36504097               -1.68069847               -0.18951054                0.55471831                1.20860679                1.52763009               -0.61522627
              23.90752258               14.76940421               82.59787567                0.36200703               -2.66992404                1.26636802               -0.49085169                0.77617467                1.59224847               -0.23058951
              24.88684644               14.24865296               82.16594621                0.36086953               -1.67672821                1.34701062               -1.57159173               -0.13228137                0.81076947               -0.27597315
              25.87398802               13.72503531               81.73186102                0.36164912               -0.92858319                1.56460817               -2.75962817               -0.25628504               -0.05066691               -0.32484524
              26.86827478               13.20044728               81.29477090                0.36425467               -0.19252434                1.76630947               -4.02671142               -0.29315422               -0.80481232               -0.37600706
              27.87013753               12.67655912               80.85560836                0.36858188                0.56187640                1.94968230               -5.26215311               -0.25779529               -1.22572791               -0.42405044
              28.87951231               12.15405227               80.41653664                0.37545406                1.25708533                2.06928892               -6.28620647               -0.18597208               -1.19065821               -0.47307007
              29.89527924               11.63280125               79.98016813                0.38464227                1.75029826                2.08514141               -6.86927618               -0.11725160               -0.72165170               -0.52329885
              30.91451827               11.11161760               79.54852786                0.69620598                1.92390313                1.95803720               -6.72866411               -0.03755351               -0.26483086               -0.56271673
              16.12776313                6.46959993               86.31288978                1.00000000                0.03119033                0.08139554               -0.29841780                0.06799864               -0.46272951                0.47944966
              17.12807503                5.94834721               85.89800858                1.00000000               -0.03092009               -0.01114736                0.03256105                0.07506295               -0.61132283                0.06700477
              18.12714472                5.42668000               85.48009103                1.00000000               -0.14272479               -0.08671058                0.33961583                0.06893787               -0.66633459               -0.02742562
              19.12522053                4.90390924               85.06405564                0.69917940               -0.25485443               -0.19829735                0.66391799               -0.00134416               -0.59276589               -0.23120946
              20.12204764                4.37909883               84.64749758                0.57874228               -0.35316274               -0.32990313                0.98695492               -0.00396017               -0.39719808               -0.18959365
              21.11815728                3.85205674               84.23499908                0.38796653               -0.43176511               -0.49826603                1.40743475               -0.05726505                0.21439608               -0.37247829
              22.11341233                3.32159165               83.82978130                0.12172519                0.26336715               -0.72982307                1.77894035               -0.13234708                2.61601397               -0.63349148
              23.12342462                2.78626499               83.46388836                0.00010000                0.56350831               -1.33642830                0.54601231               -2.30033453                5.18534767               -2.32598675
              24.12468250                2.22237515               83.10892033                0.00010000                2.85799336               -2.19026304               -0.16647453                2.17256853                8.26377469               -0.54843128
              25.18058449                1.64324957               82.77538294                1.00000000                3.04000845                0.60311097               -2.00399701               -1.79586527                3.30567427               -0.10685507
              26.18548267                1.10377107               82.37612021                1.00000000                0.48981798                0.32943835               -1.25128928                0.13501123               -0.00979262               -0.04147604
              16.64969583                7.47041388               86.17342446                1.00000000                0.05897945                0.06760799               -0.30754233                0.01906216               -0.05064986                0.64329472
              17.65028562                6.94823574               85.75854229                1.00000000                0.01786308               -0.01996132                0.02549187                0.02786120               -0.03289815                0.09349204
              18.65005309                6.42581290               85.34387642                1.00000000               -0.06439711               -0.09592819                0.32617472               -0.00087137                0.04151872               -0.17051968
              19.64899768                5.90192627               84.93019312                0.93034929               -0.10594017               -0.23670921                0.64133539               -0.03521436                0.22981735               -0.14610411
              20.64793429                5.37579980               84.51876995                0.84556880               -0.13297308               -0.36861616                0.96978715               -0.05804279                0.52706266               -0.12477400
              21.64633822                4.84707408               84.10963966                0.68225831               -0.14747735               -0.54532534                1.41614733               -0.12860293                1.12124650               -0.24907663
              22.64498474                4.31429342               83.70743192                0.46587015                0.18456540               -0.81555349                2.00698917               -0.35928245                2.83161389               -0.44906792
              23.65002953                3.77290071               83.32671274                0.24818188                3.64655774               -1.40480618                1.79545463               -2.13572432                6.69057339               -1.34696300
              24.71791589                3.20047252               82.99211957                0.39329756                3.59491775               -1.19506262               -0.63855520                0.84262121                7.32241915               -0.30332368
              25.72192788                2.64928068               82.63882342                1.00000000                0.41976984                0.59133258               -1.90794289               -0.38927382                2.31656464               -0.13529810
              26.72631129                2.10706545               82.24002133                1.00000000                0.43834095                0.29424658               -1.01967051                0.00115571                0.02862666               -0.03758026
              17.17250066                8.47095209               86.03720188                1.00000000                0.07325836                0.04857275               -0.31071996                0.00001764                0.07335028                0.76080346
              18.17323324                7.94794799               85.61949007                1.00000000                0.04680560               -0.02589549                0.02643193               -0.01133350                0.22148722                0.05661658
              19.17343677                7.42476144               85.20456351                0.00010000                0.06480532               -0.09313044                0.33552062               -0.16607463                0.79055640               -0.57427825
              20.17452935                6.89917506               84.79780394                0.00010000                0.11511005               -0.70060419                0.60819622               -0.67605592                1.27612924               -1.21009608
              21.17573897                6.37172651               84.39122261                0.00010000                0.12811258               -1.02048286                0.91073563               -0.94925670                1.50090583               -1.83209601
              22.17709160                5.84115023               83.98674007                0.00010000                0.23305445               -1.34054449                1.30806100               -1.15402121                2.16677914               -2.49462071
              23.18040006                5.30528058               83.58938242                0.00010000                0.87197176               -1.72490490                1.76478475               -1.46547167                3.84387110               -3.32801542
              24.19453103                4.75816887               83.21082781                0.00010000                4.23774446               -2.24250910                1.33657888               -2.04170675                6.39422859               -4.60129206
              25.26515495                4.19847390               82.86046735                0.00010000                3.58375269               -0.91880618                0.87297142               -4.74004280                6.79428056               -5.35333634
              26.26620609                3.65507623               82.50236384                0.00010000                0.23906528                0.22445981               -1.75986423               -3.18249507                2.04943584               -7.29305437
              27.26993625                3.10965600               82.10406541                0.38427260                0.37301661                1.52946740               -0.77623021               -3.11011073                0.03611878               -7.39861640
              17.69570438                9.47138534               85.90009551                1.00000000                0.05452188                0.04826171               -0.29740538               -0.01867540                0.15316417                0.65015442
              18.69624960                8.94771783               85.47920537                0.62944048               -0.00999282               -0.01927216                0.04526112               -0.04475275                0.24617342               -0.17416535
              19.69550452                8.42395029               85.06006445                0.00010000               -0.38690527               -0.11621521                0.36495750               -0.70209322                0.42222454               -0.99983028
              20.68851149                7.88791418               84.64261068                0.00010000               -0.42652744               -0.86147784                0.31413451               -1.74199844                0.60852021               -2.36094593
              21.68697398                7.35539014               84.22826247                0.00010000                0.05961117               -1.32589492                0.24187470               -2.04950344                0.81893286               -3.55629729
              22.68970372                6.82026319               83.81657343                0.00010000                0.58413481               -1.67180232                0.07904676               -2.51928191                1.07910850               -4.77606926
              23.69865667                6.27979532               83.40981172                0.00010000                1.31491765               -1.94382172               -0.30677596               -3.23310377                1.42938850               -6.13871787
              24.71600207                5.72805053               83.01029705                0.00010000                1.37755027               -1.73529181               -0.87141360               -3.78850509                1.41302774               -7.77017386
              25.72620768                5.18209640               82.61360619                0.00010000                1.55469062               -0.68308628               -1.69502529               -5.56359640                1.51097144               -9.91253064
              26.74709588                4.65376988               82.22262513                0.00010000                1.43709276                0.13005295               -2.07994677               -3.58597976                1.49081555              -12.59719616
              27.75494953                4.13765480               81.82063253                0.38469292                0.78536497                1.87693254               -2.12662140               -2.55908585                1.03915843              -14.09982047
              18.21946216               10.47191732               85.76165513                1.00000000                0.03110702                0.06489559               -0.27575994               -0.00762546                0.01191530                0.54043164
              19.21977323                9.94756254               85.33544324                0.55408540               -0.01318080               -0.03607847                0.09642598               -0.05985762                0.14849307               -0.31981330
              20.21919855                9.42243713               84.91191785                0.00010000               -0.57618547               -0.18153117                0.39596996               -0.86316313                0.22705808               -1.24043466
              21.20824952                8.88194550               84.48718502                0.00010000               -0.83993266               -0.44287570                0.09299421               -1.81012847                0.12859074               -2.31435838
              22.20239989                8.34520861               84.06501586                0.00010000               -0.29743736               -0.70903319               -0.28197143               -2.07651034                0.07360349               -3.39329159
              23.20230078                7.80771419               83.64433773                0.00010000                0.27753764               -0.82933032               -0.80734787               -2.67129903               -0.10279202               -4.52509232
              24.20795065                7.26640415               83.22539036                0.00010000                0.70795381               -0.72605511               -1.48322716               -3.35528529               -0.29790064               -5.74119183
              25.21645985                6.72346303               82.80860683                0.00010000                1.01065079               -0.03084617               -2.28201728               -3.80620071               -0.33425737               -7.02918479
              26.22816366                6.18481218               82.39488577                0.00010000                1.12341199                0.60199771               -3.00545451               -3.06609277               -0.11892537               -8.34416837
              27.23892809                5.65767729               81.98272303                0.00010000                1.14105190                0.78880916               -3.44691943               -2.08654963                0.09525027              -10.03315096
              28.25098470                5.14719465               81.56851843                0.38497908                1.20566080                0.88480855               -3.36352191               -0.94413275                0.37069445              -11.31672497
              18.74426143               11.47268325               85.62230452                1.00000000                0.02712062                0.08200332               -0.25576634               -0.01004683                0.00160619                0.50256495
              19.74453263               10.94699626               85.19208536                0.57504929               -0.02015617               -0.06508055                0.11542459               -0.06365238                0.03123537               -0.28954727
              20.74385830               10.42031966               84.76242188                0.00010000               -0.74975906               -0.21770226                0.45660961               -0.84997323                0.02435170               -1.20846947
              21.72953745                9.87905667               84.33193012                0.00010000               -1.20916106               -0.16480341               -0.06316645               -1.74995864               -0.20410875               -2.15505258
              22.71967508                9.34120948               83.90275836                0.00010000               -0.72276276               -0.14207791               -0.66104728               -1.97097939               -0.50913654               -3.05993055
              23.71508220                8.80367658               83.47362603                0.00010000               -0.19364799               -0.03917967               -1.41881209               -2.44591173               -0.94892146               -4.00122604
              24.71580212                8.26527422               83.04419677                0.00010000                0.31939151                0.26613854               -2.32830031               -2.89632954               -1.32002014               -4.99576425
              25.72147003                7.72743360               82.61532527                0.00010000                0.74347219                0.72841096               -3.28763474               -2.90819528               -1.41483505               -6.03473868
              26.73067157                7.19413635               82.18842926                0.00010000                1.07561951                1.17523905               -4.13530240               -2.37846582               -1.14483193               -7.14550754
              27.74298242                6.66954606               81.76458675                0.00010000                1.31802922                1.36182411               -4.65327646               -1.27213561               -0.60308422               -8.23203583
              28.75703215                6.15535097               81.34351123                0.38549674                1.40497337                1.06229484               -4.63599337               -0.51786222               -0.10303381               -8.99329842
              19.27063521               12.47355739               85.48301127                1.00000000                0.02285656                0.09012729               -0.24938734               -0.00634137               -0.00248956                0.51292986
              20.27086377               11.94626093               85.04883445                0.61562781               -0.02482667               -0.07354339                0.12580277               -0.05390449                0.00207209               -0.27163559
              21.27013867               11.41808309               84.61472497                0.00010000               -0.92516157               -0.21979453                0.48498305               -0.66673443               -0.10915613               -1.06846338
              22.25236054               10.87864943               84.17816850                0.00010000               -1.58891391                0.07870013               -0.16580329               -1.41819073               -0.46746814               -1.87836827
              23.23836039               10.34236705               83.74313067                0.00010000               -1.15213703                0.33339782               -0.92279056               -1.63321326               -0.88301611               -2.59110685
              24.22931780                9.80693059               83.30710276                0.00010000               -0.60466777                0.59642849               -1.85753497               -2.00457694               -1.48359057               -3.32276186
              25.22626704                9.27172692               82.86957403                0.00010000                0.00580075                0.91872381               -2.94442815               -2.26700618               -1.97504943               -4.09847002
              26.22943381                8.73803125               82.43171712                0.00010000                0.61074230                1.28928087               -4.07174793               -2.20005056               -2.11808293               -4.91399223
              27.23848188                8.20831696               81.99579298                0.00010000                1.14184760                1.59627904               -5.05564996               -1.69212150               -1.78951701               -5.73993458
              28.25227077                7.68491377               81.56425699                0.00010000                1.52678812                1.69630118               -5.67273863               -0.88250987               -1.02391676               -6.48767706
              29.26901765                7.16844055               81.13899684                0.38622147                1.67468809                1.50932063               -5.70122639               -0.30415229               -0.34047294               -6.98380626
              19.79872751               13.47448579               85.34380585                1.00000000                0.02013313                0.09257029               -0.25133604               -0.00252466               -0.00164115                0.51816909
              20.79892884               12.94552539               84.90574577                0.65471918               -0.02961978               -0.06920588                0.13323848               -0.03693618                0.00675069               -0.25083441
              21.79813511               12.41592377               84.46783891                0.00010000               -1.10195816               -0.20887869                0.50343355               -0.36267261               -0.13230769               -1.00136553
              22.77688968               11.88063067               84.02684544                0.00010000               -1.97027291                0.32018452               -0.22941649               -0.86922347               -0.56145957               -1.52963968
              23.75872966               11.34787743               83.58747018                0.00010000               -1.56294445                0.74447012               -1.09582827               -1.13249603               -1.06283799               -2.02852440
              24.74563079               10.81560515               83.14637347                0.00010000               -0.96841565                1.07788382               -2.16131834               -1.48873326               -1.79128355               -2.54680443
              25.73936134               10.28364870               82.70293057                0.00010000               -0.23759060                1.38177019               -3.39248195               -1.68456856               -2.38886201               -3.10559624
              26.74087898                9.75321922               82.25862972                0.00010000                0.52926375                1.67675869               -4.66258621               -1.58799336               -2.57898200               -3.69354945
              27.74994662                9.22606193               81.81642340                0.00010000                1.21648271                1.90367843               -5.77088818               -1.18997580               -2.20752388               -4.27113313
              28.76520863                8.70347209               81.37982662                0.00010000                1.69744658                1.97858877               -6.47175761               -0.60066758               -1.28061728               -4.76152458
              29.78389555                8.18553738               80.95184063                0.38676942                1.86869186                1.85367077               -6.51573966               -0.19677951               -0.48414743               -5.06937877
              20.32850552               14.47540879               85.20460288                1.00000000                0.01815504                0.09023409               -0.25765165                0.00155490                0.00817077                0.50649034
              21.32868707               13.94487681               84.76280592                0.70615879               -0.03627898               -0.06058337                0.14217964               -0.02155647                0.02225883               -0.24062164
              22.32777994               13.41390552               84.32128168                0.00010000               -1.28323286               -0.19266150                0.52348771                0.05702249               -0.01475778               -0.84353664
              23.30302241               12.88505312               83.87859007                0.00010000               -2.35219727                0.60378622               -0.26094760               -0.14503908               -0.43727100               -1.12649391
              24.28073599               12.35725645               83.43665537                0.00010000               -1.96252706                1.13520087               -1.19614187               -0.61092202               -1.07616074               -1.39685839
              25.26377187               11.82848827               82.99231281                0.00010000               -1.28871957                1.43264207               -2.35447088               -1.00120761               -1.93642884               -1.71057798
              26.25496160               11.29936232               82.54490386                0.00010000               -0.42555809                1.69250912               -3.69620436               -1.16223467               -2.64126986               -2.06356267
              27.25526071               10.77156642               82.09621742                0.00010000                0.47339492                1.93458441               -5.08285345               -1.07052181               -2.88680739               -2.43597787
              28.26442950               10.24639053               81.64977635                0.00010000                1.27606296                2.11828765               -6.29412799               -0.77442993               -2.49429762               -2.79520253
              29.28078197                9.72448554               81.20987433                0.00010000                1.82609845                2.18360375               -7.05677121               -0.37456913               -1.45683970               -3.08247086
              30.30095147                9.20551396               80.78027709                0.38707387                2.01695015                2.08703532               -7.09228331               -0.10127524               -0.58368160               -3.21959163
              20.85982256               15.47629048               85.06518727                1.00000000                0.01784242                0.08797690               -0.26783026                0.00378189                0.02583643                0.41276673
              21.86000099               14.94431372               84.61980574                0.60340987               -0.03616549               -0.05626860                0.15806160               -0.00977193                0.17058559               -0.23286052
              22.85909925               14.41207054               84.17731182                0.00010000               -1.46815143               -0.18018326                0.52560694                0.62184562                0.27518578               -0.64419769
              23.83063796               13.89270640               83.73390970                0.00010000               -2.80115932                1.10587141               -0.26572900                0.40213662               -0.19522431               -0.62552228
              24.80307607               13.37058145               83.29127314                0.00010000               -2.35685972                1.41349707               -1.23650171               -0.20163992               -0.97431795               -0.70827347
              25.78350077               12.84425799               82.84531749                0.00010000               -1.50187863                1.64781450               -2.45401540               -0.55528472               -1.98177495               -0.85375961
              26.77303850               12.31749888               82.39560655                0.00010000               -0.55302147                1.87740122               -3.87616721               -0.63707626               -2.79915349               -1.02070966
              27.77244034               11.79191091               81.94418909                0.00010000                0.42502017                2.09743118               -5.35614802               -0.57005230               -3.11331609               -1.19679384
              28.78153890               11.26842769               81.49501304                0.00010000                1.30767381                2.26416930               -6.65743819               -0.39686679               -2.72521878               -1.36608224
              29.79859381               10.74714416               81.05299638                0.00010000                1.91371547                2.32592115               -7.47570465               -0.18093984               -1.60798441               -1.49619256
              30.81981321               10.22727809               80.62268820                0.38764554                2.12193961                2.23639049               -7.48214344               -0.01804366               -0.67380491               -1.50604917
              21.39253466               16.47716833               84.92416243                1.00000000                0.01769030                0.08778542               -0.27583100               -0.07047938                0.20556515                0.32844166
              22.39271156               15.94375144               84.47690228                0.75186726               -0.03552411               -0.05622823                0.16724783               -0.07226668                0.44726958               -0.22203889
              23.39182418               15.41030185               84.03447221                0.36434336               -2.00786629               -0.17686936                0.52488522                1.44344768                0.78420239               -0.57244847
              24.35255424               14.90717055               83.59389539                0.36176086               -3.33362902                1.44641536               -0.25874533                0.95285476                0.14241581               -0.22534651
              25.32515160               14.38552639               83.15157352                0.36097664               -2.34027450                1.49449423               -1.23362241               -0.07874674               -0.85228616               -0.28906231
              26.30574875               13.86144456               82.70536610                0.36162159               -1.52922167                1.71865649               -2.47948606               -0.20600424               -1.98178960               -0.35343556
              27.29456716               13.33691035               82.25475476                0.36359785               -0.64089468                1.94114672               -3.95596461               -0.24360890               -2.91662696               -0.41656078
              28.29293085               12.81351505               81.80194672                0.36737526                0.33458725                2.16041396               -5.51236281               -0.21277006               -3.31147938               -0.47175508
              29.30125891               12.29167391               81.35118076                0.37338357                1.26909583                2.32462238               -6.90345840               -0.15355313               -2.95129482               -0.51805334
              30.31831277               11.77100397               80.90774128                0.38131550                1.95319179                2.38598035               -7.81062993               -0.09971133               -1.78643037               -0.54652835
              31.34032274               11.25024177               80.47698143                0.69395026                2.20099746                2.29636828               -7.83194463               -0.02526598               -0.80516845               -0.48657397
              16.53621647                6.61390444               87.30985380                1.00000000                0.03122065                0.07923035               -0.29235603                0.06530721               -0.48669351                0.47862923
              17.53652867                6.08852062               86.89823689                1.00000000               -0.02944059               -0.00694852                0.02039254                0.07221273               -0.65417442                0.06746217
              18.53562765                5.56265789               86.48333677                1.00000000               -0.13694580               -0.07476337                0.30981981                0.06461388               -0.71156388               -0.03448898
              19.53378976                5.03553018               86.07051219                0.69833318               -0.23540216               -0.18347329                0.61851480               -0.00754572               -0.62642819               -0.24222187
              20.53091961                4.50611428               85.65709861                0.59890115               -0.30180674               -0.31620211                0.90871049                0.00288787               -0.36615814               -0.17646522
              21.52775362                3.97412865               85.24880749                0.45098004               -0.33047401               -0.48222370                1.29041000               -0.01059799                0.34562080               -0.29274549
              22.52431013                3.43829316               84.84798197                0.25500922               -0.00000297               -0.69963303                1.70423187                0.00827166                2.12633920               -0.36429326
              23.52775356                2.89564266               84.47163413                0.07447733                2.60648627               -0.81670793                0.93482513               -0.79458228                4.06628878               -1.22349729
              24.57643986                2.32643253               84.11332419                0.25165843                2.40613241                0.45058169               -0.05540197               -2.51112823                6.12343215               -1.19261042
              25.57587621                1.77792206               83.75613224                1.00000000                0.20443140                0.54430319               -1.81628631               -0.29444670                1.73373188               -0.21625644
              26.58052848                1.23863412               83.36387394                1.00000000                0.46522739                0.34057673               -1.24898764                0.11723905               -0.05076578                0.02821820
              17.06225336                7.61469674               87.17029170                1.00000000                0.06207169                0.06544607               -0.30364608                0.01910980               -0.07785060                0.63799267
              18.06287407                7.08845113               86.75869073                1.00000000                0.02578281               -0.01604145                0.01025526                0.02781670               -0.08683407                0.09500594
              19.06276901                6.56191026               86.34694339                1.00000000               -0.04439850               -0.08418903                0.28627344               -0.00609017               -0.03005431               -0.16496343
              20.06198610                6.03369545               85.93630859                0.94965194               -0.05598805               -0.22411965                0.57072558               -0.03857482                0.16218908               -0.15643465
              21.06164925                5.50295226               85.52795120                0.88089510               -0.02139525               -0.35257528                0.84210785               -0.05521674                0.50370938               -0.11376344
              22.06155820                4.96930641               85.12303418                0.76263407                0.09932952               -0.52809846                1.20335969               -0.09247125                1.19201859               -0.19270507
              23.06363584                4.43129683               84.72604963                0.62163742                0.70899271               -0.78192461                1.58379072               -0.07470237                2.64555824               -0.27106640
              24.07573805                3.88747558               84.34546376                0.49961986                2.32765143               -1.10469052                1.39782349               -0.28854730                4.61321590               -0.72077998
              25.11018887                3.33093835               83.98347055                0.69523280                2.05464485                0.08206127               -0.66660388               -1.32267744                2.78502382               -0.01983160
              26.11683095                2.78336510               83.61969847                1.00000000                0.53999737                0.54102763               -1.76742740               -0.24500335                1.45893827               -0.24885814
              27.12098882                2.24203989               83.22999931                1.00000000                0.41578685                0.30906492               -1.04242207                0.01189410                0.14292779                0.05729576
              17.58908988                8.61521336               87.03403296                1.00000000                0.07816150                0.04761374               -0.30947536               -0.00193933                0.04192865                0.76492179
              18.58987149                8.08819979               86.61964469                1.00000000                0.05858309               -0.02196614                0.00889295               -0.01498893                0.16449820                0.07154183
              19.59026154                7.56097411               86.20771576                0.00010000                0.10523824               -0.07931436                0.29174300               -0.18963380                0.68295586               -0.54021902
              20.59197626                7.03104779               85.80345468                0.00010000                0.19713832               -0.68978984                0.51110439               -0.77246773                1.12503748               -1.31496727
              21.59420431                6.49906277               85.39954405                0.00010000                0.27916817               -0.97444034                0.73534138               -1.16520211                1.34816903               -2.07464801
              22.59755962                5.96356668               84.99846290                0.00010000                0.52213054               -1.23375581                1.00237356               -1.54776200                1.97154546               -2.93818214
              23.60464692                5.42265467               84.60445906                0.00010000                1.23907380               -1.50181021                1.20351539               -2.02563644                3.10738174               -3.99667269
              24.62234110                4.87354885               84.22248483                0.00010000                2.47249373               -1.65686280                0.82303584               -2.32247937                4.21595222               -5.22427848
              25.65409679                4.32807376               83.85369219                0.00010000                1.87667553               -0.75299402               -0.56469315               -2.95630662                1.88756700               -6.26737330
              26.65987461                3.78874262               83.48428497                0.00010000                0.46599960                0.02308323               -1.61293249               -2.33635215                1.07680112               -7.75288144
              27.66341678                3.24481542               83.09638092                0.38040847                0.35421763                1.03751572               -0.83985258               -2.24208239                0.14252793               -8.14702319
              18.11624171                9.61564902               86.89707012                1.00000000                0.05718368                0.04994719               -0.29645692               -0.02305408                0.12232211                0.66885275
              19.11681355                9.08801181               86.47955880                0.65752472               -0.00566837               -0.01387756                0.02733559               -0.04874599                0.19792594               -0.13422109
              20.11612834                8.56032397               86.06357565                0.00010000               -0.41827311               -0.10445244                0.33001166               -0.73285542                0.18616052               -0.95634416
              21.10844808                8.01989965               85.64566376                0.00010000               -0.51510151               -0.82920921                0.31342000               -1.89493987                0.13501720               -2.51182615
              22.10582631                7.48346345               85.23044913                0.00010000               -0.07185118               -1.22443341                0.22162716               -2.36500637                0.18227582               -3.96325982
              23.10701106                6.94463130               84.81664777                0.00010000                0.36573171               -1.44993591               -0.03084388               -3.06946533                0.15965336               -5.54085052
              24.11314095                6.40126063               84.40548506                0.00010000                0.84291576               -1.50428356               -0.51471348               -3.75967128                0.17446673               -7.34302449
              25.12386938                5.85433833               83.99894088                0.00010000                1.13640124               -1.13589297               -1.22822938               -4.10015236                0.12942501               -9.12813313
              26.13586897                5.31587847               83.59822927                0.00010000                1.47464363               -0.72546982               -1.82618914               -4.39545192                0.58424352              -11.45250471
              27.15336225                4.78382676               83.20041631                0.00010000                1.40662982               -0.17873357               -2.49642811               -3.10258369                0.24749359              -14.16177990
              28.16400157                4.26279020               82.79776873                0.38095093                1.06393190                1.26486956               -2.60757200               -1.94953727                0.36728320              -15.95945228
              18.64390321               10.61621230               86.75886767                1.00000000                0.03184141                0.06874256               -0.27301264               -0.01058707                0.01032759                0.56487370
              19.64422162               10.08792224               86.33631970                0.59181500               -0.00933067               -0.03023654                0.07800595               -0.06260579                0.10825873               -0.28334390
              20.64371659                9.55888506               85.91574756                0.00010000               -0.66418222               -0.17315635                0.36165141               -0.86421964               -0.12643831               -1.18779134
              21.63093798                9.01446360               85.48833288                0.00010000               -1.07720330               -0.37878014                0.16718794               -1.87336519               -0.59070135               -2.39599519
              22.62217253                8.47457411               85.06244235                0.00010000               -0.62824207               -0.57350923               -0.18496278               -2.21762088               -0.86690665               -3.66949527
              23.61837314                7.93456796               84.63618142                0.00010000               -0.12130317               -0.59437495               -0.77700977               -2.84375272               -1.31057308               -5.05989019
              24.61974646                7.39256900               84.20975053                0.00010000                0.36735355               -0.38851688               -1.60800980               -3.40188302               -1.70093765               -6.54813652
              25.62572021                6.85083099               83.78444470                0.00010000                0.84764261                0.05591816               -2.56768448               -3.53520030               -1.72664937               -8.15391961
              26.63669932                6.31356436               83.36251516                0.00010000                1.25954978                0.28750582               -3.49348527               -2.98174566               -1.34020410               -9.92458534
              27.65091120                5.78516795               82.94554087                0.00010000                1.48999196                0.57406459               -4.15133779               -1.98879140               -0.60364485              -11.78863476
              28.66649916                5.27011281               82.53159888                0.38132564                1.55879536                0.79608517               -4.23593462               -0.93207102               -0.03087776              -13.23304781
              19.17261010               11.61702387               86.61974125                1.00000000                0.02785766                0.08542188               -0.25039202               -0.01256241               -0.00039414                0.51879449
              20.17288867               11.08740708               86.19315634                0.61511620               -0.01537552               -0.05951384                0.09715370               -0.06327981                0.01269014               -0.27298505
              21.17230259               10.55686084               85.76684302                0.00010000               -0.87984697               -0.20641596                0.41823471               -0.81575410               -0.40274202               -1.15719021
              22.15529174               10.01232405               85.33174806                0.00010000               -1.54665285               -0.08940530                0.06597473               -1.71820291               -1.11482977               -2.19108421
              23.14136953                9.47199327               84.89676332                0.00010000               -1.15753119               -0.00665750               -0.48004389               -1.95335561               -1.65451261               -3.24433547
              24.13214111                8.93274380               84.45969307                0.00010000               -0.62646354                0.15230258               -1.31619633               -2.41810499               -2.37165055               -4.39383687
              25.12884026                8.39349029               84.02037671                0.00010000                0.00144473                0.44588550               -2.41542648               -2.79286968               -2.92433981               -5.65533805
              26.13217001                7.85545669               83.58080140                0.00010000                0.65284212                0.81151423               -3.65073677               -2.77620278               -3.02030925               -6.99460491
              27.14189710                7.32162859               83.14425244                0.00010000                1.24339841                1.14186422               -4.81511395               -2.27223470               -2.48256129               -8.39289519
              28.15703797                6.79530805               82.71403210                0.00010000                1.67866583                1.32149685               -5.63731751               -1.29035747               -1.39032594               -9.74055073
              29.17547042                6.27871191               82.29253709                0.38167499                1.84324447                1.17058513               -5.81225879               -0.52739036               -0.43746207              -10.65360023
              19.70288554               12.61792074               86.48053318                1.00000000                0.02335173                0.09103865               -0.24127447               -0.00818055               -0.00395871                0.51603738
              20.70311905               12.08673196               86.05001225                0.65519541               -0.02004941               -0.06696680                0.10793045               -0.05120920               -0.00822815               -0.25801427
              21.70248455               11.55475674               85.61941289                0.00010000               -1.08387792               -0.20582150                0.44477716               -0.60188447               -0.58591999               -1.03362252
              22.68144149               11.01267550               85.17714228                0.00010000               -1.98994427                0.15120788                0.00525451               -1.31089280               -1.50445623               -1.88579541
              23.66268566               10.47444096               84.73478626                0.00010000               -1.64637414                0.45407716               -0.68108844               -1.52538230               -2.18565735               -2.71120689
              24.64851401                9.93761402               84.28902583                0.00010000               -1.07547397                0.74864799               -1.70319766               -1.89649686               -3.08764607               -3.61620474
              25.64117618                9.40148671               83.83965683                0.00010000               -0.32280782                1.07492579               -3.02377215               -2.15954477               -3.78388330               -4.61375612
              26.64205786                8.86706128               83.38912685                0.00010000                0.51135381                1.42385894               -4.49454116               -2.10890671               -3.92053231               -5.68042913
              27.65140326                8.33640165               82.94176754                0.00010000                1.29814402                1.72362340               -5.87532227               -1.65911609               -3.29665383               -6.75148166
              28.66802074                7.81159788               82.50265205                0.00010000                1.88701925                1.86990635               -6.86036831               -0.89208258               -1.90572523               -7.68663134
              29.68914364                7.29352451               82.07629218                0.38235463                2.11229082                1.76176284               -7.12083951               -0.32208303               -0.73639537               -8.26457626
              20.23482405               13.61884464               86.34132591                1.00000000                0.02044461                0.09116296               -0.24078343               -0.00402145               -0.00326389                0.51207377
              21.23502849               13.08606774               85.90699867                0.69507781               -0.02513398               -0.06189129                0.11544705               -0.03380366               -0.00290290               -0.23470500
              22.23432137               12.55274441               85.47268236                0.00010000               -1.28194134               -0.19346596                0.46000996               -0.27380460               -0.64442226               -0.96293230
              23.20938967               12.01534820               85.02534053                0.00010000               -2.41990012                0.38813502               -0.02251897               -0.71333393               -1.68273884               -1.51868553
              24.18592336               11.48107481               84.57762941                0.00010000               -2.11121228                0.85524448               -0.80084733               -0.98405540               -2.48342885               -2.09998172
              25.16716542               10.94771676               84.12546959                0.00010000               -1.48606290                1.22075030               -1.96023676               -1.36182499               -3.54581999               -2.75039594
              26.15620211               10.41498881               83.66861969                0.00010000               -0.60442428                1.54948821               -3.45416470               -1.58312923               -4.37071756               -3.47915005
              27.15507693                9.88393387               83.21001361                0.00010000                0.39880335                1.87233815               -5.11498277               -1.52337735               -4.55972007               -4.25427111
              28.16417817                9.35610106               82.75491112                0.00010000                1.34982625                2.14324785               -6.67372689               -1.16652013               -3.86725607               -5.00506881
              29.18207346                8.83270618               82.30968011                0.00010000                2.04986634                2.28640629               -7.79108333               -0.60524768               -2.25748355               -5.61256619
              30.20517550                8.31394716               81.88030244                0.38293610                2.31020407                2.24366009               -8.10302349               -0.20419925               -0.92550028               -5.92846494
              20.76835890               14.61974400               86.20207392                1.00000000                0.01843095                0.08724121               -0.24498055                0.00036843                0.00594472                0.49355394
              21.76854321               14.08549414               85.76414614                0.74682416               -0.03154517               -0.05314970                0.12360932               -0.01857438                0.01060608               -0.21759012
              22.76772800               13.55088742               85.32631070                0.00010000               -1.48493962               -0.17628584                0.47629698                0.16539635               -0.55240448               -0.80496917
              23.73884442               13.02043820               84.87692495                0.00010000               -2.85459997                0.67882758               -0.01798335                0.03956112               -1.61211511               -1.10206947
              24.71063600               12.49154584               84.42605479                0.00010000               -2.57404517                1.25122131               -0.84499774               -0.46209405               -2.57939621               -1.42951893
              25.68736351               11.96202902               83.96972537                0.00010000               -1.86697538                1.57719931               -2.09630108               -0.88778331               -3.80804432               -1.83341277
              26.67329649               11.43247647               83.50772838                0.00010000               -0.84427274                1.87651415               -3.71849107               -1.08047667               -4.77008255               -2.29844156
              27.67047806               10.90450804               83.04343758                0.00010000                0.30020267                2.17316270               -5.52718549               -1.02208135               -5.02672803               -2.79128052
              28.67930054               10.37926661               82.58290877                0.00010000                1.37958080                2.42661345               -7.22664944               -0.75893884               -4.29565168               -3.25488269
              29.69806968                9.85732601               82.13361658                0.00010000                2.16385752                2.57264304               -8.44027019               -0.37713894               -2.51897643               -3.58987541
              30.72257769                9.33839771               81.70262977                0.38321076                2.45080183                2.56323689               -8.76637833               -0.10908349               -1.07114626               -3.66530011
              21.30333114               15.62058947               86.06256966                1.00000000                0.01824407                0.08384336               -0.25313957                0.00308949                0.02832730                0.39658810
              22.30351358               15.08500475               85.62129994                0.63843591               -0.03229541               -0.04885222                0.13777169               -0.00709072                0.14524131               -0.20740815
              23.30268523               14.54921869               85.18236067                0.00010000               -1.69955596               -0.16295504                0.47798426                0.75639284               -0.28160319               -0.61027010
              24.26952246               14.02892475               84.73237845                0.00010000               -3.37972893                1.22438440                0.02003383                0.56528586               -1.38529631               -0.59855005
              25.23509066               13.50609924               84.28056408                0.00010000               -3.05216701                1.53625586               -0.81525357               -0.09849964               -2.52330280               -0.71871319
              26.20847912               12.97926075               83.82205781                0.00010000               -2.14885498                1.79201796               -2.11886896               -0.48863392               -3.94110629               -0.90952414
              27.19211356               12.45251909               83.35691341                0.00010000               -1.03169741                2.06715856               -3.83072064               -0.58992476               -5.05684538               -1.13068149
              28.18784518               11.92739712               82.88886337                0.00010000                0.20339344                2.35503627               -5.75460492               -0.54409398               -5.40936750               -1.36374460
              29.19618143               11.40463332               82.42457774                0.00010000                1.37771976                2.60445753               -7.57264705               -0.39233892               -4.67912053               -1.57902793
              30.21539957               10.88415904               81.97250850                0.00010000                2.23344965                2.75274365               -8.86751601               -0.18705682               -2.76722266               -1.71780184
              31.24085042               10.36521190               81.54108229                0.38370297                2.54508473                2.74509658               -9.17205507               -0.02686875               -1.21624937               -1.62855169
              21.83959012               16.62142087               85.92147115                1.00000000                0.01820463                0.08314022               -0.26056669               -0.06447978                0.20083885                0.31152585
              22.83977217               16.08451709               85.47848628                0.76774031               -0.03271353               -0.04876583                0.14565026               -0.06376901                0.40204927               -0.19746361
              23.83893585               15.54762832               85.03951041                0.36371825               -2.32512868               -0.15903735                0.47582265                1.64550109                0.21820051               -0.53564817
              24.79326959               15.04492588               84.59270077                0.36177069               -4.03029181                1.60011288                0.09295967                1.10684497               -1.00842690               -0.23275505
              25.75833001               14.52227096               84.14127376                0.36108721               -3.10493061                1.61717264               -0.71820623               -0.02888933               -2.40569554               -0.31601927
              26.73117098               13.99786938               83.68227130                0.36137984               -2.24841973                1.86086358               -2.03993018               -0.15338012               -4.00568783               -0.39482192
              27.71336162               13.47381965               83.21565160                0.36316644               -1.18445181                2.13005551               -3.81267492               -0.18822462               -5.29844744               -0.46819906
              28.70748195               12.95160876               82.74536110                0.36654488                0.06651131                2.42116424               -5.83212667               -0.15951753               -5.78023694               -0.52889517
              29.71469185               12.43135576               82.27846747                0.37122011                1.31340092                2.67224312               -7.76704804               -0.11035208               -5.10797417               -0.57018822
              30.73374996               11.91238088               81.82395553                0.37813572                2.26213771                2.82218411               -9.18059561               -0.06776624               -3.12257417               -0.57200346
              31.75993460               11.39329965               81.39188897                0.69207737                2.61846361                2.80877459               -9.50999073                0.00029457               -1.49339003               -0.38546490
              16.94126308                6.75829672               88.30704266                1.00000000                0.02454909                0.06978592               -0.25464040                0.05697257               -0.50628572                0.47458825
              17.94150857                6.22878877               87.89841643                1.00000000               -0.03124705               -0.00607232                0.02285963                0.06288037               -0.69072057                0.06692496
              18.94063814                5.69877698               87.48628743                1.00000000               -0.12892190               -0.06423435                0.28251491                0.05376175               -0.74886842               -0.04416194
              19.93893013                5.16747201               87.07642593                0.69716112               -0.21044831               -0.16169172                0.55832689               -0.01527944               -0.66530163               -0.26040655
              20.93642917                4.63386434               86.66567179                0.62000486               -0.23719026               -0.27852580                0.79207083               -0.00080580               -0.38599783               -0.17759048
              21.93418633                4.09774846               86.26080728                0.51476989               -0.16583471               -0.41838920                1.07460690                0.00468857                0.37161641               -0.25073516
              22.93311248                3.55817047               85.86386593                0.38714950                0.26109248               -0.57754620                1.33849917                0.05475119                1.70721804               -0.32585718
              23.93940818                3.01413580               85.48258486                0.29293043                1.47702802               -0.65013882                0.81103175               -0.45053589                2.84680764               -0.75377866
              24.96265304                2.45823024               85.10781229                0.51535193                1.26506031                0.14776574               -0.41615830               -1.44432886                1.42272196                0.19537299
              25.96470938                1.91179198               84.73905721                1.00000000                0.31654575                0.43588027               -1.57142625               -0.32042670                0.93695895               -0.23984205
              26.96898395                1.37208470               84.35114046                1.00000000                0.42745707                0.36196839               -1.30417033               -0.01230648               -0.05841854                0.02768449
              17.47134075                7.75899457               88.16735154                1.00000000                0.05564943                0.05876930               -0.26983155                0.01598108               -0.10504531                0.62998052
              18.47189724                7.22872805               87.75874740                1.00000000                0.02466942               -0.01390124                0.00777431                0.02359429               -0.14299015                0.09574968
              19.47183414                6.69813463               87.34960189                1.00000000               -0.03317944               -0.07260901                0.24816872               -0.01125974               -0.11365467               -0.16098901
              20.47123366                6.16585509               86.94160763                0.97365752               -0.02756256               -0.19757309                0.48588406               -0.03919363                0.05362485               -0.17462034
              21.47128289                5.63107908               86.53561211                0.92183060                0.04232483               -0.30643676                0.68703899               -0.05127829                0.36850720               -0.10989803
              22.47208015                5.09356457               86.13370685                0.84764527                0.20917183               -0.44877344                0.92348819               -0.06314578                0.96850181               -0.15581611
              23.47546632                4.55239500               85.73910773                0.77819978                0.63963892               -0.61293834                1.05458020               -0.02584395                1.84556743               -0.21267848
              24.48487293                4.00763441               85.35466921                0.74371594                1.19576669               -0.69648140                0.67696161               -0.12391652                2.38935347               -0.48861611
              25.49938166                3.45970790               84.97878750                0.97711419                0.98524788                0.00687340               -0.37962960               -0.65152583                1.33808067               -0.03762059
              26.50457789                2.91615079               84.60347488                1.00000000                0.45932592                0.37543879               -1.32772247               -0.18297629                0.75341300               -0.25322962
              27.50856818                2.37570438               84.21917289                1.00000000                0.39902877                0.34307080               -1.16093283               -0.06409251                0.27604940                0.04495403
              18.00211575                8.75947210               88.03101238                1.00000000                0.07246439                0.04665542               -0.28155254               -0.00450065                0.00906710                0.76834639
              19.00284040                8.22851075               87.61966793                1.00000000                0.05850735               -0.01848227                0.00116965               -0.01709842                0.10175383                0.08685781
              20.00328590                7.69732480               87.21039837                0.00010000                0.11807051               -0.06715111                0.24562931               -0.18507793                0.54737416               -0.50113506
              21.00520181                7.16352055               86.80802603                0.00010000                0.22041123               -0.65278153                0.40573183               -0.82422442                0.89718632               -1.35027080
              22.00769413                6.62773561               86.40592943                0.00010000                0.32028424               -0.89262186                0.55475985               -1.31974811                1.03963552               -2.19882607
              23.01160749                6.08877300               86.00678754                0.00010000                0.54158177               -1.09184570                0.69625091               -1.80216026                1.44672267               -3.22153591
              24.01852576                5.54591170               85.61345273                0.00010000                0.90047292               -1.23758201                0.70937013               -2.20901269                1.93709904               -4.42542475
              25.02961695                5.00020617               85.22728852                0.00010000                1.12901919               -1.20532061                0.36974163               -2.32852803                2.02214935               -5.60751250
              26.04110615                4.45836771               84.84917349                0.00010000                0.77182113               -0.77422824               -0.37073771               -2.19349718                0.91098953               -7.04467101
              27.04505337                3.91930076               84.47010519                0.00010000                0.37443844               -0.34362011               -1.08365382               -1.57465904                0.48210855               -8.51538835
              28.04859491                3.37894611               84.08726836                0.37707586                0.35415399                0.37717092               -1.00713700               -1.08435536                0.26485428               -9.27275437
              18.53317345                9.75992768               87.89416638                1.00000000                0.05291341                0.05357779               -0.27352770               -0.02448327                0.09057646                0.69020800
              19.53370258                9.22835840               87.47975208                0.68724211               -0.00253334               -0.01063117                0.01406569               -0.04589763                0.14923826               -0.09322094
              20.53312278                8.69679161               87.06666468                0.00010000               -0.46821125               -0.09554294                0.28219773               -0.70941218               -0.00645792               -0.90926110
              21.52433836                8.15279946               86.64887908                0.00010000               -0.67436520               -0.77896251                0.36505730               -1.95130320               -0.28533697               -2.52391005
              22.51963548                7.61322665               86.23269502                0.00010000               -0.32387502               -1.11155478                0.28329951               -2.57763556               -0.49062903               -4.15546297
              23.51786086                7.07172766               85.81595655                0.00010000                0.01087095               -1.26509522               -0.03836045               -3.42048246               -0.85719376               -6.05310021
              24.51985289                6.52764336               85.39951745                0.00010000                0.39927519               -1.26809664               -0.61590126               -4.05284012               -1.14269221               -8.23540271
              25.52584636                5.98352800               84.98573246                0.00010000                0.82821145               -1.08410213               -1.40849374               -4.19373718               -1.16478756              -10.59749671
              26.53641712                5.44422333               84.57708241                0.00010000                1.33299715               -0.90352020               -2.31911911               -3.75461761               -0.82532748              -13.47458416
              27.55250630                4.90927838               84.17269657                0.00010000                1.55866184               -0.55059824               -3.10931585               -2.41287136               -0.64295459              -16.12295065
              28.56759036                4.38324780               83.76848109                0.37756347                1.50840583                0.44096063               -3.37799429               -1.12024720               -0.09927095              -18.33358313
              19.06476465               10.76054366               87.75619488                1.00000000                0.02938687                0.07329681               -0.25345225               -0.01205783                0.00750329                0.59406090
              20.06505852               10.22829812               87.33700336                0.63114734               -0.00540244               -0.02571977                0.05883910               -0.05738179                0.07054611               -0.24510508
              21.06465660                9.69541394               86.91915088                0.00010000               -0.76589053               -0.16405442                0.31378099               -0.81339292               -0.38941264               -1.13642016
              22.04974071                9.14794130               86.49052878                0.00010000               -1.37216917               -0.31869363                0.32281820               -1.84636135               -1.17295766               -2.37098354
              23.03721322                8.60550451               86.06131661                0.00010000               -1.04797896               -0.46238957                0.03695092               -2.27329296               -1.77893182               -3.79215698
              24.02878113                8.06347109               85.62879754                0.00010000               -0.57722989               -0.43861072               -0.62447399               -2.93899034               -2.59742389               -5.44692138
              25.02566862                7.52054977               85.19323017                0.00010000                0.01905545               -0.26911026               -1.64187028               -3.42964310               -3.23179018               -7.33105241
              26.02916224                6.97852413               84.75725315                0.00010000                0.72973931               -0.03343241               -2.87971222               -3.44553512               -3.31519095               -9.44500093
              27.04026341                6.44029730               84.32501606                0.00010000                1.43046216                0.14013681               -4.14271482               -2.94314120               -2.74382429              -11.74700564
              28.05777148                5.90828879               83.89969627                0.00010000                1.89938668                0.41727442               -5.18287041               -1.90735188               -1.53914046              -13.97439069
              29.07825114                5.38776533               83.48379974                0.37775706                2.04796589                0.71689281               -5.56388619               -0.86821833               -0.47014638              -15.57216849
              19.59742336               11.76139362               87.61729668                1.00000000                0.02613064                0.08749107               -0.23273327               -0.01329864               -0.00273046                0.54037024
              20.59768467               11.22784401               87.19402843                0.65679849               -0.01058050               -0.05198997                0.07686605               -0.05610584               -0.00429314               -0.25286153
              21.59721175               10.69351052               86.77078657                0.00010000               -1.01820552               -0.19213176                0.36650115               -0.73923888               -0.70606247               -1.10593554
              22.57732055               10.14642559               86.33324961                0.00010000               -1.92859632               -0.03001226                0.29500961               -1.61871611               -1.82747981               -2.14941925
              23.55863982                9.60397886               85.89315748                0.00010000               -1.66423798                0.08861557               -0.15224242               -1.89598316               -2.74308686               -3.32354978
              24.54403580                9.06295544               85.44730211                0.00010000               -1.12164130                0.26794440               -1.07938331               -2.39022634               -3.87906157               -4.71389738
              25.53620700                8.52226116               84.99588824                0.00010000               -0.34238387                0.53295266               -2.44156328               -2.76381841               -4.74156977               -6.32374881
              26.53718812                7.98285935               84.54231054                0.00010000                0.57913179                0.83431619               -4.07756928               -2.77424333               -4.91533285               -8.10241956
              27.54778963                7.44702607               84.09212698                0.00010000                1.48515629                1.11656668               -5.72417605               -2.32376359               -4.13715430               -9.95856136
              28.56689124                6.91762387               83.65184040                0.00010000                2.17416497                1.36221713               -7.02186069               -1.37901383               -2.39550751              -11.64614827
              29.59127293                6.39758566               83.22726605                0.37829788                2.43816881                1.38091734               -7.54624737               -0.56590525               -0.90218244              -12.77349557
              20.13159790               12.76229348               87.47818578                1.00000000                0.02215978                0.08964555               -0.22388487               -0.00884783               -0.00556732                0.52462875
              21.13181950               12.22725832               87.05099306                0.69736508               -0.01538289               -0.05733031                0.08772419               -0.04462554               -0.01653857               -0.24083833
              22.13129024               11.69157130               86.62362052                0.00010000               -1.24607235               -0.18715990                0.39164601               -0.51121093               -0.91388589               -0.99694206
              23.10689805               11.14734105               86.17827359                0.00010000               -2.42632724                0.20243501                0.28944013               -1.16635930               -2.29915151               -1.83945299
              24.08276370               10.60727682               85.72950890                0.00010000               -2.21018759                0.53152046               -0.27593303               -1.41094351               -3.40951094               -2.76395356
              25.06269430               10.06882998               85.27303880                0.00010000               -1.61376764                0.84711249               -1.40683009               -1.81898453               -4.78761735               -3.86969716
              26.05048835                9.53120882               84.80909859                0.00010000               -0.68909203                1.18664940               -3.04844920               -2.12117791               -5.83862114               -5.15706827
              27.04891246                8.99521045               84.34182630                0.00010000                0.42676323                1.54818604               -5.00655446               -2.11875779               -6.06881759               -6.57000489
              28.05902361                8.46262864               83.87828653                0.00010000                1.53595792                1.88966298               -6.96697291               -1.72659727               -5.16108827               -7.98891718
              29.07963162                7.93553314               83.42704963                0.00010000                2.39929292                2.13161810               -8.51738105               -0.97342830               -3.03417578               -9.21396941
              30.10700947                7.41538367               82.99658005                0.37856403                2.73778510                2.15224183               -9.18277839               -0.37154911               -1.24706553               -9.95048113
              20.66731671               13.76318653               87.33899018                1.00000000                0.01976188                0.08713187               -0.22299005               -0.00480896               -0.00497337                0.51142734
              21.66751433               13.22669740               86.90805471                0.73466448               -0.02059546               -0.05172955                0.09517622               -0.02881442               -0.01023685               -0.21654735
              22.66690480               12.68976732               86.47703910                0.00010000               -1.46132417               -0.17217413                0.40646381               -0.17801609               -0.98586114               -0.92698528
              23.63828785               12.15047429               86.02639506                0.00010000               -2.89863893                0.43163823                0.30820188               -0.55100475               -2.52260498               -1.47353955
              24.60893202               11.61460927               85.57145323                0.00010000               -2.72818694                0.92272913               -0.32783939               -0.84963200               -3.80378595               -2.13164696
              25.58372411               11.07989769               85.10716873                0.00010000               -2.07645294                1.32009057               -1.60586123               -1.26860149               -5.39388768               -2.93645429
              26.56740297               10.54599415               84.63384728                0.00010000               -1.01654834                1.69454745               -3.45939899               -1.53576153               -6.61546656               -3.88105911
              27.56339314               10.01382307               84.15633006                0.00010000                0.27660172                2.08403008               -5.66872820               -1.52707585               -6.91243015               -4.90811604
              28.57293500                9.48481933               83.68294886                0.00010000                1.56372504                2.44988085               -7.87939080               -1.21264893               -5.91058777               -5.90737876
              29.59466764                8.96025623               83.22400495                0.00010000                2.56029391                2.71632525               -9.63096089               -0.65695102               -3.49236113               -6.70474832
              30.62414088                8.44063049               82.78978016                0.37911086                2.94732356                2.80222201              -10.40432286               -0.23794020               -1.49092012               -7.09489668
              21.20447998               14.76403612               87.19970326                1.00000000                0.01824368                0.08192383               -0.22653431               -0.00064678                0.00337059                0.48605886
              22.20466242               14.22622373               86.76527810                0.78598132               -0.02634724               -0.04359922                0.10213673               -0.01539109                0.00058871               -0.19490351
              23.20395304               13.68812782               86.33080762                0.00010000               -1.68132004               -0.15509480                0.41986196                0.26169826               -0.89626447               -0.77114646
              24.17103602               13.15597382               85.87823040                0.00010000               -3.38026909                0.72426479                0.35970758                0.20221822               -2.46352271               -1.05972619
              25.13634765               12.62573141               85.41975542                0.00010000               -3.25493132                1.31894760               -0.29914363               -0.33716993               -3.95572380               -1.44382335
              26.10593739               12.09523179               84.95038679                0.00010000               -2.52499576                1.68119413               -1.66807344               -0.80132215               -5.76254276               -1.95266911
              27.08584774               11.56509977               84.47053404                0.00010000               -1.31958152                2.04839410               -3.67287574               -1.03238382               -7.16649365               -2.55653620
              28.07954576               11.03689105               83.98567371                0.00010000                0.12448642                2.44447099               -6.07140163               -1.01389975               -7.55423723               -3.20752030
              29.08833747               10.51162626               83.50524336                0.00010000                1.55678374                2.82345495               -8.47402276               -0.78275252               -6.49824599               -3.82006680
              30.11068143                9.98985964               83.04106893                0.00010000                2.65823415                3.10964684              -10.37225736               -0.40604864               -3.85081626               -4.24670093
              31.14150215                9.47142811               82.60494952                0.37943039                3.08207158                3.24086831              -11.19943937               -0.13316439               -1.68835558               -4.29143841
              21.74292854               15.76482501               87.06012448                1.00000000                0.01862624                0.07798722               -0.23389134                0.00210090                0.02983233                0.38513137
              22.74311481               15.22582542               86.62256117                0.67052499               -0.02699288               -0.03971206                0.11325463               -0.00543514                0.12371109               -0.18399763
              23.74238869               14.68666543               86.18687150                0.00010000               -1.91930899               -0.14192059                0.41970408                0.85774182               -0.61544053               -0.58182513
              24.70472863               14.16495958               85.73431037                0.00010000               -3.97290173                1.29485014                0.45545603                0.69545614               -2.20220357               -0.56252413
              25.66293065               13.64098822               85.27496807                0.00010000               -3.81996610                1.60276203               -0.17454544               -0.01592569               -3.90832905               -0.72676770
              26.62832930               13.11352158               84.80294011                0.00010000               -2.89173124                1.89446724               -1.58586828               -0.43532173               -5.96795618               -0.96874506
              27.60509603               12.58696203               84.31899214                0.00010000               -1.58703223                2.24851083               -3.69159114               -0.55742055               -7.58663903               -1.25436266
              28.59658866               12.06271249               83.82909699                0.00010000               -0.03923332                2.65253126               -6.23336927               -0.53545566               -8.11241891               -1.55988898
              29.60431136               11.54128843               83.34356010                0.00010000                1.50780766                3.04322142               -8.79243279               -0.40478937               -7.05993989               -1.84045986
              30.62674481               11.02244917               82.87564606                0.00010000                2.70146446                3.34050955              -10.80829314               -0.20411084               -4.21403783               -2.00575756
              31.65834065               10.50544786               82.43924709                0.37982713                3.15958367                3.47454956              -11.63121317               -0.04583548               -1.89975883               -1.81485424
              22.28252118               16.76559586               86.91895110                1.00000000                0.01921147                0.07708536               -0.24202387               -0.05737344                0.19745379                0.29875724
              23.28271329               16.22542949               86.47981528                0.78268564               -0.02737364               -0.03959253                0.11821514               -0.05547396                0.36390617               -0.17602932
              24.28197371               15.68528941               86.04398866                0.36298336               -2.60454715               -0.13760204                0.41539704                1.78056824               -0.08005591               -0.50709610
              25.23062235               15.18187082               85.59575459                0.36159726               -4.72532789                1.69112348                0.62364040                1.21423427               -1.69541289               -0.26238371
              26.18746715               14.65778665               85.13720939                0.36107797               -3.96826027                1.67984290                0.05856696                0.01616541               -3.74909740               -0.36852783
              27.15125714               14.13312113               84.66456750                0.36111668               -3.09793671                1.95995589               -1.35533654               -0.09304907               -6.08624185               -0.46054029
              28.12550841               13.61006998               84.17850127                0.36264716               -1.83734493                2.31079565               -3.52902393               -0.11773417               -7.97076587               -0.54206319
              29.11451025               13.08994168               83.68530418                0.36550672               -0.25017080                2.72291883               -6.18979007               -0.08680641               -8.69525032               -0.60657027
              30.12050500               12.57249068               83.19583980                0.36944669                1.39647705                3.12022556               -8.89932053               -0.04422854               -7.74340150               -0.64080163
              31.14243979               12.05666983               82.72412937                0.37515854                2.70415346                3.42206615              -11.07127576               -0.00908158               -4.79398995               -0.61141569
              32.17458807               11.54091910               82.28678162                0.69015370                3.21482797                3.54712455              -11.93387844                0.04966879               -2.36404041               -0.26749932
              17.34334321                6.90277844               89.30476099                1.00000000                0.01262788                0.05481976               -0.19101166                0.04362654               -0.51502333                0.46603103
              18.34346949                6.36919718               88.89869408                1.00000000               -0.03512157               -0.00825463                0.03813926                0.04780809               -0.70997099                0.06608676
              19.34264078                5.83514573               88.48898707                1.00000000               -0.11850649               -0.05661931                0.25957840                0.03756459               -0.76593579               -0.05232899
              20.34109936                5.29995865               88.08167873                0.69530328               -0.19112373               -0.13557120                0.48914771               -0.02829316               -0.69823756               -0.27910136
              21.33881830                4.76268183               87.67294002                0.64015933               -0.20537778               -0.21851759                0.66571143               -0.02200502               -0.45022284               -0.17625989
              22.33699180                4.22331481               87.27029963                0.57492553               -0.10706959               -0.31049739                0.83528825               -0.02538914                0.22554360               -0.21739284
              23.33667691                3.68129243               86.87475196                0.50877343                0.18757754               -0.38359580                0.89352207               -0.05502871                1.02797679               -0.29533965
              24.34074336                3.13639839               86.48785477                0.48769229                0.58725136               -0.33987983                0.41988802               -0.33494167                1.40888986               -0.45254309
              25.34842194                2.58838959               86.10500103                0.73912969                0.52719347                0.04351548               -0.23793229               -0.63313719                0.66902492                0.06480534
              26.35128722                2.04428990               85.72470371                1.00000000                0.33858411                0.29626248               -1.22319435               -0.24067271                0.44227751               -0.02757224
              27.35519362                1.50312295               85.33779053                1.00000000                0.39063978                0.36881172               -1.31452435               -0.12467900                0.05360467               -0.12255428
              17.87736074                7.90332663               89.16489506                1.00000000                0.04031875                0.04935088               -0.21083012                0.00964519               -0.12629798                0.61831647
              18.87776392                7.36911463               88.75884621                1.00000000                0.01374757               -0.01324564                0.01745090                0.01519961               -0.18893622                0.09623976
              19.87763569                6.83457954               88.35190677                1.00000000               -0.03577727               -0.06285574                0.21758806               -0.01507766               -0.19011738               -0.15681946
              20.87704838                6.29860294               87.94602627                1.00000000               -0.03577560               -0.15938640                0.40288477               -0.03966633               -0.06506053               -0.19282545
              21.87692018                5.76049665               87.54169198                0.96603989                0.01921179               -0.23392420                0.54132374               -0.04879495                0.18174984               -0.10248876
              22.87743261                5.22020984               87.14150394                0.93258889                0.13323298               -0.32142719                0.66969993               -0.05306047                0.61626675               -0.12247191
              23.87958484                4.67745647               86.74714124                0.92755518                0.32063716               -0.37779847                0.64561222               -0.04996223                1.05248489               -0.15407454
              24.88384536                4.13299959               86.35900299                0.96512605                0.42799900               -0.30315239                0.32467737               -0.11558783                1.17534486               -0.20847219
              25.88814481                3.58882474               85.97587796                1.00000000                0.38342303                0.02479199               -0.26813766               -0.23345493                0.78731923               -0.01281903
              26.89151382                3.04725252               85.59314402                1.00000000                0.34844831                0.24616312               -0.89613340               -0.09394976                0.46039802               -0.09238901
              27.89511378                2.50681107               85.20678065                1.00000000                0.35999633                0.34645919               -1.19830278               -0.08444986                0.21379185               -0.11083741
              18.41196012                8.90376545               89.02840191                1.00000000                0.05604566                0.04720199               -0.23062743               -0.00726449               -0.01913551                0.76842953
              19.41252058                8.36893226               88.61966809                1.00000000                0.04453971               -0.01513374                0.00365142               -0.01703780                0.04532508                0.10058955
              20.41285092                7.83388861               88.21262835                0.00010000                0.09341686               -0.05966492                0.20479470               -0.14624184                0.41128748               -0.46245795
              21.41438892                7.29677092               87.81156931                0.00010000                0.16922966               -0.58421186                0.31500618               -0.81113191                0.65275600               -1.28746375
              22.41623551                6.75800334               87.41063925                0.00010000                0.22909316               -0.77648182                0.41345712               -1.39342874                0.70273666               -2.18076957
              23.41897078                6.21688627               87.01238792                0.00010000                0.33262008               -0.93252701                0.47998840               -1.93273739                0.90741080               -3.36167850
              24.42288791                5.67373646               86.61864647                0.00010000                0.40462721               -1.03406657                0.42711830               -2.28122844                1.06992182               -4.80411262
              25.42706332                5.13033534               86.22987966                0.00010000                0.33060004               -1.02879114                0.20657096               -2.28438588                1.02877296               -6.39176595
              26.42949991                4.58888543               85.84627743                0.00010000                0.21792922               -0.91402650               -0.26143854               -1.84343396                0.71441238               -8.18840806
              27.43142191                4.04921316               85.46261190                0.00010000                0.24438130               -0.77379265               -0.66410717               -1.06213186                0.43640547               -9.80756815
              28.43438754                3.51005213               85.07623818                0.37390367                0.29656303               -0.36119542               -1.05554795               -0.14943646                0.23698388              -10.87583588
              18.94688183                9.90427067               88.89159956                1.00000000                0.04181795                0.05988816               -0.23162766               -0.02206249                0.06176498                0.70967332
              19.94730001                9.36881195               88.47984012                0.71934596               -0.00048183               -0.00942369                0.00668238               -0.03642322                0.10503149               -0.05455874
              20.94687219                8.83338624               88.06921961                0.00010000               -0.52944986               -0.09269242                0.22591453               -0.61706205               -0.10328421               -0.86013086
              21.93671101                8.28691870               87.65296490                0.00010000               -0.89679661               -0.70487646                0.50147028               -1.87475232               -0.54182957               -2.35354078
              22.92893626                7.74496702               87.23611512                0.00010000               -0.68331279               -0.98674222                0.47313417               -2.66348925               -1.07796905               -4.09892203
              23.92304475                7.20155930               86.81588056                0.00010000               -0.42125348               -1.13011436                0.09697214               -3.63257785               -1.81094913               -6.34972969
              24.92051119                6.65677514               86.39316704                0.00010000               -0.00180429               -1.20796463               -0.61067120               -4.26841913               -2.36334848               -9.12967598
              25.92300867                6.11242377               85.97077101                0.00010000                0.59435652               -1.24912216               -1.60064913               -4.28318774               -2.48431983              -12.33550526
              26.93239832                5.57054421               85.55184689                0.00010000                1.30479048               -1.26528772               -2.77234885               -3.53836545               -2.11975750              -15.84349954
              27.94910448                5.03177667               85.13822999                0.00010000                1.90243939               -1.13384321               -3.84363757               -2.05171247               -1.38419357              -18.96370621
              28.97044711                4.49958716               84.73020884                0.37414680                2.13426294               -0.50838301               -4.41235972               -0.49386349               -0.35085474              -21.38986380
              19.48243631               10.90496322               88.75379862                1.00000000                0.02402405                0.07848489               -0.21966008               -0.01143447                0.00406905                0.62276451
              20.48267655               10.36874379               88.33749648                0.67352214               -0.00166904               -0.02259021                0.04109975               -0.04577673                0.03896240               -0.20524587
              21.48240293                9.83203477               87.92202318                0.00010000               -0.86817294               -0.15568737                0.25812658               -0.69912141               -0.49475464               -1.08061773
              22.46531309                9.28267339               87.49478924                0.00010000               -1.70388984               -0.26639257                0.59822433               -1.70530226               -1.49046053               -2.21372218
              23.44832513                8.73826850               87.06318136                0.00010000               -1.54009946               -0.38185187                0.43539031               -2.24351876               -2.56116444               -3.74297732
              24.43451110                8.19428398               86.62369194                0.00010000               -1.08350389               -0.36673545               -0.30279526               -2.99534813               -3.88039058               -5.72864382
              25.42665505                7.64957717               86.17691313                0.00010000               -0.34403049               -0.28141212               -1.57081408               -3.52209145               -4.89576248               -8.16753694
              26.42763049                7.10535290               85.72685045                0.00010000                0.63623250               -0.17943133               -3.21930800               -3.56907775               -5.16311622              -10.98384365
              27.43937970                6.56357967               85.27966086                0.00010000                1.68571118               -0.06786611               -5.01140965               -3.07953867               -4.44338246              -13.96977824
              28.46134471                6.02653630               84.84188346                0.00010000                2.47547941                0.16275313               -6.56287640               -1.94054633               -2.62937925              -16.70079249
              29.48888929                5.49988447               84.42032115                0.37469659                2.75445765                0.54372627               -7.38176039               -0.85876441               -0.96908442              -18.57019847
              20.01909199               11.90584037               88.61508659                1.00000000                0.02209302                0.08783008               -0.20494371               -0.01185594               -0.00504594                0.56329723
              21.01931292               11.36836015               88.19469367                0.70079927               -0.00659173               -0.04274364                0.05714742               -0.04454399               -0.01642031               -0.22702918
              22.01896016               10.83027249               87.77417304                0.00010000               -1.14708464               -0.17346990                0.30801754               -0.61229608               -0.81148428               -1.05150561
              22.99637123               10.28159085               87.33764825                0.00010000               -2.32524294                0.00337983                0.66855602               -1.43427610               -2.20530633               -2.00940851
              23.97245530                9.73732998               86.89371848                0.00010000               -2.22710515                0.12988167                0.38405910               -1.79805843               -3.68026286               -3.28365191
              24.95182913                9.19422459               86.43810540                0.00010000               -1.67274303                0.30347357               -0.64952921               -2.37611031               -5.42838483               -4.96707139
              25.93900044                8.65114690               85.97154545                0.00010000               -0.71022618                0.54045699               -2.36553172               -2.82141161               -6.77531989               -7.04242689
              26.93762460                8.10883514               85.49925001                0.00010000                0.53118559                0.81443743               -4.55731130               -2.90484679               -7.15257744               -9.40951986
              27.94962415                7.56918689               85.02976892                0.00010000                1.81820752                1.11108751               -6.88523696               -2.51124754               -6.16864646              -11.87162448
              28.97398875                7.03503173               84.57359489                0.00010000                2.84756578                1.43088256               -8.88101327               -1.55131127               -3.67735765              -14.07152243
              30.00657547                6.51046168               84.14161215                0.37522281                3.25867122                1.60581539               -9.95267042               -0.64439520               -1.49529643              -15.51906878
              20.55715963               12.90671982               88.47605549                1.00000000                0.01939191                0.08576692               -0.19897050               -0.00791377               -0.00714028                0.53627374
              21.55735355               12.36788892               88.05176673                0.73918280               -0.01166623               -0.04541954                0.06789768               -0.03462699               -0.02216214               -0.21809835
              22.55692631               11.82856537               87.62724581                0.00010000               -1.38917351               -0.16274425                0.33226712               -0.39221427               -1.01388205               -0.95597244
              23.52957008               11.28274099               87.18293108                0.00010000               -2.85980395                0.21648740                0.73645622               -0.97735128               -2.70394752               -1.72405799
              24.49973023               10.74086613               86.72926760                0.00010000               -2.81990502                0.54326868                0.36176020               -1.28844342               -4.45946986               -2.73669420
              25.47317198               10.20035345               86.26088922                0.00010000               -2.20569815                0.87075527               -0.90022899               -1.77076666               -6.53770578               -4.08460846
              26.45561626                9.66038630               85.77868785                0.00010000               -1.08392103                1.23926385               -2.96753853               -2.14903981               -8.14299593               -5.74647819
              27.45149356                9.12164165               85.28899576                0.00010000                0.36709500                1.65444983               -5.59022200               -2.22413689               -8.60591283               -7.62400068
              28.46295816                8.58580143               84.80242808                0.00010000                1.87750702                2.09048801               -8.36387216               -1.89101599               -7.44894574               -9.53241616
              29.48904370                8.05515395               84.33230443                0.00010000                3.10916606                2.47800899              -10.74080515               -1.11972314               -4.46057869              -11.18709482
              30.52514149                7.53200078               83.89263662                0.37531837                3.60977865                2.66090376              -12.06088292               -0.45375653               -1.90410440              -12.21600424
              21.09659552               13.90755571               88.33686611                1.00000000                0.01793124                0.08055322               -0.19925276               -0.00454463               -0.00664719                0.51480377
              22.09677483               13.36745176               87.90890219                0.77406475               -0.01658612               -0.03996536                0.07505285               -0.02205108               -0.01526589               -0.19483927
              23.09626380               12.82701761               87.48081163                0.00010000               -1.61256973               -0.14666369                0.34621944               -0.08035290               -1.07315194               -0.88811165
              24.06452344               12.28592060               87.03150457                0.00010000               -3.35949132                0.42936820                0.81642934               -0.38830850               -2.92361686               -1.38634631
              25.02907397               11.74819535               86.57107262                0.00010000               -3.38149076                0.91442022                0.39678256               -0.73229984               -4.92058509               -2.11874910
              25.99689362               11.21163969               86.09335236                0.00010000               -2.71712641                1.34254059               -1.02500054               -1.20505606               -7.28236687               -3.10878530
              26.97473144               10.67593217               85.59943171                0.00010000               -1.45834387                1.79072908               -3.35326961               -1.53260592               -9.11637483               -4.32923043
              27.96772674               10.14192414               85.09663905                0.00010000                0.17800444                2.29745286               -6.30547900               -1.58725416               -9.67106651               -5.69251453
              28.97829153                9.61099665               84.59732331                0.00010000                1.88340952                2.82263054               -9.42599055               -1.31749964               -8.39606480               -7.04229730
              30.00539494                9.08459191               84.11706089                0.00010000                3.27575684                3.27984673              -12.10659919               -0.75067030               -5.03632620               -8.14230504
              31.04380667                8.56367976               83.67221598                0.37578179                3.84117331                3.55506182              -13.62736788               -0.29581975               -2.20530064               -8.71853866
              21.63727664               14.90833088               88.19754324                1.00000000                0.01739950                0.07442746               -0.20343620               -0.00118291                0.00095766                0.48323354
              22.63745063               14.36708961               87.76618887                0.82143889               -0.02131139               -0.03320697                0.08062565               -0.01164199               -0.00655278               -0.17184063
              23.63685041               13.82563209               87.33470794                0.00010000               -1.84122349               -0.13082302                0.35861094                0.33010833               -0.95756517               -0.73827449
              24.60062616               13.29132835               86.88411910                0.00010000               -3.87426359                0.71147432                0.92786415                0.31904154               -2.82350183               -0.99843898
              25.55936514               12.75915454               86.42007192                0.00010000               -3.96460617                1.29572772                0.51813662               -0.24518620               -5.09104657               -1.44303177
              26.52133404               12.22720426               85.93636390                0.00010000               -3.23427200                1.70327217               -0.99316819               -0.73756709               -7.73615986               -2.07787350
              27.49467970               11.69620089               85.43427087                0.00010000               -1.83250218                2.17662192               -3.50154664               -1.00605509               -9.81461473               -2.85565457
              28.48468399               11.16759071               84.92200955                0.00010000               -0.03696489                2.73223617               -6.69618744               -1.03223767              -10.49575385               -3.71534824
              29.49394040               10.64225404               84.41342832                0.00010000                1.83315961                3.31155159              -10.07791816               -0.83488981               -9.15588407               -4.54074814
              30.52134719               10.12075088               83.92617143                0.00010000                3.35544988                3.81957696              -12.97875691               -0.45575684               -5.50015818               -5.12852895
              31.56104940                9.60310202               83.47864099                0.37631687                3.97022100                4.17014814              -14.62025316               -0.17256137               -2.45989576               -5.20589594
              22.17905441               15.90904426               88.05789183                1.00000000                0.01863725                0.07059435               -0.21114861                0.00104616                0.03059118                0.37801425
              23.17924078               15.36678762               87.62356504                0.69836492               -0.02135947               -0.03006630                0.08785019               -0.00405092                0.10616218               -0.16259018
              24.17862722               14.82440114               87.19075475                0.00010000               -2.09294782               -0.11900084                0.35640636                0.89537402               -0.62971185               -0.55645192
              25.13738182               14.30015008               86.74148757                0.00010000               -4.51664393                1.27307140                1.09907526                0.76116038               -2.46087782               -0.51835434
              26.08829434               13.77410991               86.27707317                0.00010000               -4.61429457                1.56316130                0.76719633                0.03625361               -4.99999411               -0.73985796
              27.04509593               13.24570513               85.79034044                0.00010000               -3.70352217                1.90997722               -0.77279521               -0.39125314               -7.98770272               -1.04110510
              28.01422390               12.71946461               85.28308159                0.00010000               -2.20335453                2.38796229               -3.39545770               -0.53031778              -10.36575691               -1.40446145
              29.00102884               12.19656886               84.76419599                0.00010000               -0.28951685                2.97361323               -6.76862939               -0.53412597              -11.24539590               -1.80340355
              30.00843356               11.67722768               84.24872908                0.00010000                1.72014879                3.58631379              -10.35617926               -0.42635902               -9.92035190               -2.17744072
              31.03543182               11.16098345               83.75634264                0.00010000                3.36098057                4.12175332              -13.42576491               -0.22818997               -5.99620058               -2.39971737
              32.07565317               10.64708272               83.30845802                0.37640910                4.02213532                4.48892986              -15.09609376               -0.07507807               -2.74867168               -2.11841507
              22.72181084               16.90974277               87.91663068                1.00000000                0.02018908                0.06985112               -0.22076862               -0.04980582                0.19515546                0.28983744
              23.72201273               16.36648828               87.48085059                0.79485165               -0.02077056               -0.02993370                0.08866297               -0.04733997                0.33318005               -0.15769721
              24.72139542               15.82325208               87.04781835                0.36249531               -2.79360598               -0.11490674                0.34880029                1.79189557                0.00153847               -0.48247378
              25.66614061               15.31678978               86.60517357                0.36132838               -5.34301327                1.66396976                1.40100178                1.23416265               -1.69466442               -0.32986034
              26.61453516               14.79041776               86.14244510                0.36088067               -4.89931673                1.63078571                1.18983562                0.05478310               -4.73286739               -0.46342282
              27.56815427               14.26540381               85.65516457                0.36135493               -4.06627729                1.96986709               -0.33118836               -0.01704762               -8.14100866               -0.56673850
              28.53320961               13.74396013               85.14507112                0.36251334               -2.59579352                2.44955215               -3.02969281               -0.01847008              -10.91101297               -0.65320625
              29.51623840               13.22706297               84.62156530                0.36434320               -0.61054909                3.04941071               -6.55007005                0.02196496              -12.08412653               -0.71967044
              30.52099863               12.71398031               84.10048106                0.36768688                1.53449744                3.67526272              -10.32879009                0.06265608              -10.91727858               -0.74564786
              31.54692835               12.20318595               83.60253002                0.37240846                3.31753317                4.22024970              -13.60035191                0.09466841               -6.85517108               -0.68210569
              32.58734929               11.69288061               83.15321140                0.68837609                4.04209441                4.57978926              -15.33185319                0.13907899               -3.44742618               -0.14865329
              17.74309644                7.04734919               90.30322242                1.00000000               -0.00133619                0.03707998               -0.11271537                0.02731025               -0.50863587                0.45245528
              18.74308307                6.50980624               89.89917921                1.00000000               -0.03808332               -0.01274012                0.06099497                0.02946497               -0.70478976                0.06538128
              19.74233477                5.97189100               89.49147900                1.00000000               -0.10353244               -0.05340370                0.23966855                0.02112927               -0.75543905               -0.05430738
              20.74101243                5.43319490               89.08620889                0.69322165               -0.17654773               -0.10868988                0.41401181               -0.03930722               -0.70680109               -0.29090179
              21.73880381                4.89283524               88.67898602                0.65796488               -0.20635803               -0.15051517                0.54868784               -0.04650543               -0.50463587               -0.17147872
              22.73688526                4.35099199               88.27751305                0.62785056               -0.13434685               -0.19651420                0.63374643               -0.06041030                0.05906470               -0.17232016
              23.73611688                3.80748511               87.88173638                0.61193483                0.02258189               -0.20661062                0.57723606               -0.12016515                0.54461596               -0.22247405
              24.73733690                3.26278849               87.49098262                0.64693041                0.15338575               -0.13484247                0.25331708               -0.25501005                0.71165479               -0.22808175
              25.73918459                2.71777249               87.10305365                0.91080493                0.17142637                0.04026180               -0.17982501               -0.24118668                0.44347013               -0.03767301
              26.74076543                2.17435993               86.71459333                1.00000000                0.23489090                0.20348975               -0.83711672               -0.09418329                0.25637059                0.02176378
              27.74388241                1.63165338               86.32484997                1.00000000                0.31169805                0.33866035               -1.17851303               -0.10182000                0.10319709               -0.17649371
              18.28091249                8.04771999               90.16313494                1.00000000                0.01943278                0.03935039               -0.13678922                0.00109702               -0.13709567                0.60254491
              19.28110682                7.50967883               89.75909642                1.00000000               -0.00303797               -0.01388003                0.03557051                0.00371792               -0.21365280                0.09653056
              20.28085173                6.97135696               89.35395365                1.00000000               -0.04797922               -0.05641013                0.19426311               -0.01475903               -0.23823289               -0.14950881
              21.28014723                6.43210800               88.94966533                1.00000000               -0.07057580               -0.11811285                0.33619445               -0.03966352               -0.15309687               -0.20559119
              22.27944022                5.89133009               88.54643859                1.00000000               -0.05955043               -0.15690846                0.43338438               -0.04773563                0.03764475               -0.09482913
              23.27895623                5.34902685               88.14710085                1.00000000               -0.02116209               -0.19145932                0.48541933               -0.05239280                0.35139446               -0.08823742
              24.27901697                4.80541900               87.75201998                1.00000000                0.03434425               -0.18407321                0.41286399               -0.06356009                0.61123506               -0.09565459
              25.27964311                4.26144007               87.36116275                1.00000000                0.09850188               -0.10928322                0.17984191               -0.10096762                0.73590178               -0.07484546
              26.28098701                3.71817511               86.97342474                1.00000000                0.16200223                0.04290583               -0.20709353               -0.07838401                0.67530139               -0.02753300
              27.28288315                3.17639482               86.58555221                1.00000000                0.22918730                0.18517505               -0.66857174               -0.00399126                0.42184798               -0.03262508
              28.28557076                2.63503998               86.19520683                1.00000000                0.26876019                0.31739126               -1.05348315               -0.02550346                0.21549979               -0.19703921
              18.81920068                9.04813620               90.02639983                1.00000000                0.03197758                0.05022243               -0.16519292               -0.00999883               -0.03788199                0.76265227
              19.81952046                8.50952863               89.61974095                1.00000000                0.02048709               -0.01199995                0.01398912               -0.01485263                0.00723099                0.11084131
              20.81961042                7.97076280               89.21449426                0.00010000                0.03627864               -0.05813975                0.17139310               -0.08077080                0.30640092               -0.43142504
              21.82024603                7.43083264               88.81432615                0.00010000                0.06599152               -0.47996414                0.25708871               -0.73033575                0.46836754               -1.09623382
              22.82093025                6.88969707               88.41419858                0.00010000                0.07512297               -0.63119981                0.32855394               -1.39748097                0.46816156               -1.99192831
              23.82174849                6.34716280               88.01638731                0.00010000                0.07510990               -0.77989033                0.35474199               -2.01298437                0.57766866               -3.37239688
              24.82243245                5.80380365               87.62199510                0.00010000                0.04064760               -0.93179110                0.29625396               -2.39407327                0.69071426               -5.19346676
              25.82256144                5.26060283               87.23141994                0.00010000                0.01148538               -1.07964831                0.13125517               -2.36680183                0.77608122               -7.34583093
              26.82266216                4.71863061               86.84394472                0.00010000                0.06296463               -1.21025999               -0.20320028               -1.84817113                0.80211064               -9.63604664
              27.82382073                4.17806343               86.45682305                0.00010000                0.17099307               -1.28310644               -0.53670979               -0.85260397                0.57504577              -11.65519089
              28.82608202                3.63800120               86.06615740                0.37132131                0.22612867               -1.18362139               -0.92634043                0.54601835                0.33658615              -13.05147862
              19.35792763               10.04872444               89.88953382                1.00000000                0.02555303                0.06878638               -0.17738300               -0.01607863                0.03930683                0.72256745
              20.35818317                9.50943884               89.47988573                0.75437493                0.00023371               -0.00944885                0.00514268               -0.02187579                0.06911272               -0.02139012
              21.35793231                8.97019417               89.07118297                0.00010000               -0.57884590               -0.09573257                0.16791241               -0.45358988               -0.04482217               -0.81247203
              22.34660625                8.42250872               88.65890848                0.00010000               -1.13859374               -0.59245676                0.74337551               -1.64803996               -0.51590601               -1.94114761
              23.33516043                7.87870609               88.24215770                0.00010000               -1.10081437               -0.83277267                0.81480824               -2.64613510               -1.48215810               -3.72787271
              24.32458996                7.33342904               87.81789599                0.00010000               -0.87324772               -1.02447117                0.38330577               -3.81149215               -2.64565530               -6.41309692
              25.31769548                6.78678318               87.38730403                0.00010000               -0.35549254               -1.24915151               -0.51771159               -4.57097644               -3.54056523               -9.99351337
              26.31748011                6.23984710               86.95371948                0.00010000                0.44337566               -1.51172883               -1.81304018               -4.61112681               -3.86684425              -14.25433845
              27.32656299                5.69396991               86.52163543                0.00010000                1.44901869               -1.78254481               -3.33768899               -3.77069124               -3.45102404              -18.75696245
              28.34646048                5.15073269               86.09582381                0.00010000                2.50262876               -1.95776901               -4.77529187               -2.09497423               -2.19377988              -22.75644198
              29.37661557                4.61136755               85.68023389                0.37142247                3.01550854               -1.65215763               -5.73616091               -0.14091116               -0.63733337              -25.65023139
              19.89745031               11.04951192               89.75180168                1.00000000                0.01629007                0.08391312               -0.17648043               -0.00819415                0.00077292                0.64553428
              20.89761321               10.50933966               89.33782536                0.71853624                0.00092173               -0.02028318                0.02703826               -0.02885716                0.01553302               -0.16453588
              21.89746875                9.96884814               88.92431341                0.00010000               -0.94199512               -0.14681971                0.20110040               -0.51304917               -0.36465558               -1.01501337
              22.87877331                9.41898351               88.50249326                0.00010000               -2.01907584               -0.22065681                1.02922683               -1.43718897               -1.39517817               -1.87929517
              23.85708723                8.87304161               88.07002442                0.00010000               -2.06658773               -0.32432517                1.05541143               -2.14465723               -3.11204085               -3.46683855
              24.83744155                8.32667338               87.62274163                0.00010000               -1.62461843               -0.35061528                0.22702594               -3.05849166               -5.11608652               -5.85584017
              25.82459486                7.77882062               87.16181388                0.00010000               -0.71446894               -0.35726424               -1.37972115               -3.72223083               -6.69925734               -9.00752260
              26.82315218                7.23036825               86.69286699                0.00010000                0.58839427               -0.36617309               -3.57979342               -3.87039547               -7.28658141              -12.73156406
              27.83636275                6.68297971               86.22478787                0.00010000                2.06857161               -0.35717757               -6.06016222               -3.39756890               -6.46177477              -16.65329990
              28.86452361                6.13890805               85.76843874                0.00010000                3.28156654               -0.24801168               -8.33570542               -2.14906418               -3.93830017              -20.22053207
              29.90199408                5.60495805               85.33616453                0.37162326                3.74704685                0.17606303               -9.76253760               -0.95915321               -1.55928803              -22.61167319
              20.43810828               12.05040270               89.61319781                1.00000000                0.01615182                0.08637558               -0.17034887               -0.00783804               -0.00706467                0.58328015
              21.43826980               11.50903317               89.19517138                0.74524908               -0.00404020               -0.03259131                0.04053774               -0.02861039               -0.02346039               -0.19487524
              22.43802748               10.96725777               88.77694692                0.00010000               -1.23004011               -0.15174403                0.24790860               -0.42790411               -0.62840853               -0.98810474
              23.41366900               10.41809558               88.34662073                0.00010000               -2.67250308                0.00100333                1.23351175               -1.15070881               -2.07432938               -1.73441969
              24.38457742                9.87221959               87.90083866                0.00010000               -2.80139363                0.10735883                1.19145115               -1.65749581               -4.34730369               -3.07733198
              25.35764113                9.32641673               87.43431152                0.00010000               -2.25107140                0.26087343                0.03342145               -2.37516562               -6.94939142               -5.11234467
              26.33955599                8.77963790               86.94857760                0.00010000               -1.08640124                0.47861882               -2.13918652               -2.94830323               -9.00285324               -7.78411425
              27.33591310                8.23252364               86.45116431                0.00010000                0.52579174                0.74865729               -5.06529872               -3.14548715               -9.75548311              -10.91903314
              28.35007182                7.68682636               85.95442224                0.00010000                2.27938810                1.07231049               -8.31907207               -2.81889487               -8.62233302              -14.21331780
              29.38150086                7.14577246               85.47422014                0.00010000                3.76303350                1.47085976              -11.28858007               -1.81248217               -5.26323878              -17.18980517
              30.42533249                6.61488882               85.02821265                0.37183388                4.38316305                1.77508495              -13.18297514               -0.77491810               -2.23204273              -19.21914114
              20.98003260               13.05123943               89.47420637                1.00000000                0.01533266                0.07960788               -0.16887656               -0.00499446               -0.00836646                0.54831595
              21.98018593               12.50868783               89.05235102                0.77877983               -0.00921740               -0.03273482                0.05079799               -0.02162430               -0.02437272               -0.18979082
              22.97984825               11.96581326               88.63026586                0.00010000               -1.46943051               -0.13574016                0.27240245               -0.24361756               -0.78663087               -0.90948292
              23.95079732               11.41900357               88.19300271                0.00010000               -3.21160485                0.17318789                1.39986156               -0.73694745               -2.52597379               -1.51396128
              24.91561616               10.87518879               87.73674410                0.00010000               -3.41386943                0.46051882                1.30427109               -1.15088049               -5.19697583               -2.59876196
              25.88251993               10.33189085               87.25503422                0.00010000               -2.80471348                0.79152888               -0.11057311               -1.73596200               -8.24575340               -4.23733046
              26.85952189                9.78839299               86.74974782                0.00010000               -1.47329808                1.20943107               -2.72235858               -2.21583267              -10.64904938               -6.37572110
              27.85305397                9.24534140               86.23002186                0.00010000                0.36070710                1.72176768               -6.21724687               -2.38999764              -11.52686070               -8.86583880
              28.86673603                8.70442592               85.71100909                0.00010000                2.35787706                2.30733947              -10.09026167               -2.12480598              -10.18947190              -11.45234175
              29.90021151                8.16832524               85.21223353                0.00010000                4.07634870                2.88853355              -13.63764578               -1.32092966               -6.21985645              -13.76323517
              30.94826300                7.64045975               84.75536239                0.37210192                4.80514938                3.26832665              -15.96766665               -0.56693975               -2.72313262              -15.32380318
              21.52311160               14.05199486               89.33500513                1.00000000                0.01518859                0.07178119               -0.17140346               -0.00287521               -0.00800731                0.52049472
              22.52326348               13.50837848               88.90955577                0.80927523               -0.01361064               -0.02818789                0.05746329               -0.01355765               -0.01817917               -0.16993373
              23.52283939               12.96454297               88.48396349                0.00010000               -1.68544813               -0.11970257                0.28675064                0.01020548               -0.79975508               -0.84720999
              24.48955452               12.42155934               88.04272364                0.00010000               -3.70834275                0.35092313                1.55833116               -0.23541640               -2.67654917               -1.24462601
              25.44867253               11.88142996               87.57938888                0.00010000               -3.99184189                0.78407169                1.44966179               -0.63231280               -5.67880508               -2.04945024
              26.40971768               11.34224731               87.08666872                0.00010000               -3.34418740                1.23976942               -0.14065301               -1.15540667               -9.09931378               -3.26259481
              27.38178878               10.80382652               86.56678188                0.00010000               -1.88187343                1.79719022               -3.07389260               -1.54502047              -11.80353544               -4.83238605
              28.37208022               10.26695900               86.03022048                0.00010000                0.14015396                2.48428745               -6.99786135               -1.67170515              -12.81099458               -6.63991818
              29.38459186                9.73297315               85.49442905                0.00010000                2.34841140                3.24897958              -11.34802831               -1.45469969              -11.33939980               -8.48265152
              30.41904844                9.20354313               84.98187297                0.00010000                4.25664088                3.98410372              -15.34758950               -0.87318572               -6.91844371              -10.05624710
              31.46972468                8.68025535               84.51723281                0.37262096                5.06762361                4.53042019              -18.03003321               -0.37367240               -3.08535189              -11.00830126
              22.06720786               15.05267506               89.19563454                1.00000000                0.01588032                0.06514983               -0.17703938               -0.00098029               -0.00083746                0.48364231
              23.06736666               14.50812407               88.76689062                0.85238056               -0.01681791               -0.02332869                0.06126998               -0.00720989               -0.01094311               -0.14872853
              24.06687150               13.96341921               88.33797984                0.00010000               -1.90823324               -0.10584969                0.29679716                0.34652456               -0.62355605               -0.70491185
              25.02920200               13.42602203               87.89678768                0.00010000               -4.22947871                0.59893447                1.74413652                0.35445716               -2.46817723               -0.91846266
              25.98228193               12.89087023               87.43011815                0.00010000               -4.60933786                1.11939576                1.68467381               -0.19652175               -5.81448563               -1.43115759
              26.93701524               12.35668624               86.93052342                0.00010000               -3.91860660                1.58257434                0.00668241               -0.68421421               -9.59937834               -2.21838695
              27.90390980               11.82433680               86.40050311                0.00010000               -2.32710033                2.21230114               -3.14217638               -0.97612617              -12.62698153               -3.21307273
              28.89047323               11.29502715               85.85174996                0.00010000               -0.14259474                3.00648331               -7.37582662               -1.04891241              -13.81117545               -4.34676364
              29.90105790               10.76940552               85.30368500                0.00010000                2.24961819                3.88568589              -12.07886037               -0.89270120              -12.27364669               -5.47399030
              30.93546560               10.24800732               84.78149379                0.00010000                4.31536105                4.72765536              -16.40407629               -0.51469717               -7.49126985               -6.33069290
              31.98736512                9.73106815               84.31254446                0.37291849                5.18995237                5.41268972              -19.31398684               -0.22332785               -3.39974670               -6.55406848
              22.61219396               16.05329785               89.05590151                1.00000000                0.01811706                0.06199330               -0.18599795                0.00023534                0.03102700                0.37435310
              23.61237513               15.50791190               88.62431817                0.71748245               -0.01610229               -0.02098124                0.06416763               -0.00246596                0.09345559               -0.14370435
              24.61187192               14.96242598               88.19399963                0.00010000               -2.15912398               -0.09532385                0.29368333                0.82180561               -0.20205093               -0.53458544
              25.56919265               14.43353803               87.75629188                0.00010000               -4.88970107                1.09397851                2.00972531                0.71461090               -1.91862169               -0.46992118
              26.51407789               13.90381788               87.29031200                0.00010000               -5.33129124                1.34520541                2.09060590                0.04488221               -5.60737386               -0.76914653
              27.46256683               13.37389880               86.78748421                0.00010000               -4.50762739                1.77259362                0.40162982               -0.34748168               -9.85544862               -1.13902501
              28.42392535               12.84807254               86.25108299                0.00010000               -2.82667901                2.43449967               -2.87719879               -0.49162548              -13.29512654               -1.59561620
              29.40603325               12.32708866               85.69372440                0.00010000               -0.50838377                3.28912434               -7.33279890               -0.52205644              -14.76014021               -2.11493617
              30.41375767               11.81068687               85.13643651                0.00010000                2.05293072                4.23341282              -12.30471498               -0.44278062              -13.26070250               -2.62233875
              31.44709186               11.29809624               84.60713076                0.00010000                4.26893870                5.13228225              -16.86868253               -0.25186498               -8.13582277               -2.95010051
              32.49913645               10.78850914               84.13732522                0.37339893                5.20445831                5.86855631              -19.86352367               -0.11312701               -3.77596474               -2.61276538
              23.15798447               17.05391492               88.91453573                1.00000000                0.02047521                0.06170718               -0.19741851               -0.04199680                0.19330410                0.28433671
              24.15818922               16.50770445               88.48158854                0.80263302               -0.01514905               -0.02074522                0.06042633               -0.03870057                0.30963224               -0.14315868
              25.15768149               15.96151274               88.05096467                0.36213242               -2.80434533               -0.09132397                0.28418191                1.59081498                0.60915703               -0.46572398
              26.10210231               15.44790161               87.62377462                0.36113730               -5.74313439                1.43635777                2.49276683                1.10404602               -0.71398252               -0.45664733
              27.04281880               14.91777433               87.16100611                0.36099510               -5.81456854                1.39564557                2.76728435                0.08591573               -5.14282183               -0.62446358
              27.98581094               14.39213811               86.65794373                0.36120270               -5.09656883                1.82393094                1.12468825                0.08703439              -10.01623872               -0.73500914
              28.94088742               13.87302679               86.11790741                0.36185375               -3.41965822                2.49542487               -2.23938622                0.12978402              -14.01954754               -0.82136130
              29.91741778               13.36080964               85.55430278                0.36384698               -0.98463558                3.37209738               -6.87566993                0.19080224              -15.90184218               -0.88777394
              30.92119471               12.85407377               84.98926400                0.36620852                1.75941225                4.33869045              -12.08677757                0.23587032              -14.63477912               -0.90604969
              31.95260602               12.35065296               84.45212233                0.37019230                4.15410305                5.25567223              -16.90747427                0.26969158               -9.33302450               -0.80892911
              33.00427677               11.84843928               83.98014455                0.68673019                5.16707488                5.99301377              -19.99362329                0.29266475               -4.76060598               -0.05577255
              18.14125692                7.19200251               91.30250668                1.00000000               -0.01397944                0.01976158               -0.03330064                0.01068315               -0.48775587                0.43425220
              19.14111712                6.65067039               90.89991398                1.00000000               -0.03772964               -0.01868933                0.08516992                0.01089157               -0.67545013                0.06482009
              20.14050232                6.10911027               90.49378044                1.00000000               -0.08304040               -0.05361791                0.21965406                0.00784692               -0.72139649               -0.05173059
              21.13945631                5.56722774               90.08995897                0.69210682               -0.15404480               -0.08538901                0.33704820               -0.03363851               -0.68702664               -0.28164468
              22.13742143                5.02434712               89.68391378                0.67525012               -0.20167867               -0.09596094                0.44138537               -0.04513499               -0.51124561               -0.14815632
              23.13542274                4.48069280               89.28297456                0.67183455               -0.16608844               -0.11219726                0.47130392               -0.05793154               -0.03830199               -0.13435233
              24.13409966                3.93627575               88.88629668                0.69107203               -0.08817808               -0.09910889                0.37731786               -0.09601840                0.30277098               -0.14198497
              25.13365918                3.39147649               88.49292111                0.76209939               -0.02095115               -0.04111272                0.15163634               -0.11914578                0.44962128               -0.12134243
              26.13368064                2.84689394               88.10140453                1.00000000                0.04795672                0.04890745               -0.16344714               -0.07537855                0.33464078               -0.06592279
              27.13461831                2.30280741               87.70796138                1.00000000                0.15318189                0.15628865               -0.55820922               -0.04569201                0.17744629               -0.00310589
              28.13674427                1.75887935               87.31422027                1.00000000                0.21259604                0.26835012               -0.91928506               -0.05578059                0.08087043               -0.15404056
              18.68269587                8.19220013               91.16215928                1.00000000               -0.00237105                0.03085516               -0.06026931               -0.00849708               -0.13597049                0.58269542
              19.68267216                7.65048350               90.75955762                1.00000000               -0.01968733               -0.01553082                0.05661058               -0.00861945               -0.21449314                0.09607861
              20.68230212                7.10857409               90.35579203                1.00000000               -0.05853259               -0.05397414                0.17443870               -0.01091211               -0.24544958               -0.14045678
              21.68150150                6.56637385               89.95275016                1.00000000               -0.10322869               -0.08123231                0.28071449               -0.02954727               -0.18026024               -0.20144248
              22.68023755                6.02338751               89.55035966                1.00000000               -0.13111961               -0.09507294                0.35784965               -0.03434290               -0.02371346               -0.08246025
              23.67887911                5.47957083               89.15121233                1.00000000               -0.12449575               -0.10248073                0.37101520               -0.03989806                0.24693784               -0.06514626
              24.67774763                4.93528466               88.75539852                1.00000000               -0.08602437               -0.08463375                0.29736210               -0.04677840                0.48643724               -0.05586805
              25.67715863                4.39106536               88.36259983                1.00000000               -0.02431214               -0.03072441                0.11876318               -0.04627497                0.64834053               -0.04097884
              26.67726139                3.84738301               87.97173608                1.00000000                0.05050312                0.05299350               -0.15861397               -0.01183408                0.60036420               -0.04992015
              27.67816869                3.30437030               87.57977259                1.00000000                0.14265688                0.15151631               -0.50600532                0.01358327                0.37182934               -0.02935416
              28.68011453                2.76156285               87.18571099                1.00000000                0.19458388                0.25580749               -0.83605318                0.00456997                0.20299767               -0.20150656
              19.22452023                9.19261961               91.02509805                1.00000000                0.00505344                0.05600217               -0.09605764               -0.01256974               -0.04529394                0.74955962
              20.22457077                8.65035978               90.61994787                1.00000000               -0.00632489               -0.00918757                0.02803389               -0.01139341               -0.00859297                0.11603098
              21.22439373                8.10803079               90.21605621                0.00010000               -0.02594075               -0.06282218                0.14313833               -0.00529051                0.25671233               -0.41209368
              22.22405195                7.56560309               89.81671109                0.00010000               -0.04280719               -0.32226028                0.22152781               -0.58342360                0.38778892               -0.73829008
              23.22353759                7.02244566               89.41721033                0.00010000               -0.06621584               -0.44018944                0.27960297               -1.34459335                0.36858228               -1.58608954
              24.22272763                6.47864318               89.01948276                0.00010000               -0.09340154               -0.63138981                0.28922875               -2.08781906                0.47819753               -3.20203905
              25.22166956                5.93458307               88.62457154                0.00010000               -0.10461548               -0.90992889                0.23585853               -2.58262113                0.64399136               -5.52993088
              26.22063532                5.39086200               88.23250477                0.00010000               -0.07652707               -1.25876998                0.09225831               -2.62237550                0.79915991               -8.37600391
              27.22013902                4.84795381               87.84221343                0.00010000                0.00374083               -1.64105999               -0.15819946               -2.05060733                0.84730429              -11.41384138
              28.22071014                4.30583774               87.45187770                0.00010000                0.11557718               -1.96690800               -0.45498758               -0.77482894                0.61144188              -14.10003429
              29.22245056                3.76399550               87.05771137                0.36850003                0.17404201               -2.24937274               -0.75967839                1.25406433                0.37244063              -15.94276832
              19.76696415               10.19332017               90.88805190                1.00000000                0.00689620                0.07951513               -0.11920149               -0.00783337                0.02449760                0.72566607
              20.76703311                9.65029975               90.47994297                0.79240521               -0.00055772               -0.00961768                0.00809419               -0.00489013                0.04321584                0.00431093
              21.76695299                9.10731765               90.07257786                0.00010000               -0.58074757               -0.10301216                0.11491950               -0.21614639                0.22736962               -0.76909684
              22.75541816                8.55992864               89.66783241                0.00010000               -1.33237049               -0.41139256                1.10773519               -1.25436792               -0.09738592               -1.20144576
              23.74030559                8.01458372               89.25241129                0.00010000               -1.52164189               -0.60974487                1.32727597               -2.53436272               -1.63668448               -2.92277669
              24.72498532                7.46694303               88.82354668                0.00010000               -1.32145948               -0.89457706                0.83383860               -3.99126877               -3.36288401               -6.10707544
              25.71387640                6.91708608               88.38281281                0.00010000               -0.68224721               -1.32149679               -0.31259798               -5.00890381               -4.74621100              -10.68900965
              26.71134038                6.36588996               87.93451021                0.00010000                0.36985544               -1.87926037               -1.99804946               -5.21173564               -5.39858338              -16.29605596
              27.72127350                5.81456181               87.48509311                0.00010000                1.76450197               -2.51134732               -4.01007704               -4.32121962               -4.98242611              -22.26991745
              28.74663042                5.26503214               87.04272415                0.00010000                3.38033893               -3.10542017               -5.98255866               -2.37472548               -3.23337085              -27.68159324
              29.78888028                4.71657540               86.61548562                0.36869949                4.22498655               -3.21616228               -7.42863124                0.14439578               -1.04158621              -31.59651569
              20.31040441               11.19420992               90.75026901                1.00000000                0.00710727                0.08905544               -0.12980341               -0.00227918               -0.00171746                0.65859173
              21.31047548               10.65016742               90.33803725                0.76379807                0.00187510               -0.01813801                0.01810252               -0.00889409                0.00089530               -0.12488716
              22.31044191               10.10597055               89.92604518                0.00010000               -0.93884817               -0.13798532                0.14937158               -0.24012721                0.08870278               -0.94146924
              23.29169852                9.55737524               89.51537378                0.00010000               -2.23029830               -0.17678162                1.65182228               -1.00725205               -0.71694027               -1.29003902
              24.26583595                9.01025077               89.08428959                0.00010000               -2.56493086               -0.27600367                1.94403714               -1.95553736               -3.31534715               -2.85237941
              25.24039990                8.46075164               88.62823246                0.00010000               -2.16456959               -0.36289644                1.01457378               -3.09902959               -6.23555417               -5.70579064
              26.22254455                7.90815314               88.14931870                0.00010000               -1.07375119               -0.47777007               -1.01479359               -3.96303304               -8.60614262               -9.73471781
              27.21892488                7.35327679               87.65525458                0.00010000                0.60139474               -0.62951763               -3.91236845               -4.25481763               -9.69050318              -14.63034532
              28.23457245                6.79772686               87.15845762                0.00010000                2.61385852               -0.79312478               -7.29308457               -3.83496504               -8.85118399              -19.87141111
              29.27120205                6.24372933               86.67516936                0.00010000                4.38397526               -0.87956438              -10.56141466               -2.48757249               -5.53551489              -24.75325599
              30.32225195                5.69967226               86.22507040                0.36879482                5.10499055               -0.48471985              -12.85924292               -1.15224227               -2.28744568              -28.17975265
              20.85500356               12.19510128               90.61167961                1.00000000                0.00910432                0.08344509               -0.13272155               -0.00149889               -0.00832858                0.59725274
              21.85509460               11.64993699               90.19550442                0.78729950               -0.00304612               -0.02293552                0.02869574               -0.01061028               -0.02544216               -0.15859210
              22.85494263               11.10455794               89.77913122                0.00010000               -1.20508493               -0.13057039                0.19262354               -0.17219478               -0.04945749               -0.91994885
              23.83099290               10.55639301               89.36231849                0.00010000               -2.85620997               -0.05081928                2.03690547               -0.73102275               -1.21941160               -1.26527936
              24.79781843               10.00906365               88.91754750                0.00010000               -3.29452702                0.00449548                2.33209114               -1.43923270               -4.57867232               -2.62226571
              25.76510236                9.45968510               88.43877383                0.00010000               -2.78639230                0.12490000                1.03519554               -2.33398363               -8.31065882               -5.06448481
              26.74209059                8.90753068               87.92876172                0.00010000               -1.42160306                0.32572322               -1.69959211               -3.06412036              -11.32583506               -8.47932865
              27.73667030                8.35329961               87.39794404                0.00010000                0.60155369                0.59959537               -5.55374844               -3.40305830              -12.66464081              -12.61095918
              28.75412166                7.79869932               86.86338748                0.00010000                2.91316384                0.95104596              -10.01707461               -3.17370737              -11.48896585              -17.05718439
              29.79493358                7.24744085               86.34782329                0.00010000                4.99139651                1.42535411              -14.32760380               -2.13635514               -7.17241291              -21.22196046
              30.85394959                6.70688100               85.87795264                0.36922489                5.90160161                1.84161507              -17.44375552               -0.94752769               -3.12358120              -24.30428766
              21.40070302               13.19587882               90.47267796                1.00000000                0.01035954                0.07180792               -0.13613345               -0.00048397               -0.00901299                0.55830401
              22.40080661               12.64970871               90.05278269                0.81640486               -0.00805108               -0.02117500                0.03782053               -0.00806979               -0.02377514               -0.15787210
              23.40054199               12.10335914               89.63269386                0.00010000               -1.41171268               -0.10992579                0.21624139               -0.05958357               -0.11084636               -0.85776945
              24.37257236               11.55635885               89.21092831                0.00010000               -3.33913978                0.04250487                2.33176178               -0.42221504               -1.51743427               -1.17226113
              25.33375920               11.01034068               88.75535302                0.00010000               -3.86595787                0.23843258                2.61940613               -0.96874255               -5.42061244               -2.30085729
              26.29525320               10.46324964               88.25867776                0.00010000               -3.30557787                0.56067478                1.03262212               -1.66305442               -9.73620058               -4.28163137
              27.26764764                9.91466760               87.72424068                0.00010000               -1.77790639                1.04992408               -2.24735440               -2.24812812              -13.20875988               -7.01566293
              28.25969507                9.36526870               87.16465083                0.00010000                0.46547093                1.70490360               -6.84293470               -2.53652158              -14.72900726              -10.30428500
              29.27695706                8.81674778               86.60062285                0.00010000                3.02990957                2.49841979              -12.15596829               -2.36514458              -13.33634105              -13.82859961
              30.32029326                8.27223641               86.05955151                0.00010000                5.37320181                3.33829279              -17.31878473               -1.54772475               -8.30644270              -17.13331806
              31.38442110                7.73650456               85.57328328                0.36972677                6.41278320                3.97253339              -21.16780296               -0.70166792               -3.70471976              -19.62611937
              21.94733409               14.19653744               90.33343804                1.00000000                0.01187915                0.06142654               -0.14139215               -0.00015893               -0.00845375                0.52651190
              22.94745288               13.64951349               89.91005146                0.83833855               -0.01166355               -0.01780387                0.04371103               -0.00490729               -0.01780862               -0.14347341
              23.94710082               13.10235943               89.48654665                0.00010000               -1.59429092               -0.09307097                0.23221309                0.08349222               -0.03558724               -0.80506138
              24.91556706               12.55724311               89.06267119                0.00010000               -3.77740133                0.15160061                2.58619879               -0.09875907               -1.51319379               -1.03324079
              25.87155279               12.01383230               88.60006586                0.00010000               -4.40263587                0.46337982                2.89782114               -0.53820102               -5.85129720               -1.90619809
              26.82751435               11.47089860               88.09053930                0.00010000               -3.82219109                0.93856969                1.11585131               -1.07974125              -10.63686465               -3.38500524
              27.79510897               10.92852916               87.53795386                0.00010000               -2.18273302                1.64853645               -2.55895397               -1.51175138              -14.49206404               -5.39036983
              28.78385969               10.38739768               86.95668182                0.00010000                0.23710413                2.59414084               -7.70723599               -1.71389613              -16.19270231               -7.77673113
              29.79985105                9.84866771               86.37036274                0.00010000                3.01813104                3.70094940              -13.66635904               -1.57122019              -14.66653946              -10.30354335
              30.84422231                9.31420670               85.81010910                0.00010000                5.57644479                4.83214076              -19.48873220               -0.99834917               -9.12037624              -12.60210208
              31.91137995                8.78633167               85.31161532                0.36987300                6.71576428                5.77118394              -23.92180384               -0.46090199               -4.12589995              -14.23199302
              22.49474774               15.19710735               90.19400245                1.00000000                0.01387363                0.05463478               -0.14893595               -0.00009535               -0.00157992                0.48562481
              23.49488647               14.64935263               89.76741427                0.87401925               -0.01327593               -0.01489392                0.04547745               -0.00253718               -0.01282509               -0.12702316
              24.49448222               14.10149772               89.34064388                0.00010000               -1.78810859               -0.08174132                0.23986772                0.27749524                0.24292587               -0.67393693
              25.45912430               13.55939087               88.91900183                0.00010000               -4.25712662                0.32608078                2.85826857                0.26202550               -1.11145417               -0.82245668
              26.40933969               13.01960827               88.45376539                0.00010000               -5.00813930                0.70033602                3.26368971               -0.19840422               -5.87877819               -1.41516201
              27.35896152               12.48202104               87.93649755                0.00010000               -4.42130775                1.23028658                1.39559668               -0.61341577              -11.11923111               -2.38470758
              28.32091353               11.94763833               87.37142734                0.00010000               -2.68414601                2.08094116               -2.53738932               -0.89486619              -15.39180270               -3.64531745
              29.30527860               11.41715151               86.77449301                0.00010000               -0.10949505                3.21598176               -8.07757482               -1.01293661              -17.33603662               -5.13340992
              30.31872363               10.89076677               86.17185111                0.00010000                2.86918653                4.52670952              -14.50668648               -0.91550935              -15.75853046               -6.68164729
              31.36266233               10.36887923               85.59808991                0.00010000                5.61147484                5.85730992              -20.79858843               -0.56170933               -9.79626224               -7.96455880
              32.43095313                9.85192824               85.09236125                0.36998595                6.82908009                7.04478261              -25.61874192               -0.27684897               -4.49870336               -8.51797602
              23.04284161               16.19763013               90.05417188                1.00000000                0.01701533                0.05268553               -0.15960574               -0.00027468                0.03150610                0.37266979
              24.04301177               15.64921561               89.62484839                0.73046052               -0.01145608               -0.01341295                0.04380380               -0.00077879                0.08537039               -0.12798414
              25.04261249               15.10072460               89.19662842                0.00010000               -2.01573728               -0.07451006                0.23494781                0.57296877                0.81395653               -0.51421056
              26.00269702               14.56376472               88.78168208                0.00010000               -4.88289779                0.66502414                3.23574155                0.49048197               -0.26910057               -0.42598611
              26.94495454               14.02783902               88.31888529                0.00010000               -5.77405246                0.84660042                3.85681895               -0.00452304               -5.46002838               -0.83155776
              27.88721597               13.49550433               87.79837304                0.00010000               -5.14366835                1.38817713                1.99904079               -0.28621802              -11.31873934               -1.27890386
              28.84208117               12.97014798               87.22553761                0.00010000               -3.33717298                2.31228658               -2.08199413               -0.41204695              -16.14625390               -1.84465086
              29.82047251               12.45171731               86.61754001                0.00010000               -0.61340091                3.54996078               -7.89568618               -0.46898545              -18.47837982               -2.51691205
              30.82981315               11.93920190               86.00263478                0.00010000                2.56770711                4.97187845              -14.67112953               -0.43022704              -16.97815158               -3.21114943
              31.87182666               11.43135290               85.41896899                0.00010000                5.49659037                6.40724980              -21.29359409               -0.26248012              -10.59996434               -3.71619862
              32.93974496               10.92722732               84.91118755                0.37045911                6.79183038                7.70991297              -26.28457951               -0.15557810               -4.96961539               -3.39044804
              23.59157129               17.19816106               89.91268231                1.00000000                0.02051360                0.05309271               -0.17279049               -0.03470061                0.19180708                0.28097992
              24.59177643               16.64908437               89.48205911                0.80761148               -0.00894058               -0.01312335                0.03579728               -0.03121087                0.29467200               -0.13219584
              25.59139248               16.10000752               89.05350199                0.36137368               -2.49784539               -0.07170830                0.22471844                1.05834758                1.91343709               -0.45050958
              26.54181952               15.57269135               88.65502891                0.36108259               -5.69414314                0.89266269                3.95515180                0.73888800                1.60774841               -0.67543905
              27.47750962               15.03654028               88.19779078                0.36099555               -6.54456634                0.87012577                4.86001129                0.11016975               -4.68345672               -0.88360986
              28.41092819               14.50978458               87.67765834                0.36112372               -6.05250055                1.42802509                3.08044557                0.23841124              -11.45128307               -0.99371670
              29.35645961               13.99388406               87.10028340                0.36160635               -4.20416139                2.37360773               -1.09792569                0.35615131              -17.06682380               -1.07181548
              30.32684497               13.48815073               86.48405190                0.36278598               -1.29880529                3.64334163               -7.13103301                0.45325927              -19.97101532               -1.13601789
              31.33048350               12.99020434               85.85874551                0.36483217                2.12711710                5.10024347              -14.20028529                0.51070979              -18.79448329               -1.14997543
              32.36938731               12.49702423               85.26438053                0.36793795                5.28046140                6.56713234              -21.14256436                0.55217311              -12.19634351               -1.02528197
              33.43609273               12.00612649               84.75333894                0.68501195                6.67054211                7.88991743              -26.26532310                0.54500396               -6.29284371               -0.02852994
              18.53852673                7.33672904               92.30255641                1.00000000               -0.02264111                0.00534931                0.03578996               -0.00440274               -0.45643116                0.41332934
              19.53830032                6.79181534               91.90088261                1.00000000               -0.03324389               -0.02488306                0.10498500               -0.00640240               -0.62903516                0.06297609
              20.53786185                6.24683321               91.49587208                1.00000000               -0.05808828               -0.05611536                0.19888886               -0.00295128               -0.66994709               -0.04605704
              21.53713855                5.70197962               91.09294985                0.69446902               -0.11492702               -0.06525871                0.26134499               -0.00905901               -0.64192840               -0.25797711
              22.53556331                5.15698034               90.68781373                0.69185004               -0.17011124               -0.05960070                0.34465948               -0.01346333               -0.48490735               -0.11956921
              23.53373633                4.61182941               90.28693912                0.70533720               -0.16687806               -0.06136846                0.34075665               -0.01495026               -0.07965496               -0.08991867
              24.53222575                4.06644173               89.88928273                0.74483708               -0.12574238               -0.04149549                0.24665335               -0.02801274                0.20124226               -0.08490397
              25.53122148                3.52100421               89.49401535                0.82891501               -0.06943041                0.00326238                0.07867447               -0.02745274                0.34585988               -0.07932585
              26.53083714                2.97579093               89.09978471                1.00000000                0.01385672                0.05768833               -0.16153231               -0.01800118                0.27555759               -0.06765828
              27.53149861                2.43067539               88.70342914                1.00000000                0.10724475                0.12160226               -0.39816794               -0.02536654                0.11644115               -0.02084611
              28.53298203                1.88559114               88.30646427                1.00000000                0.14834222                0.19276092               -0.65172860               -0.03123790                0.03036268               -0.13340198
              19.08339639                8.33678253               92.16192955                1.00000000               -0.02121845                0.02528649                0.00777626               -0.01817995               -0.12530735                0.55974340
              20.08318421                7.79156651               91.76022863                1.00000000               -0.03230954               -0.01757182                0.07541592               -0.02101785               -0.19584864                0.09343537
              21.08275020                7.24627205               91.35744242                1.00000000               -0.06049073               -0.05490556                0.15496517               -0.00599414               -0.22172915               -0.13290375
              22.08197439                6.70132703               90.95527962                1.00000000               -0.11232108               -0.04975139                0.22460289               -0.00892869               -0.15944508               -0.18475552
              23.08050378                6.15638433               90.55359558                1.00000000               -0.15591324               -0.05283448                0.28742004               -0.00721923               -0.01299956               -0.06990702
              24.07885613                5.61121572               90.15452115                1.00000000               -0.15727806               -0.05208691                0.28765902               -0.00713310                0.23150394               -0.04566249
              25.07735822                5.06602678               89.75796722                1.00000000               -0.12918871               -0.03254959                0.21568849               -0.00571824                0.44523608               -0.03631017
              26.07627235                4.52103684               89.36353802                1.00000000               -0.07683408                0.00840809                0.06884049                0.00111553                0.58077305               -0.03700002
              27.07582154                3.97636781               88.97025246                1.00000000                0.00362433                0.06029149               -0.14748927                0.01263768                0.53167714               -0.06056628
              28.07634484                3.43189142               88.57543210                1.00000000                0.09661868                0.12178890               -0.38627059                0.01019765                0.32097268               -0.03776285
              29.07775391                2.88751875               88.17848577                1.00000000                0.14090700                0.18900309               -0.61899053                0.00680593                0.16701287               -0.17866897
              19.62859516                9.33723477               92.02447867                1.00000000               -0.02047233                0.06421319               -0.03284454               -0.01513302               -0.04333127                0.72920019
              20.62839044                8.79146391               91.62030163                1.00000000               -0.03068537               -0.00654179                0.04166172               -0.00811755               -0.00534213                0.11555084
              21.62798145                8.24573510               91.21735703                0.00010000               -0.07713707               -0.07243979                0.11799455                0.06803681                0.25312458               -0.40578710
              22.62684769                7.70098459               90.81875671                0.00010000               -0.12256113               -0.07549592                0.18544359               -0.34803706                0.38433115               -0.14832526
              23.62553023                7.15592365               90.41979064                0.00010000               -0.14482367               -0.16065232                0.23089018               -1.19941096                0.36987178               -0.87162264
              24.62395122                6.61078767               90.02217188                0.00010000               -0.16199794               -0.43389473                0.23808386               -2.10291385                0.49071665               -2.76125435
              25.62229027                6.06579074               89.62671227                0.00010000               -0.15242324               -0.88854736                0.18436464               -2.75828908                0.66248371               -5.71431729
              26.62090276                5.52117237               89.23326511                0.00010000               -0.10274792               -1.49303338                0.05683448               -2.89191017                0.79501484               -9.46220213
              27.62023531                4.97699676               88.84078073                0.00010000               -0.01755651               -2.20202186               -0.13810884               -2.25911077                0.80776178              -13.54827011
              28.62055163                4.43311117               88.44772330                0.00010000                0.08140886               -2.90411210               -0.37660771               -0.62849200                0.57671475              -17.24000885
              29.62186349                3.88937120               88.05096383                0.36582867                0.13118631               -3.77202668               -0.59293981                2.25135274                0.35423852              -19.80026603
              20.17463545               10.33806679               91.88714979                1.00000000               -0.01139202                0.09106418               -0.06473879                0.00110521                0.01653398                0.71798106
              21.17452153                9.79143568               91.48004761                0.83432274               -0.00225951               -0.00917214                0.01348250                0.01104866                0.02626289                0.02242096
              22.17459026                9.24482326               91.07348136                0.00010000               -0.48482165               -0.11348485                0.07099016                0.11531234                0.77385805               -0.73138199
              23.16482509                8.69981711               90.68106319                0.00010000               -1.39388898               -0.11439670                1.61350344               -0.61547845                0.83069669                0.00040498
              24.14671248                8.15317129               90.26870322                0.00010000               -1.89471660               -0.25329173                2.03387218               -2.24439537               -1.47399545               -1.49491184
              25.12693076                7.60253783               89.83457276                0.00010000               -1.74523726               -0.67286261                1.47982011               -4.05826598               -3.92599475               -5.23837055
              26.11180773                7.04825583               89.38105207                0.00010000               -0.98513139               -1.38066965                0.05775514               -5.41010233               -5.95539679              -11.05070308
              27.10722814                6.49117617               88.91375849                0.00010000                0.34463951               -2.34224277               -2.09276490               -5.83140093               -7.09124026              -18.40958788
              28.11870052                5.93232737               88.44143389                0.00010000                2.20862103               -3.48698137               -4.74105698               -4.90890056               -6.82251711              -26.45806613
              29.15140056                5.37380917               87.97617264                0.00010000                4.57801921               -4.71836905               -7.46833660               -2.68001269               -4.61173331              -33.98028062
              30.21026091                4.81207822               87.53166127                0.36628822                5.88603518               -5.52376117               -9.61878714                0.55588330               -1.61270149              -39.76561784
              20.72187949               11.33905605               91.74920561                1.00000000               -0.00245482                0.09360080               -0.08503312                0.00527354               -0.00293104                0.66071659
              21.72185495               10.79128047               91.33818741                0.80966045                0.00133865               -0.01598978                0.01427027                0.00985845               -0.00555765               -0.08843055
              22.72190627               10.24346540               90.92730084                0.00010000               -0.78324257               -0.13065701                0.10646837                0.15250965                0.96384151               -0.86276659
              23.70619009                9.69869665               90.53552971                0.00010000               -2.19923318               -0.12908246                2.49967738               -0.32840954                0.74996181               -0.34153260
              24.67792160                9.15085782               90.10890516                0.00010000               -2.92443673               -0.22302206                3.14340836               -1.57650441               -2.99945362               -1.75047280
              25.64770136                8.59733042               89.64303311                0.00010000               -2.62358592               -0.39280450                2.11221728               -2.96987520               -7.07772991               -5.11933979
              26.62544989                8.03817735               89.14151801                0.00010000               -1.37490820               -0.65632400               -0.40560174               -4.04707763              -10.46745187              -10.22282131
              27.62020320                7.47432752               88.61461962                0.00010000                0.69872048               -1.01339753               -4.14214326               -4.50769135              -12.27423216              -16.63388431
              28.63942429                6.90725713               88.07892618                0.00010000                3.34986670               -1.44049645               -8.67169657               -4.19354988              -11.59114871              -23.69388589
              29.68720053                6.33874379               87.55721045                0.00010000                5.85093902               -1.84290404              -13.29277855               -2.81371345               -7.45354355              -30.54859839
              30.75644308                5.77889598               87.07897968                0.36649219                6.92425450               -1.57440184              -16.86953869               -1.36771863               -3.17670512              -35.82540120
              21.27029209               12.33993881               91.61054338                1.00000000                0.00172607                0.07955186               -0.09558619                0.00587604               -0.00843019                0.60384643
              22.27030935               11.79111588               91.19574529                0.82760721               -0.00339127               -0.01485561                0.02180723                0.00554406               -0.02295608               -0.12146438
              23.27022426               11.24221012               90.78079939                0.00010000               -0.97224319               -0.11114766                0.14488223                0.18495099                1.05072385               -0.84953068
              24.25086448               10.69723546               90.38735884                0.00010000               -2.68378180               -0.17455055                3.11757583               -0.09499427                0.62816193               -0.52662957
              25.21654863               10.14871085               89.94748049                0.00010000               -3.53253779               -0.21022665                3.85194017               -1.05104333               -4.13114301               -1.81399107
              26.18021373                9.59468174               89.45501543                0.00010000               -3.13397733               -0.14188348                2.40894288               -2.11872991               -9.26191257               -4.71774955
              27.15386908                9.03512935               88.91458576                0.00010000               -1.61096011                0.03551227               -0.98003758               -2.99248898              -13.49483829               -9.04400318
              28.14799453                8.47090822               88.34008934                0.00010000                0.82720866                0.30951982               -5.95285553               -3.48617254              -15.67353087              -14.45615791
              29.17041325                7.90351744               87.75408075                0.00010000                3.77464554                0.68107689              -11.94954547               -3.41364481              -14.64797664              -20.47527989
              30.22348744                7.33695109               87.18766806                0.00010000                6.60944543                1.23146387              -18.07438282               -2.43527865               -9.36725237              -26.40444546
              31.30260216                6.78059018               86.67933754                0.36701954                7.91147240                1.76893543              -22.99654137               -1.12299196               -4.16008630              -31.28301419
              21.81964287               13.34064709               91.47148371                1.00000000                0.00516513                0.06308951               -0.10326091                0.00480638               -0.00876293                0.56465776
              22.81969452               12.79098335               91.05310743                0.84912515               -0.00785799               -0.01192282                0.02926748                0.00423551               -0.02080876               -0.12518704
              23.81948571               12.24124245               90.63459069                0.00010000               -1.09525204               -0.08591956                0.16742381                0.17529662                1.15545576               -0.80284598
              24.79778948               11.69520564               90.23963795                0.00010000               -3.00156249               -0.22072308                3.56939360                0.01588945                0.63041333               -0.65488833
              25.75945446               11.14665328               89.78913223                0.00010000               -3.94406101               -0.19086109                4.34801741               -0.67415216               -4.83929872               -1.78424497
              26.71890826               10.59449275               89.27568667                0.00010000               -3.50404161                0.10228418                2.57400075               -1.44435147              -10.69562134               -4.15994379
              27.68937363               10.03888759               88.70480073                0.00010000               -1.84083033                0.68515547               -1.48580324               -2.10194653              -15.49682605               -7.62424097
              28.68209165                9.48051791               88.09316317                0.00010000                0.78674476                1.53369834               -7.40763108               -2.50930831              -17.92531187              -11.93566109
              29.70510852                8.92087867               87.46788972                0.00010000                3.96652851                2.60782908              -14.54163138               -2.48621530              -16.69692963              -16.73337544
              30.76142222                8.36337307               86.86585783                0.00010000                7.07982727                3.80058014              -21.88444095               -1.73515383              -10.63783400              -21.50312895
              31.84670507                7.81427469               86.33200633                0.36718177                8.52828452                4.79736712              -27.97555231               -0.83023416               -4.81532400              -25.53691939
              22.36971568               14.34120060               91.33217728                1.00000000                0.00830177                0.05033141               -0.11102776                0.00316991               -0.00773692                0.53108409
              23.36979870               13.79087743               90.91042999                0.86025765               -0.01038892               -0.00983378                0.03383780                0.00326692               -0.01498098               -0.11743397
              24.36950791               13.24049173               90.48860776                0.00010000               -1.20136334               -0.06918709                0.18334243                0.13001612                1.37009476               -0.76157298
              25.34577143               12.69282100               90.09444762                0.00010000               -3.28647135               -0.23218127                3.93232125                0.02319108                0.89884887               -0.73807811
              26.30377848               12.14489363               89.63734531                0.00010000               -4.33395216               -0.14528638                4.77209850               -0.41686922               -5.11605925               -1.67181931
              27.25909239               11.59672742               89.10898575                0.00010000               -3.89867479                0.33327981                2.77684914               -0.90003767              -11.53787318               -3.46035506
              28.22580498               11.04883246               88.51560281                0.00010000               -2.16375522                1.24795497               -1.76404528               -1.32202954              -16.80309258               -5.99589545
              29.21581729               10.50158218               87.87607576                0.00010000                0.60144055                2.54914237               -8.38540756               -1.59606764              -19.47375538               -9.11945707
              30.23783379                9.95567402               87.22110187                0.00010000                3.97855271                4.13109304              -16.37448153               -1.57188045              -18.13772582              -12.57329878
              31.29538834                9.41296270               86.59209832                0.00010000                7.31802248                5.82415919              -24.64905488               -1.07642578              -11.53251907              -15.94105933
              32.38419424                8.87653752               86.03879673                0.36746032                8.88059018                7.34308583              -31.65384289               -0.53535278               -5.28111149              -18.69460254
              22.92035261               15.34165372               91.19265582                1.00000000                0.01161187                0.04353958               -0.12065054                0.00106480               -0.00081309                0.48744793
              23.92046873               14.79078668               90.76780016                0.88641872               -0.01050778               -0.00850235                0.03353725                0.00161419               -0.01145084               -0.10805500
              24.92014246               14.23985870               90.34277719                0.00010000               -1.33086657               -0.06040354                0.19017871                0.07923973                1.79736529               -0.64521671
              25.89385140               13.69056202               89.95395306                0.00010000               -3.64659033               -0.19148847                4.29468774               -0.01644038                1.59239171               -0.72046379
              26.84721065               13.14374756               89.49539195                0.00010000               -4.84413649               -0.08661473                5.27403821               -0.24978947               -4.93925879               -1.40931968
              27.79696867               12.60115834               88.95843536                0.00010000               -4.45661887                0.52162541                3.19264287               -0.47267713              -11.90723701               -2.59103784
              28.75807827               12.06384669               88.34975532                0.00010000               -2.68199685                1.67455022               -1.65518517               -0.68146313              -17.69383002               -4.16750137
              29.74332873               11.53150076               87.69019846                0.00010000                0.21060632                3.28046729               -8.76374741               -0.83974849              -20.69137229               -6.10166044
              30.76229040               11.00350053               87.01355127                0.00010000                3.78507383                5.19477265              -17.36413899               -0.83563209              -19.34110255               -8.21987866
              31.81903021               10.47985625               86.36552202                0.00010000                7.32789818                7.22594714              -26.29297448               -0.56063276              -12.28954484              -10.14247327
              32.90884836                9.96113640               85.80016962                0.36764248                8.98181533                9.15924878              -33.90621424               -0.31634647               -5.70331490              -11.29769093
              23.47147106               16.34207139               91.05270939                1.00000000                0.01549422                0.04299722               -0.13315409               -0.00068200                0.03221240                0.37161431
              24.47162600               15.79070738               90.62519425                0.73394172               -0.00768476               -0.00737959                0.02738525                0.00032553                0.08153732               -0.11614267
              25.47131736               15.23928365               90.19869859                0.00010000               -1.50361122               -0.05516494                0.18300086                0.05609127                2.58109956               -0.49736303
              26.44155377               14.68899123               89.82100671                0.00010000               -4.15654990               -0.14314300                4.79430813               -0.00026193                2.85176227               -0.40208643
              27.38818636               14.14316133               89.36744838                0.00010000               -5.60070297               -0.07282078                6.07477402               -0.12608566               -4.18940624               -0.95296093
              28.32953971               13.60715993               88.82746502                0.00010000               -5.31765302                0.62674186                4.02745969               -0.17569362              -11.96692872               -1.48243992
              29.28183330               13.08232346               88.20944310                0.00010000               -3.50856159                1.91261083               -0.98806663               -0.24446471              -18.48233438               -2.16985743
              30.25936848               12.56719153               87.53581068                0.00010000               -0.45338201                3.67823617               -8.42761494               -0.32736783              -22.00091690               -3.03051977
              31.27276566               12.05956948               86.84301392                0.00010000                3.35856643                5.76761432              -17.46377806               -0.35119359              -20.78685751               -3.97791502
              32.32653981               11.55748164               86.18125888                0.00010000                7.12706755                7.97339899              -26.83603980               -0.23957325              -13.25377953               -4.75752998
              33.41530701               11.05972250               85.61163363                0.36762774                8.87672021               10.12147527              -34.73946967               -0.19317807               -6.27116298               -4.55233974
              24.02306700               17.34251366               90.91107992                1.00000000                0.01959816                0.04422686               -0.14752769               -0.02786313                0.19014229                0.27868466
              25.02326298               16.79063909               90.48230449                0.80870122               -0.00432826               -0.00682935                0.01550304               -0.02421455                0.28551017               -0.12483563
              26.02298043               16.23875540               90.05545904                0.36161921               -1.66472465               -0.05282504                0.17118574                0.01931085                4.10493387               -0.43847116
              26.98996849               15.68769916               89.70287766                0.36081783               -4.82300976               -0.12920727                5.80938972                0.01825822                5.69784394               -1.02934102
              27.92652024               15.14229114               89.25820633                0.36100341               -6.78379105               -0.08701893                7.47792491                0.13308876               -2.96444382               -1.28330695
              28.85429267               14.61369318               88.71955264                0.36079116               -6.66814284                0.65332506                5.54160646                0.46568358              -12.03029618               -1.37859537
              29.79315738               14.10209891               88.09594890                0.36148943               -4.73786509                1.97754447                0.41258177                0.70102313              -19.61492184               -1.43553082
              30.75953536               13.60506549               87.41168212                0.36195324               -1.40904807                3.78739555               -7.28895112                0.85438346              -23.88987132               -1.49498331
              31.76497642               13.11885281               86.70525829                0.36319424                2.72751818                5.92833360              -16.67732599                0.93401313              -23.10707903               -1.51153395
              32.81408573               12.63932423               86.02927104                0.36564695                6.77633351                8.18425926              -26.43853964                0.99024646              -15.30809135               -1.37198519
              33.90050309               12.16356591               85.45483809                0.68389725                8.64173621               10.38434122              -34.52496537                0.94377534               -7.98363819               -0.11768104
              18.93547589                7.48152281               93.30322248                1.00000000               -0.02551413               -0.00500844                0.08863362               -0.01692617               -0.42106558                0.39152168
              19.93522075                6.93323788               92.90201368                1.00000000               -0.02198763               -0.03046936                0.11663252               -0.02156282               -0.57497681                0.06020452
              20.93503614                6.38504844               92.49775821                0.97666963               -0.02723285               -0.06173706                0.18026588               -0.01341988               -0.61987279               -0.04421217
              21.93467610                5.83740866               92.09518587                0.70162671               -0.06510676               -0.05367892                0.19741191                0.01551496               -0.59025962               -0.22545777
              22.93373401                5.29039203               91.69080697                0.70889521               -0.11577309               -0.03795717                0.26017735                0.01628623               -0.44180499               -0.10032758
              23.93236063                4.74373037               91.28978969                0.72978224               -0.13428621               -0.03055476                0.24085404                0.01852504               -0.09707041               -0.06853302
              24.93104828                4.19720870               90.89122975                0.77177469               -0.11431147               -0.00797767                0.15621766                0.01443355                0.14780927               -0.05890472
              25.93007440                3.65084463               90.49449460                0.84807911               -0.06351452                0.02309688                0.02405960                0.01127140                0.27440427               -0.06169831
              26.92977799                3.10460526               90.09817388                1.00000000                0.00965835                0.05704073               -0.14616313               -0.00071735                0.21132062               -0.05375021
              27.93026757                2.55838457               89.69999802                1.00000000                0.07516392                0.09363137               -0.29351873               -0.01312087                0.07194034               -0.02091574
              28.93128127                2.01216831               89.30118570                1.00000000                0.10136985                0.13215974               -0.43960884               -0.01500780                0.00067999               -0.12489115
              19.48359157                8.48147273               93.16231481                1.00000000               -0.03492563                0.02302812                0.06120591               -0.02736459               -0.10899678                0.53498191
              20.48324231                7.93293318               92.76106594                1.00000000               -0.03875095               -0.01930360                0.08858974               -0.03384220               -0.16669809                0.08893685
              21.48281655                7.38443107               92.35889133                1.00000000               -0.05414322               -0.05861646                0.13515174               -0.00481529               -0.18417189               -0.12993903
              22.48215945                6.83687187               91.95724222                1.00000000               -0.10402663               -0.02778246                0.17239315                0.01051312               -0.11856925               -0.16055937
              23.48073602                6.29001246               91.55610806                1.00000000               -0.15109481               -0.02432328                0.21702738                0.01693967                0.01876317               -0.06377777
              24.47913755                5.74342482               91.15696551                1.00000000               -0.15502642               -0.01819406                0.20511340                0.01880817                0.22640539               -0.03955677
              25.47763549                5.19712892               90.75971229                1.00000000               -0.13243559                0.00015893                0.13903172                0.02142481                0.40604859               -0.03034713
              26.47648884                4.65107559               90.36397664                1.00000000               -0.08173206                0.02764279                0.02161328                0.02197468                0.51296250               -0.03785271
              27.47600085                4.10517566               89.96878630                1.00000000               -0.00670023                0.06008623               -0.13946165                0.01516789                0.46287064               -0.05543040
              28.47635484                3.55932088               89.57204717                1.00000000                0.06733000                0.09562257               -0.29609660                0.00540027                0.27239914               -0.03558659
              29.47734745                3.01348991               89.17333117                1.00000000                0.09926120                0.13231849               -0.43485777                0.00555250                0.13746374               -0.15886636
              20.03200769                9.48198338               93.02444116                1.00000000               -0.04221227                0.07400624                0.01843289               -0.01777610               -0.03562328                0.70294026
              21.03158557                8.93285181               92.62078110                1.00000000               -0.05032741               -0.00353980                0.05229262               -0.00613896                0.00976338                0.10995333
              22.03100115                8.38387611               92.21841610                0.00010000               -0.11403031               -0.08424345                0.09437624                0.12996217                0.27821021               -0.40951630
              23.02930496                7.83685301               91.82041996                0.00010000               -0.17406449                0.31459337                0.14478645                0.03401231                0.41941119                0.74988326
              24.02751986                7.28990557               91.42182813                0.00010000               -0.18423136                0.27792514                0.17393744               -0.84532243                0.40296872                0.26487486
              25.02562034                6.74336649               91.02424444                0.00010000               -0.18469256               -0.10552137                0.17349069               -1.88573303                0.51232869               -1.92199124
              26.02382600                6.19721188               90.62825884                0.00010000               -0.15765900               -0.79313254                0.12328728               -2.70108804                0.65649735               -5.64258001
              27.02246716                5.65139748               90.23364146                0.00010000               -0.09949703               -1.73659496                0.01813315               -2.93799935                0.75387232              -10.54660305
              28.02183606                5.10580698               89.83945125                0.00010000               -0.02029126               -2.89603110               -0.13158858               -2.23461490                0.73524499              -16.04708961
              29.02206133                4.56029702               89.44434555                0.00010000                0.06091000               -4.16907550               -0.30339360               -0.15893812                0.51172635              -21.21101918
              30.02305426                4.01481468               89.04585258                0.36381817                0.09929314               -6.01213556               -0.43896808                3.86684392                0.31236843              -24.95119933
              20.58149919               10.48295285               92.88675713                1.00000000               -0.02723878                0.10236437               -0.01908275                0.00967838                0.01319839                0.70056712
              21.58122680                9.93286239               92.48021262                0.87962141               -0.00423019               -0.00753380                0.01927187                0.02384379                0.01559742                0.03377367
              22.58141458                9.38274620               92.07399766                0.00010000               -0.22082823               -0.12394630                0.03759232                0.58383254                1.65846376               -0.69859871
              23.57681024                8.84316374               91.70010248                0.00010000               -1.20492435                0.36979577                2.27356682                0.43066186                2.40930933                1.82650841
              24.55731610                8.29557096               91.29308873                0.00010000               -2.13468271                0.32792373                2.94505838               -1.55128654               -0.86620493                0.77681732
              25.53411658                7.74131439               90.85314308                0.00010000               -2.08666822               -0.27221544                2.34299352               -3.68462908               -4.18567859               -3.57555762
              26.51558273                7.18126627               90.38396791                0.00010000               -1.24914160               -1.35244309                0.63643965               -5.35938467               -7.00782377              -10.89064509
              27.50913375                6.61634370               89.89265491                0.00010000                0.34131397               -2.85646130               -2.03621301               -6.02231591               -8.82756771              -20.49600726
              28.52240901                6.04725504               89.39027197                0.00010000                2.75173117               -4.73023494               -5.47394886               -5.10408744               -8.93471350              -31.35208326
              29.56416837                5.47593937               88.89335742                0.00010000                6.16199938               -6.95175369               -9.23160546               -2.69957475               -6.35858864              -41.93412478
              30.64564900                4.89324720               88.42310988                0.36407128                8.14806270               -8.96633593              -12.44616826                1.33703978               -2.37995572              -50.83834100
              21.13238219               11.48403066               92.74856835                1.00000000               -0.01130917                0.09736295               -0.04609262                0.01364307               -0.00278809                0.65282395
              22.13226910               10.93270113               92.33832265                0.85433039               -0.00028759               -0.01373539                0.01414213                0.02595898               -0.00595816               -0.05690317
              23.13237644               10.38139718               91.92817455                0.00010000               -0.35878331               -0.12343580                0.07274262                0.72383893                2.37047328               -0.78294888
              24.12509344                9.84424893               91.56536733                0.00010000               -1.70164836               -0.07057817                3.58842646                0.75658347                3.25934071                1.08619434
              25.09834347                9.29646404               91.14715776                0.00010000               -2.94304935               -0.15071026                4.66104337               -0.80519343               -1.90220803               -0.00071643
              26.06623245                8.73792218               90.67047681                0.00010000               -2.83672333               -0.43189199                3.53583613               -2.38293861               -7.32301635               -3.93783795
              27.04160901                8.17016302               90.14120667                0.00010000               -1.51001900               -0.89491856                0.49903519               -3.60583693              -11.92313698              -10.34259391
              28.03603207                7.59426826               89.57241172                0.00010000                0.92748154               -1.53553977               -4.18166424               -4.21948966              -14.71884824              -18.67429211
              29.06015864                7.01120228               88.98502369                0.00010000                4.30228061               -2.35124323              -10.11656380               -4.09159570              -14.49047295              -28.16570329
              30.12207768                6.42126195               88.40931378                0.00010000                7.75103828               -3.26174056              -16.54949613               -2.87754739               -9.63326382              -37.86560933
              31.21517940                5.83548796               87.88767963                0.36444185                9.31017235               -3.25265707              -22.02120891               -1.48940239               -4.21432534              -46.19827282
              21.68443112               12.48490011               92.60976788                1.00000000               -0.00516574                0.07537015               -0.06184738                0.01366263               -0.00730859                0.60317373
              22.68437946               11.93258768               92.19594056                0.86401690               -0.00437777               -0.00904270                0.01883051                0.01958614               -0.01783625               -0.08677302
              23.68434356               11.38027748               91.78202886                0.00010000               -0.37522074               -0.09516624                0.10561795                0.69543234                2.80998321               -0.77906089
              24.67687505               10.84175218               91.42467000                0.00010000               -1.84022906               -0.40383106                4.48389952                0.89124623                3.79297802                0.56106351
              25.64753898               10.29255676               90.99458630                0.00010000               -3.20581048               -0.58365431                5.74103575               -0.32472977               -2.65282276               -0.54690498
              26.61275884                9.73267655               90.48695269                0.00010000               -3.02095324               -0.59208612                4.14883839               -1.48745174               -9.35980400               -3.96631659
              27.58711992                9.16336790               89.90916097                0.00010000               -1.45270731               -0.44986398                0.05369920               -2.42090199              -14.99698707               -9.38893315
              28.58370469                8.58563290               89.27888693                0.00010000                1.32317461               -0.18496015               -6.18144539               -3.05349757              -18.29626627              -16.40714105
              29.61358341                8.00023018               88.62439657                0.00010000                4.93135276                0.19284359              -14.04072948               -3.23815886              -17.75221128              -24.51021356
              30.68233174                7.41070456               87.98633563                0.00010000                8.69127536                0.82408146              -22.57010496               -2.53469150              -11.68693680              -32.96461140
              31.78740892                6.82819406               87.41802182                0.36445128               10.50771710                1.54095058              -30.14117802               -1.21914009               -5.27662386              -40.72274102
              22.23728031               13.48553807               92.47061274                1.00000000                0.00031428                0.05434448               -0.07250544                0.01036209               -0.00733954                0.56673309
              23.23728345               12.93252028               92.05336804                0.87516420               -0.00798612               -0.00578046                0.02441672                0.01495612               -0.01581834               -0.09467854
              24.23712059               12.37949386               91.63604234                0.00010000               -0.33221858               -0.06680091                0.12717716                0.48967770                3.16444677               -0.74728169
              25.23063908               11.83617231               91.28231618                0.00010000               -1.80980422               -0.67928717                5.10947472                0.66142708                4.28050838                0.07951458
              26.20092451               11.28479096               90.84231337                0.00010000               -3.24834052               -0.92102809                6.45789308               -0.14686770               -3.04641489               -0.99467599
              27.16567227               10.72608046               90.31015778                0.00010000               -3.03449423               -0.68668730                4.48104000               -0.89423360              -10.59849414               -3.81614983
              28.14023462               10.16116574               89.69452461                0.00010000               -1.37862162                0.01443795               -0.42721556               -1.53371084              -16.89286965               -8.15110357
              29.13809984                9.59056905               89.01649820                0.00010000                1.50445902                1.11701713               -7.84605536               -2.04628795              -20.50973646              -13.73418741
              30.17032380                9.01505915               88.30979022                0.00010000                5.26600654                2.56550085              -17.18117663               -2.26674537              -19.81343020              -20.20688012
              31.24341997                8.43774357               87.62186269                0.00010000                9.27469034                4.25083827              -27.39044676               -1.76034290              -12.98339873              -27.05310883
              32.35581761                7.86630697               87.01377224                0.36488590               11.23976368                5.80411371              -36.73403261               -0.89606055               -5.95538569              -33.48709008
              22.79067394               14.48598700               92.33121748                1.00000000                0.00488491                0.03930666               -0.08211986                0.00663071               -0.00575614                0.53302638
              23.79072279               13.93247207               91.91072821                0.87421490               -0.00944293               -0.00465009                0.02731070                0.01035477               -0.01017321               -0.09392480
              24.79048508               13.37894146               91.49021350                0.00010000               -0.29581508               -0.04956523                0.14182868                0.14252044                3.57449018               -0.71921870
              25.78480649               12.82816644               91.14131762                0.00010000               -1.78958011               -0.88749050                5.57952494                0.14565157                4.94028870               -0.35262344
              26.75469348               12.27413620               90.69550783                0.00010000               -3.31535526               -1.17360749                7.01752818               -0.20379618               -3.03493653               -1.33792447
              27.71849938               11.71894281               90.14607628                0.00010000               -3.13681893               -0.71797248                4.78435114               -0.48492048              -11.22482992               -3.47531473
              28.69195710               11.16365666               89.50267295                0.00010000               -1.48069358                0.46411336               -0.70109730               -0.79651793              -18.04715936               -6.63254598
              29.68888551               10.60797324               88.78897367                0.00010000                1.45584384                2.24071695               -8.98281438               -1.12805509              -21.97192620              -10.66220269
              30.72107398               10.05154019               88.04287311                0.00010000                5.34957772                4.46989964              -19.41490816               -1.29988507              -21.22753389              -15.32713297
              31.79587707                9.49572133               87.31712800                0.00010000                9.56434623                6.95628169              -30.89123847               -1.02153797              -13.88439928              -20.20088263
              32.91236090                8.94427633               86.67853846                0.36491424               11.64838372                9.34152715              -41.58508419               -0.55579810               -6.43236643              -24.68590523
              23.34444279               15.48632420               92.19158944                1.00000000                0.00932981                0.03256597               -0.09360992                0.00241762                0.00155074                0.48758377
              24.34453609               14.93242727               91.76808502                0.88819650               -0.00830782               -0.00418188                0.02489745                0.00544404               -0.00727892               -0.09290495
              25.34427663               14.37850255               91.34444745                0.00010000               -0.30893535               -0.04229860                0.14777333               -0.30339184                4.19659376               -0.61885574
              26.33835738               13.81842250               91.00489559                0.00010000               -1.91022115               -1.06840235                6.02179653               -0.55038803                6.03070015               -0.63467935
              27.30607221               13.26131881               90.55924616                0.00010000               -3.59519900               -1.40853902                7.63856068               -0.33434366               -2.53765656               -1.44000834
              28.26645340               12.71172101               90.00035040                0.00010000               -3.53991921               -0.71022798                5.31658164               -0.17437574              -11.35150982               -2.85580153
              29.23527383               12.17044800               89.33832364                0.00010000               -1.93990988                0.84503000               -0.52726585               -0.21029456              -18.80029530               -4.78802635
              30.22765520               11.63538339               88.59921807                0.00010000                1.06520953                3.08250070               -9.39812860               -0.39965052              -23.14897806               -7.26004692
              31.25657802               11.10445715               87.82456833                0.00010000                5.12989358                5.81981905              -20.59963931               -0.54801804              -22.45632525              -10.11776133
              32.33025308               10.57686921               87.07223042                0.00010000                9.55068084                8.83659789              -32.94974986               -0.45326696              -14.67813611              -12.94507830
              33.44759163               10.05313752               86.41423697                0.36549164               11.73385586               11.86178622              -44.53428061               -0.31260427               -6.88427189              -15.06719244
              23.89851615               16.48663832               92.05150879                1.00000000                0.01371713                0.03347494               -0.10778613               -0.00087824                0.03320275                0.37017187
              24.89865332               15.93238843               91.62539609                0.72800610               -0.00470626               -0.00300429                0.01473197                0.00142968                0.08168171               -0.10878071
              25.89842202               15.37809549               91.20028844                0.00010000               -0.38354210               -0.03926812                0.13915350               -0.84743470                5.25856116               -0.48367898
              26.89098248               14.80679839               90.87756824                0.00010000               -2.18569601               -1.50299343                6.63928259               -0.87291745                7.84044986               -0.42650361
              27.85470810               14.24596542               90.44038077                0.00010000               -4.25499018               -1.59802861                8.64687793               -0.32932948               -1.31634991               -1.17033028
              28.80588267               13.70473825               89.87892223                0.00010000               -4.53096379               -0.68417839                6.38382480                0.03590738              -11.16610937               -1.77585609
              29.76408883               13.18055726               89.20577628                0.00010000               -2.94996572                1.08569292                0.35387301                0.08214350              -19.54564924               -2.58669612
              30.74688336               12.66962326               88.44898771                0.00010000                0.22694882                3.55623922               -8.90524469               -0.02688737              -24.57300996               -3.66770109
              31.76862780               12.16793658               87.65335922                0.00010000                4.56239995                6.55138822              -20.63602160               -0.14974949              -24.09819734               -4.94189668
              32.83813136               11.67245328               86.88224819                0.00010000                9.24721986                9.83454921              -33.55612773               -0.15159548              -15.79013842               -6.11488645
              33.95357220               11.18151206               86.21639816                0.36504164               11.54408418               13.21132155              -45.57997240               -0.20941092               -7.54363546               -6.18156457
              24.45292500               17.48699370               91.90973175                1.00000000                0.01825082                0.03553767               -0.12251522               -0.02176542                0.18758961                0.27693713
              25.45310751               16.93236719               91.48236917                0.80445030               -0.00035093               -0.00212453               -0.00027222               -0.01840601                0.28206591               -0.12167415
              26.45291798               16.37771719               91.05692570                0.36099417               -0.00392020               -0.03783011                0.12662252               -1.75063156                7.37388967               -0.43072775
              27.45302911               15.78836263               90.77121670                0.36059514               -2.56861109               -1.84357582                8.00540997               -1.21328469               12.01162615               -1.57648324
              28.40154576               15.22935823               90.34734928                0.36061779               -6.02247004               -1.66071831               10.51179237                0.16750655                0.50610112               -1.87643694
              29.33257971               14.69803744               89.78849047                0.36099810               -6.47570378               -0.67008090                8.38702416                0.80988481              -11.12110780               -1.93123008
              30.27203169               14.19216186               89.10853504                0.36102046               -4.64207831                1.16046021                2.22254887                1.21782309              -20.90462183               -1.94665445
              31.23973814               13.70650818               88.33827288                0.36143514               -1.06393432                3.68849196               -7.34002651                1.45163076              -26.89486386               -1.99805396
              32.25075300               13.23548491               87.52519899                0.36227361                3.69537726                6.75483364              -19.47786117                1.56512073              -26.97304842               -2.02795664
              33.31364569               12.77356019               86.73560974                0.36377988                8.72664347               10.11069095              -32.85634017                1.64538472              -18.35422908               -1.89238464
              34.42528587               12.31736395               86.06283963                0.68271816               11.16401844               13.58518934              -45.12292053                1.55174279               -9.69145784               -0.37717908
              19.33252302                7.62637482               94.30432908                1.00000000               -0.02579759               -0.01113313                0.12413657               -0.02687594               -0.38605442                0.36905711
              20.33226505                7.07491491               93.90321526                1.00000000               -0.01154095               -0.03370814                0.12059783               -0.03373740               -0.51709694                0.05735698
              21.33229220                6.52368273               93.49947739                0.95238185                0.00097785               -0.06673450                0.15884284               -0.01802930               -0.57083357               -0.05092081
              22.33228460                5.97335776               93.09689809                0.71654918               -0.00844106               -0.04760073                0.15147204                0.04461048               -0.54231979               -0.19723425
              23.33212338                5.42437160               92.69301727                0.72754284               -0.04562314               -0.02839792                0.19000049                0.04070532               -0.40175912               -0.08750396
              24.33137214                4.87610712               92.29175620                0.74498860               -0.08231775               -0.01372729                0.16306034                0.03713492               -0.11362735               -0.05828856
              25.33047703                4.32829855               91.89240709                0.77529039               -0.08033572                0.00921893                0.09037325                0.03405596                0.09763123               -0.04676941
              26.32976543                3.78080617               91.49449654                0.83024880               -0.04584479                0.03267532               -0.01346024                0.02884329                0.20963329               -0.05154668
              27.32956013                3.23349109               91.09686144                0.97019454                0.00800876                0.04907444               -0.12077310                0.01245826                0.14895538               -0.04776803
              28.32992560                2.68615877               90.69755877                1.00000000                0.05300724                0.06733856               -0.20756011               -0.00220159                0.02791271               -0.02132123
              29.33062028                2.13880237               90.29767209                1.00000000                0.06946744                0.08721776               -0.28909271               -0.00414998               -0.02863320               -0.11560599
              19.88371418                8.62626349               94.16315367                1.00000000               -0.04404615                0.02382141                0.09876443               -0.03457793               -0.09087558                0.50855299
              20.88327372                8.07457782               93.76200042                1.00000000               -0.04118476               -0.01993044                0.09497224               -0.04511970               -0.13326918                0.08351635
              21.88289049                7.52301539               93.36014546                1.00000000               -0.04437226               -0.06221441                0.11475542               -0.00407397               -0.14162268               -0.13260089
              22.88238627                6.97288175               92.95872748                1.00000000               -0.08673657               -0.01178827                0.12940382                0.03057611               -0.07329831               -0.13814494
              23.88115575                6.42408762               92.55793613                1.00000000               -0.13031307               -0.00655588                0.15359292                0.03649215                0.05190316               -0.06015862
              24.87978001                5.87596985               92.15862342                1.00000000               -0.13438465                0.00315764                0.13310910                0.03490344                0.22171075               -0.03843276
              25.87846806                5.32839074               91.76074785                1.00000000               -0.11612103                0.01924828                0.07547992                0.03546234                0.36987220               -0.02989538
              26.87745759                4.78113292               91.36397028                1.00000000               -0.07298239                0.03779358               -0.01498794                0.03067258                0.45254734               -0.03601887
              27.87700841                4.23398183               90.96746323                1.00000000               -0.01048224                0.05391013               -0.12492944                0.01876124                0.39575336               -0.04999779
              28.87724795                3.68683216               90.56951017                1.00000000                0.04633850                0.07108843               -0.21859884                0.00759678                0.22296425               -0.03415702
              29.87793518                3.13967454               90.16978861                1.00000000                0.06872360                0.08830724               -0.29375884                0.00806460                0.10742176               -0.14047967
              20.43520280                9.62685125               94.02484733                1.00000000               -0.05920396                0.08437260                0.05573840               -0.01978324               -0.02549266                0.67176252
              21.43461076                9.07451630               93.62134748                1.00000000               -0.06479995               -0.00041095                0.05889290               -0.00467931                0.02954740                0.10069106
              22.43390680                8.52243844               93.21924455                0.00010000               -0.13934341               -0.09612758                0.07284877                0.17924391                0.31487492               -0.41875538
              23.43182389                7.97312199               92.82165244                0.00010000               -0.20708362                0.92590818                0.10165588                0.66679860                0.46736768                2.03783860
              24.42976513                7.42424048               92.42326939                0.00010000               -0.20284024                0.96451921                0.11491028               -0.08798465                0.44298609                1.93384056
              25.42776709                6.87617027               92.02564169                0.00010000               -0.18709657                0.44122298                0.10688832               -1.14994802                0.53230855               -0.56924036
              26.42602320                6.32868352               91.62917801                0.00010000               -0.14896490               -0.54478230                0.06329919               -2.04684297                0.64178530               -5.19835440
              27.42478779                5.78156204               91.23362777                0.00010000               -0.08935370               -1.93235812               -0.01606141               -2.35995519                0.70007521              -11.53040474
              28.42423612                5.23456929               90.83814896                0.00010000               -0.02014809               -3.71342811               -0.12250308               -1.58430876                0.65587358              -18.89495048
              29.42438483                4.68758054               90.44165543                0.00010000                0.04303377               -5.83368580               -0.23569181                1.00710739                0.44506373              -26.15853475
              30.42509680                4.14056851               90.04218447                0.36176788                0.07119708               -9.30950981               -0.30681971                6.55988168                0.26850953              -31.75624530
              20.98798843               10.62795094               93.88676814                1.00000000               -0.03954823                0.11252590                0.01556615                0.01748263                0.01206709                0.67521312
              21.98759294               10.07456961               93.48043305                0.92636439               -0.00593773               -0.00509194                0.02420224                0.03303557                0.00847959                0.03935528
              22.98786967                9.52109283               93.07423321                0.00010000                0.31636319               -0.13316122                0.01454482                1.25972815                2.94793292               -0.66997767
              23.99392021                8.99139991               92.72653452                0.00010000               -0.57609453                1.13655155                3.08038077                2.14274894                4.80976413                4.44802468
              24.97634778                8.44337800               92.32760439                0.00010000               -2.07910960                1.25527194                4.02534735               -0.08013858                0.39208516                4.10138418
              25.95233801                7.88479431               91.88143263                0.00010000               -2.21041744                0.42968914                3.38564209               -2.32289348               -3.83619559               -0.90576676
              26.93213943                7.31749510               91.39378086                0.00010000               -1.39826489               -1.12755538                1.42946218               -4.16397536               -7.51480256               -9.99656132
              27.92437272                6.74248576               90.87303423                0.00010000                0.35821542               -3.34761914               -1.75349040               -5.02802018              -10.23320165              -22.37249721
              28.93930374                6.15971327               90.33195491                0.00010000                3.35090794               -6.23754108               -6.10059163               -4.19253359              -11.08811602              -36.89512840
              29.99139088                5.57015844               89.79154053                0.00010000                8.19265691               -9.95635734              -11.23605203               -1.93672173               -8.43950695              -51.79252328
              31.10315688                4.95348435               89.28273790                0.36226148               11.17660022              -14.02749624              -16.06129621                2.84899492               -3.36651056              -65.65433282
              21.54231513               11.62910177               93.74828376                1.00000000               -0.01855477                0.10034763               -0.01505070                0.02187544               -0.00177316                0.63682244
              22.54212958               11.07441446               93.33847025                0.89580886               -0.00220362               -0.01172870                0.01567303                0.03860760               -0.00302652               -0.03180027
              23.54227106               10.51977522               92.92875569                0.00010000                0.51320594               -0.11658611                0.04689774                1.56316908                4.41778560               -0.70797326
              24.55239370                9.99585302               92.60729824                0.00010000               -0.37515470                0.00539815                4.88621973                2.49085503                7.10271341                3.10754940
              25.53476796                9.44934592               92.20212603                0.00010000               -2.26007881               -0.03804310                6.41161288                0.68863700                0.35495017                2.53597338
              26.50719212                8.88476405               91.71374983                0.00010000               -2.48578646               -0.45599338                5.19523364               -0.85542698               -6.40727250               -2.02337301
              27.48505223                8.30613241               91.15149872                0.00010000               -1.25914561               -1.17311768                1.68052688               -2.01493636              -12.25518660               -9.95705774
              28.48200921                7.71460966               90.53098633                0.00010000                1.38302684               -2.19034246               -3.93985018               -2.69265290              -16.31069077              -20.63152304
              29.51271277                7.10981847               89.87659490                0.00010000                5.49350520               -3.55833160              -11.48174031               -2.87698426              -17.03558186              -33.25255166
              30.59187932                6.48845339               89.22622053                0.00010000               10.13560580               -5.25242423              -20.28819007               -2.25336534              -11.84466215              -46.91751125
              31.71542489                5.86001859               88.63855550                0.36241753               12.35455704               -5.67208003              -28.56584239               -1.31645882               -5.31744065              -60.04717501
              22.09780056               12.62995790               93.60930643                1.00000000               -0.01089100                0.07151918               -0.03354518                0.02123040               -0.00514789                0.59623398
              23.09769165               12.07433503               93.19612190                0.89375646               -0.00530340               -0.00561618                0.01810201                0.03110926               -0.01135742               -0.05753837
              24.09769449               11.51876111               92.78291175                0.00010000                0.82374790               -0.08315202                0.07494743                1.43641450                5.35792452               -0.71400327
              25.11416661               10.99150788               92.47703683                0.00010000                0.17574990               -0.78523511                6.07575361                2.42954748                8.63091226                2.06430086
              26.10120949               10.44261714               92.06230120                0.00010000               -1.78618106               -1.17538413                7.86079016                1.00415843                0.33973296                1.25851867
              27.07844298                9.87567444               91.53799220                0.00010000               -1.96071938               -1.28589503                6.10412783               -0.05246968               -7.86868766               -2.72770810
              28.06199510                9.29403274               90.91565974                0.00010000               -0.58046912               -1.18894385                1.33780889               -0.84359765              -14.88188117               -9.42357896
              29.06683360                8.69867891               90.21646043                0.00010000                2.29626104               -0.94311185               -6.16511467               -1.54320015              -19.55662165              -18.37500944
              30.10792032                8.08854664               89.47326616                0.00010000                6.46449257               -0.57769748              -16.13928865               -2.14031485              -20.04178629              -29.12922961
              31.19612345                7.46510996               88.73626596                0.00010000               11.28884993                0.15325640              -27.77097240               -2.13054878              -13.73954485              -41.05575934
              32.33369732                6.84004275               88.07651398                0.36243403               13.75738660                1.19988266              -39.19364107               -1.08905208               -6.30492036              -53.19708173
              22.65398547               13.63053215               93.47003360                1.00000000               -0.00369159                0.04632647               -0.04575820                0.01592521               -0.00470375                0.56441279
              23.65394855               13.07430213               93.05359576                0.89231488               -0.00794823               -0.00265385                0.02199936                0.02437996               -0.00929659               -0.06901987
              24.65382650               12.51811218               92.63713423                0.00010000                1.15900340               -0.05294369                0.09521409                0.92799996                6.05127482               -0.69567723
              25.67712862               11.98014832               92.34182744                0.00010000                0.84290326               -1.41593750                6.86402425                1.64211652                9.81463175                1.05552765
              26.67068457               11.42583824               91.91829009                0.00010000               -1.12007454               -2.07073983                8.76273356                0.80047144                0.49604156                0.09895378
              27.65472713               10.85904615               91.36530747                0.00010000               -1.27543809               -1.93229688                6.55054949                0.27514907               -8.60984735               -3.20833327
              28.64517581               10.28235353               90.69625642                0.00010000                0.09520925               -1.08251136                0.82179224               -0.16647107              -16.30626979               -8.53590450
              29.65663131                9.69574742               89.93624206                0.00010000                2.91498109                0.34696782               -8.10773464               -0.73720055              -21.34295864              -15.62953034
              30.70347543                9.09826452               89.12426619                0.00010000                7.05704592                2.29033104              -19.92706253               -1.35102191              -21.77242018              -24.20986813
              31.79777223                8.49151852               88.31804890                0.00010000               12.01514190                4.67336825              -33.78660898               -1.41683642              -14.85368212              -33.86703206
              32.94377827                7.88401624               87.59732568                0.36295660               14.60060340                7.11559705              -47.76773767               -0.79879441               -6.90817244              -43.83091626
              23.21057910               14.63088443               93.33053489                1.00000000                0.00201240                0.02909627               -0.05650035                0.01010292               -0.00240869                0.53150848
              24.21059922               14.07428195               92.91097620                0.87902560               -0.00853974               -0.00207191                0.02337391                0.01672002               -0.00347625               -0.07491187
              25.21040830               13.51770224               92.49144433                0.00010000                1.43418264               -0.03527641                0.10904244                0.11722151                6.70841160               -0.68016097
              26.23928288               12.96318912               92.20603812                0.00010000                1.39563887               -1.92652552                7.41470518                0.30190939               10.99487416                0.11251591
              27.23832108               12.40120235               91.77769587                0.00010000               -0.59261034               -2.78818927                9.40940178                0.20787564                0.95430284               -0.91357457
              28.22743067               11.83702850               91.20467277                0.00010000               -0.81783357               -2.39248958                6.89561697                0.36570184               -8.81007247               -3.42048086
              29.22196441               11.27238252               90.50158086                0.00010000                0.43739685               -0.86853489                0.49202226                0.33093340              -17.05782629               -7.26463568
              30.23617861               10.70561827               89.69641948                0.00010000                3.15821865                1.52691804               -9.46603685               -0.02780447              -22.46116981              -12.35097795
              31.28512878               10.13435326               88.83280371                0.00010000                7.29282000                4.61973345              -22.63998510               -0.51824143              -22.94345986              -18.52215972
              32.38203501                9.55857732               87.97427355                0.00010000               12.37986072                8.21579879              -38.14767263               -0.69859764              -15.63983353              -25.40630367
              33.53272600                8.98235469               87.20709505                0.36318322               15.06909917               11.89583101              -54.00923237               -0.45368549               -7.34123088              -32.38166107
              23.76739247               15.63111408               93.19078362                1.00000000                0.00726710                0.02240445               -0.06930531                0.00373228                0.00538491                0.48487806
              24.76746514               15.07426070               92.76829811                0.88013476               -0.00643534               -0.00171722                0.01881157                0.00866689               -0.00041099               -0.08273234
              25.76726376               14.51740665               92.34573266                0.00010000                1.61007799               -0.02852063                0.11329010               -0.93673761                7.56194432               -0.59533794
              26.79966670               13.94161781               92.07438899                0.00010000                1.68694715               -2.45245410                7.90405641               -1.41723167               12.57805032               -0.60449389
              27.80100271               13.37007445               91.64816316                0.00010000               -0.44028528               -3.47753726               10.10043502               -0.41185798                1.89973847               -1.54718162
              28.79086099               12.81119636               91.06476699                0.00010000               -0.88989997               -2.67628773                7.49350496                0.41498638               -8.53420197               -3.19593368
              29.78320471               12.26498284               90.33921000                0.00010000                0.16217435               -0.60021868                0.68499538                0.69899267              -17.50322356               -5.49409583
              30.79410448               11.72628578               89.50223589                0.00010000                2.84734198                2.45822117               -9.95869524                0.49115438              -23.43656816               -8.57484471
              31.84015155               11.19065919               88.60155848                0.00010000                7.08471848                6.28738119              -24.06113887                0.09805827              -24.07029154              -12.33961194
              32.93579885               10.65583450               87.70652703                0.00010000               12.34991401               10.66136327              -40.67853161               -0.15316131              -16.40220351              -16.36584424
              34.08714983               10.12193286               86.90948401                0.36312188               15.13509750               15.25669272              -57.75439305               -0.21974511               -7.79184972              -19.89554016
              24.32436051               16.63133251               93.05055367                1.00000000                0.01194816                0.02462028               -0.08453560               -0.00091653                0.03432581                0.36735227
              25.32447999               16.07424761               92.62548889                0.71347820               -0.00220346               -0.00006259                0.00515833                0.00222589                0.08544195               -0.10624585
              26.32431644               15.51713183               92.20148166                0.00010000                1.68952243               -0.02701672                0.10362143               -2.28803169                8.96033555               -0.47280426
              27.35827044               14.91414004               91.95379236                0.00010000                1.80944644               -3.63726234                8.61225078               -2.26847476               15.06432105               -0.54215872
              28.36050537               14.33165160               91.54038594                0.00010000               -0.87242136               -3.96245398               11.28442072               -0.61357528                3.74449916               -1.53116974
              29.34082201               13.78350275               90.95514152                0.00010000               -1.98252629               -2.76321233                8.76173359                0.42751519               -7.98122995               -2.18337655
              30.32085484               13.26037814               90.21652056                0.00010000               -1.02483350               -0.36672625                1.75602215                0.66788843              -18.10345299               -3.09659586
              31.32032534               12.75478269               89.35770578                0.00010000                1.83431958                3.01241390               -9.32109442                0.52961958              -24.89179022               -4.41537900
              32.35754123               12.26010088               88.43029349                0.00010000                6.36863837                7.19774797              -24.03441129                0.25244722              -25.84821546               -6.08548174
              33.44769811               11.77180459               87.51013632                0.00010000               11.92965696               11.94594732              -41.34430286                0.04746573              -17.62969502               -7.77832364
              34.59613437               11.28748854               86.70003418                0.36354854               14.84362639               17.06032615              -59.02322995               -0.17838826               -8.52662060               -8.29891144
              24.88154395               17.63160648               92.90862961                1.00000000                0.01663993                0.02739692               -0.09861393               -0.01635989                0.18380767                0.27498981
              25.88171035               17.07425944               92.48229904                0.79762765                0.00333735                0.00118347               -0.01173174               -0.01397266                0.28320744               -0.12253862
              26.88161070               16.51686631               92.05799149                0.36063526                2.90335412               -0.02655106                0.09146808               -4.53991846               11.85838711               -0.42609605
              27.93977743               15.86887256               91.86298586                0.36077834                1.88789007               -4.52674810               10.36905295               -3.15134791               20.95968689               -2.39068575
              28.91936850               15.29082537               91.46844218                0.36076802               -3.45463373               -4.08262273               13.64105735                0.23929063                6.30550574               -2.72329411
              29.87068476               14.75593212               90.88729312                0.36086285               -4.70429841               -2.75706302               11.26830785                1.32742142               -7.80207782               -2.69234510
              30.82528253               14.25764831               90.14039987                0.36089684               -3.28553114               -0.27298307                4.10369276                1.97286599              -19.69825539               -2.63471044
              31.80497413               13.78653406               89.26488159                0.36033460                0.14480329                3.17513694               -7.30468882                2.31317097              -27.66060726               -2.67471948
              32.82817859               13.33461415               88.31570107                0.36121670                5.21931869                7.45132651              -22.45932032                2.47470527              -29.30340886               -2.73296922
              33.90936051               12.89475344               87.37214424                0.36216432               11.20177789               12.29488565              -40.28407411                2.59250150              -20.74146284               -2.62345821
              35.05221415               12.46313938               86.55237968                0.68166057               14.28536458               17.56508400              -58.26748811                2.44657177              -11.15047351               -0.84818401
              19.72998245                7.77125478               95.30570521                1.00000000               -0.02519481               -0.01292420                0.14270738               -0.03419863               -0.34906133                0.34496212
              20.72973050                7.21681469               94.90442563                1.00000000               -0.00229044               -0.03434053                0.11781032               -0.04258055               -0.45727639                0.05295956
              21.72993664                6.66269389               94.50093507                0.94810416                0.02796589               -0.06820022                0.12896323               -0.01843486               -0.51152410               -0.05552132
              22.73028982                6.10980520               94.09821531                0.74240770                0.04520327               -0.04505750                0.11560531                0.06681712               -0.48532827               -0.16882809
              23.73084071                5.55880425               93.69460698                0.74780280                0.02042266               -0.02470719                0.13684762                0.05499120               -0.36642674               -0.07748969
              24.73069827                5.00883016               93.29305090                0.75153071               -0.02900668               -0.00594889                0.10719063                0.04555322               -0.13417521               -0.05402371
              25.73026057                4.45959178               92.89303721                0.76050068               -0.04427797                0.01683099                0.04743154                0.04435157                0.04308246               -0.04311245
              26.72981271                3.91086620               92.49422540                0.78551213               -0.02828517                0.03577807               -0.03163299                0.04389636                0.14237414               -0.04459134
              27.72969487                3.36244632               92.09575842                0.87589055                0.01012307                0.04418728               -0.11122459                0.02757265                0.09393123               -0.05176612
              28.73001518                2.81405534               91.69584682                1.00000000                0.03935418                0.04857423               -0.15303272                0.00619764               -0.00741088               -0.02565878
              29.73048195                2.26562315               91.29540385                1.00000000                0.04667782                0.05447870               -0.18404936                0.00248517               -0.04571805               -0.10128620
              20.28408055                8.77112554               95.16429009                1.00000000               -0.04954119                0.02746888                0.12094500               -0.03967077               -0.07214866                0.47943244
              21.28358514                8.21647129               94.76296539                1.00000000               -0.04117562               -0.01908472                0.09468555               -0.05324254               -0.09855412                0.07611704
              22.28325704                7.66201189               94.36118644                1.00000000               -0.03411634               -0.06403214                0.09318823               -0.00298092               -0.09485664               -0.13352893
              23.28290281                7.10935462               93.95983030                1.00000000               -0.06894515               -0.00012280                0.09476270                0.04414751               -0.02559524               -0.11533252
              24.28187814                6.55855718               93.55917992                1.00000000               -0.10713867                0.00549337                0.10148213                0.04828324                0.08106996               -0.05520522
              25.28076004                6.00877067               93.15962769                1.00000000               -0.10960332                0.01711509                0.07521446                0.04312603                0.21436661               -0.03870074
              26.27968607                5.45976009               92.76122189                1.00000000               -0.09678162                0.03100010                0.02741345                0.04341827                0.33336771               -0.03155695
              27.27882441                4.91122398               92.36367688                1.00000000               -0.06550211                0.04296187               -0.03479854                0.04065516                0.39417113               -0.03356271
              28.27837603                4.36288819               91.96628771                1.00000000               -0.01678354                0.04849850               -0.10806250                0.02740541                0.33686124               -0.04635925
              29.27848874                3.81454108               91.56767520                1.00000000                0.02814823                0.05203116               -0.15826303                0.00958307                0.17909645               -0.03293854
              30.27893899                3.26616794               91.16745600                1.00000000                0.04502560                0.05586684               -0.19010361                0.00690629                0.07842968               -0.11699359
              20.83849754                9.77180416               95.02555593                1.00000000               -0.07182392                0.09475756                0.07929282               -0.02060847               -0.01475393                0.63568977
              21.83777930                9.21643300               94.62195896                1.00000000               -0.07519257                0.00277189                0.06149114               -0.00223635                0.05008069                0.08893038
              22.83699369                8.66141325               94.21987308                0.00010000               -0.15759072               -0.10881928                0.05481660                0.21922382                0.35163949               -0.42733629
              23.83462748                8.10980274               93.82245308                0.00010000               -0.23016825                1.85619066                0.06179850                1.71161953                0.51375431                3.78557906
              24.83239032                7.55891412               93.42412633                0.00010000               -0.21348015                2.00924151                0.06035690                1.38756360                0.48065687                4.20878870
              25.83035788                7.00917247               93.02638220                0.00010000               -0.18573450                1.31601234                0.04491844                0.58769115                0.54816355                1.37561230
              26.82867563                6.46021178               92.62952482                0.00010000               -0.14300835               -0.03728752                0.01026152               -0.17240063                0.62548794               -4.27352199
              27.82749771                5.91172544               92.23332023                0.00010000               -0.08748758               -1.98443947               -0.03829904               -0.46621185                0.65096315              -12.28718308
              28.82692588                5.36341629               91.83700119                0.00010000               -0.02853109               -4.59908319               -0.09764920                0.35674425                0.58064577              -22.01625961
              29.82692709                4.81509596               91.43963171                0.00010000                0.02202424               -7.95086383               -0.16534512                3.47153515                0.37952023              -32.19283243
              30.82736637                4.26674049               91.03971618                0.36061543                0.04392722              -14.11892104               -0.19626818               11.01370531                0.22459004              -40.64224068
              21.39441070               10.77302069               94.88706845                1.00000000               -0.04793826                0.12123311                0.03899718                0.02441384                0.01165544                0.64360278
              22.39393132               10.21652673               94.48069667                0.97344197               -0.00694662               -0.00283639                0.02797240                0.03860778                0.00327808                0.03991823
              23.39427177                9.65983551               94.07428855                0.00010000                1.28515086               -0.14270389                0.00278492                2.24310958                4.69823777               -0.64310092
              24.41963434                9.14647844               93.76171010                0.00010000                0.79939577                2.30474318                3.97986858                4.90281931                8.20985639                8.00770889
              25.41025969                8.59874201               93.37359568                0.00010000               -1.42090703                2.67862893                5.13555905                2.76065238                2.59363614                8.61121716
              26.39121620                8.03509092               92.92085592                0.00010000               -1.82873010                1.58613421                4.44518622                0.93143789               -2.33730352                2.90420781
              27.37368509                7.45901434               92.41255715                0.00010000               -1.24602674               -0.55344031                2.36178473               -0.64812931               -6.70084172               -8.17275611
              28.36629566                6.87153519               91.85758510                0.00010000                0.42276530               -3.67569226               -1.15544771               -1.54417291              -10.49788570              -23.77385955
              29.38214039                6.27090653               91.26826014                0.00010000                3.91497901               -7.92881455               -6.41489136               -0.93622327              -12.71867344              -42.88039416
              30.44459524                5.65552380               90.66863638                0.00010000               10.68918281              -13.84548352              -13.35301299                0.45898688              -10.69490398              -63.69144296
              31.59592405                4.98378952               90.10188396                0.36019049               15.13288037              -21.29860484              -20.64337872                5.66628582               -4.57789476              -85.22690835
              21.95197375               11.77422882               94.74826734                1.00000000               -0.02371061                0.10271325                0.00775622                0.02907028               -0.00061546                0.61466725
              22.95173664               11.21637627               94.33863611                0.93300722               -0.00347892               -0.01076616                0.01699592                0.04730097                0.00066027               -0.01400446
              23.95190417               10.65855917               93.92911251                0.00010000                2.10203651               -0.11083136                0.02577793                2.79183444                7.18429580               -0.64140518
              24.99377737               10.15589761               93.66309172                0.00010000                2.35433595                0.10152777                6.27104709                5.21985124               12.56501860                5.79785608
              25.99899089                9.61248670               93.27539002                0.00010000               -0.25315309                0.14105309                8.11992946                3.40580630                4.28268064                5.91804746
              26.98871431                9.04089515               92.77438148                0.00010000               -0.98610554               -0.42630833                6.77134289                2.37333117               -3.39519202                0.68050984
              27.97926877                8.44914298               92.17481721                0.00010000               -0.19961202               -1.44378592                2.95631846                1.73227107              -10.13498949               -8.95706972
              28.98472207                7.83821159               91.49361472                0.00010000                2.24720145               -2.93291041               -3.34123745                1.21835990              -15.62471719              -22.32360121
              30.02421280                7.20484000               90.75538888                0.00010000                6.92508882               -5.04661155              -12.49689313                0.53882300              -18.11896599              -38.77550060
              31.12322384                6.53818629               90.00354998                0.00010000               12.99739259               -7.88813986              -24.32797341               -0.21869088              -13.54306605              -57.76513636
              32.28416066                5.84076839               89.31636278                0.36105134               16.09368120               -8.91536398              -36.78566437               -0.49726835               -6.27545284              -78.15883180
              22.51069721               12.77507496               94.60909698                1.00000000               -0.01502220                0.06845225               -0.01176107                0.02805269               -0.00232257                0.58399685
              23.51054699               12.21631140               94.19630260                0.91646033               -0.00550430               -0.00453454                0.01797217                0.04020872               -0.00457455               -0.03543146
              24.51058712               11.65761888               93.78352781                0.00010000                2.97784265               -0.07557176                0.05167041                2.51039154                8.77209317               -0.65758079
              25.57010384               11.14850899               93.54618507                0.00010000                4.13955731               -1.38080156                7.70632162                4.79713402               15.46380431                4.00502532
              26.59337827               10.60156307               93.15180210                0.00010000                1.59613498               -2.05556658                9.82182425                3.32150943                5.47162216                3.61014034
              27.60202654               10.02656475               92.60903524                0.00010000                0.88178961               -2.28309636                7.82932791                2.76851212               -3.62504088               -0.98273849
              28.61101406                9.43013862               91.93591714                0.00010000                1.64696487               -2.23082225                2.59027849                2.51090438              -11.49007314               -9.07171652
              29.63496584                8.81287698               91.15558463                0.00010000                4.09640455               -2.00960958               -5.87491136                1.91722520              -17.64360826              -20.20692050
              30.69294215                8.16997430               90.30161079                0.00010000                8.46635984               -1.67578763              -17.96657591                0.68698891              -20.03245464              -34.15076820
              31.80429304                7.49776101               89.43091618                0.00010000               14.39361635               -0.78954742              -33.45760917               -0.72145344              -14.72277362              -50.63163119
              32.98081448                6.80548224               88.63414899                0.36093139               17.65214456                0.91695943              -50.45120852               -0.48088042               -6.89400889              -69.13129327
              23.07006191               13.77559787               94.46969757                1.00000000               -0.00650154                0.03960953               -0.02448671                0.02106761               -0.00105877                0.55758832
              24.06999689               13.21628558               94.05380803                0.90150943               -0.00737493               -0.00199598                0.02070774                0.03233537               -0.00172307               -0.04978669
              25.06991441               12.65704774               93.63794662                0.00010000                3.78894845               -0.04395305                0.07073379                1.55001354                9.87941463               -0.65095260
              26.14577586               12.12828158               93.41959667                0.00010000                5.87254527               -2.53268917                8.59249724                3.13381075               17.54866585                2.25880316
              27.18736531               11.57137536               93.01756804                0.00010000                3.48665696               -3.77857166               10.78926216                2.43591314                6.45336359                1.47698149
              28.21550900               10.99523322               92.44116877                0.00010000                2.79046604               -3.77455439                8.25107605                2.47687860               -3.46342799               -2.32547221
              29.24317463               10.40452653               91.71096046                0.00010000                3.38609482               -2.73641309                1.91361691                2.54129932              -11.92245534               -8.70299650
              30.28323089                9.79801940               90.85434351                0.00010000                5.49469634               -0.89585656               -8.19711244                2.01355724              -18.42924806              -17.47013914
              31.35306856                9.17132425               89.91124897                0.00010000                9.50279708                1.69152057              -22.49480308                0.78922465              -20.91094229              -28.54595640
              32.47328684                8.52239534               88.94613051                0.00010000               15.30160131                5.06780576              -40.80473264               -0.38603224              -15.33094673              -41.80039320
              33.65910059                7.85910758               88.05841748                0.36134312               18.58137499                8.95012732              -61.28918173               -0.37483538               -7.26614936              -56.64816825
              23.62974314               14.77586715               94.33008747                1.00000000                0.00006885                0.02025567               -0.03578675                0.01341381                0.00226196                0.52603328
              24.62974382               14.21627148               93.91119569                0.87113720               -0.00758679               -0.00128189                0.02109039                0.02273084                0.00535387               -0.06206838
              25.62959140               13.65673982               93.49239434                0.00010000                4.43543036               -0.02446355                0.08535080                0.05469836               10.81463621               -0.64832593
              26.71845243               13.09785521               93.28961172                0.00010000                7.27767438               -3.48515993                9.15793583                0.54819227               19.35064603                0.61861885
              27.77514489               12.52599164               92.88369586                0.00010000                4.99802574               -5.18451280               11.41992046                0.97710616                7.52080117               -0.43353478
              28.81841295               11.95107367               92.28398862                0.00010000                4.19544915               -4.89498192                8.52993885                1.93161216               -2.99249462               -3.28645272
              29.85905387               11.37541036               91.51251340                0.00010000                4.50131610               -2.94500746                1.43528316                2.42260042              -11.96472169               -7.81595671
              30.90843927               10.79495985               90.59965293                0.00010000                6.26484181                0.22903937               -9.84858336                2.08694094              -18.88122355              -14.04037580
              31.98435071               10.20380471               89.59007341                0.00010000               10.01748952                4.44254404              -25.74447201                1.09848788              -21.56417579              -21.96412393
              33.10878906                9.59911712               88.55417455                0.00010000               15.77712966                9.56471050              -46.08850876                0.08383570              -15.85032869              -31.36443875
              34.29989330                8.98448478               87.59835381                0.36125576               19.11042412               15.15900005              -69.01553392               -0.12622943               -7.58809997              -41.66812182
              24.18952151               15.77600298               94.19020333                1.00000000                0.00573264                0.01361155               -0.04923243                0.00515067                0.01034213                0.47896995
              25.18957883               15.21625994               93.76846125                0.85698832               -0.00484305               -0.00044472                0.01457125                0.01229165                0.00888713               -0.07910510
              26.18942465               14.65655847               93.34671325                0.00010000                4.89545256               -0.01796215                0.08803612               -1.89738532               11.91355899               -0.57898010
              27.28748789               14.05857838               93.16297672                0.00010000                8.21321653               -4.52484342                9.63237722               -2.69805866               21.48989784               -0.68835376
              28.35368898               13.46768511               92.76125486                0.00010000                5.86173162               -6.54643168               12.09485950               -0.40703755                9.03612611               -1.77908051
              29.40472252               12.89733358               92.15022050                0.00010000                4.70257389               -5.62645426                9.11193273                1.48258872               -2.14185525               -3.60968038
              30.44774046               12.34562638               91.35202354                0.00010000                4.59264226               -2.89874436                1.58370022                2.28341170              -11.91234948               -6.22415254
              31.49657536               11.80260019               90.40004416                0.00010000                6.15702967                1.18550596              -10.45868649                2.06920534              -19.47061914               -9.93078532
              32.57088105               11.26017513               89.34334555                0.00010000                9.88540566                6.41398198              -27.41889242                1.29858055              -22.43974435              -14.72941125
              33.69428348               10.71368955               88.25865978                0.00010000               15.74798125               12.60762374              -49.09085338                0.45600798              -16.50147590              -20.22966379
              34.88584067               10.16228758               87.25914910                0.36147253               19.15571973               19.40766859              -73.55098461                0.02734148               -8.00048952              -25.63137030
              24.74933222               16.77613938               94.04981808                1.00000000                0.01019453                0.01693127               -0.06436371               -0.00063923                0.03508940                0.36297164
              25.74943417               16.21626259               93.62549926                0.68796665               -0.00034829                0.00180838               -0.00207281                0.00360740                0.09259944               -0.10929880
              26.74932526               15.65638057               93.20236086                0.00010000                5.19652241               -0.01914310                0.07728513               -4.44649928               13.68647025               -0.46692959
              27.85336462               15.00735834               93.04981325                0.00010000                8.94618359               -6.82082273               10.37401230               -4.35166508               24.74743518               -0.80840549
              28.92824893               14.39506300               92.66606918                0.00010000                5.83794145               -7.44526199               13.38294266               -0.95770611               11.65227939               -2.08461140
              29.97012345               13.83854458               92.05415691                0.00010000                3.56032848               -5.87231284               10.51178312                1.11152039               -1.09349919               -2.71065280
              30.99945550               13.31743547               91.24089672                0.00010000                3.25755916               -2.69586731                2.79237612                1.64315222              -12.24826341               -3.66547351
              32.03527463               12.81866997               90.26256582                0.00010000                4.98887275                1.80309910               -9.69967639                1.46491549              -20.84418757               -5.21083771
              33.09923295               12.33208435               89.17267100                0.00010000                9.02610681                7.49176173              -27.31482702                0.95703760              -24.25825510               -7.32356781
              34.21579677               11.85126960               88.05536213                0.00010000               15.20055596               14.16928222              -49.76738620                0.42040748              -17.78523636               -9.64525234
              35.40324407               11.37263816               87.03593356                0.36149862               18.74473078               21.67108446              -74.98130293               -0.06490190               -8.77739659              -10.80487162
              25.30926230               17.77634160               93.90775947                1.00000000                0.01474832                0.02022278               -0.07634377               -0.01154173                0.17864591                0.27266869
              26.30940978               17.21629611               93.48213454                0.78487804                0.00683037                0.00335214               -0.01944298               -0.01073837                0.28897917               -0.12766727
              27.30939891               16.65617561               93.05875506                0.36012308                7.61811857               -0.02049696                0.06667835               -8.69934422               17.57243467               -0.42595791
              28.46177216               15.92216192               92.97859776                0.36063475                9.69748529               -8.51964184               12.52767878               -6.02903293               32.77200083               -3.55987109
              29.50334861               15.31877987               92.62017043                0.36106184                2.14041501               -7.62831348               16.20089440                0.39623876               15.04727907               -3.88108752
              30.50458046               14.77988733               92.01385662                0.36066371               -0.14352526               -5.86572549               13.46100467                2.09215942               -0.78331753               -3.68467625
              31.50047811               14.29170904               91.19060889                0.36056019                0.33221702               -2.57264368                5.56173054                3.04100327              -14.07163342               -3.50897796
              32.51122480               13.83866217               90.19217911                0.36015459                2.84720335                1.99921988               -7.25002195                3.51008308              -24.01948140               -3.53782374
              33.55742218               13.41001036               89.07601258                0.35981799                7.54565119                7.79260130              -25.28448622                3.73957355              -28.26178498               -3.64924809
              34.66213782               12.99707520               87.92992826                0.36074885               14.21916709               14.58056001              -48.26527441                3.91905086              -21.45135034               -3.58581099
              35.84180552               12.59570927               86.89748987                0.68084181               17.96676979               22.30711141              -73.83486550                3.71955180              -11.91205347               -1.54255529
              20.12810095                7.91610430               96.30718323                1.00000000               -0.02112923               -0.01028763                0.14371243               -0.03900463               -0.30863424                0.31859949
              21.12788966                7.35889459               95.90557147                1.00000000                0.00855474               -0.03277542                0.10652127               -0.05007382               -0.39673585                0.04647995
              22.12827205                6.80206957               95.50205666                0.97853287                0.05082352               -0.06627667                0.09741090               -0.02152905               -0.43802522               -0.04891211
              23.12890613                6.24675122               95.09921019                0.78183386                0.08436038               -0.04138899                0.08380754                0.07779294               -0.41080822               -0.13586778
              24.12995926                5.69367592               94.69575423                0.76745868                0.06761372               -0.02117568                0.10086422                0.05814276               -0.32784362               -0.06724830
              25.13025841                5.14187307               94.29390002                0.74888930                0.01024637               -0.00085359                0.07404315                0.04624953               -0.14916999               -0.05406060
              26.13016418                4.59106695               93.89335572                0.73095661               -0.01833529                0.02050398                0.02926843                0.04912005               -0.00566300               -0.04716687
              27.12989170                4.04101138               93.49386388                0.72529508               -0.01734246                0.03554587               -0.03227599                0.05486070                0.07187590               -0.04232748
              28.12981733                3.49139719               93.09463695                0.77234518                0.01201300                0.04146925               -0.10802150                0.04187177                0.03533982               -0.04469863
              29.13013196                2.94198884               92.69449811                0.85301207                0.03872640                0.03996551               -0.15435135                0.01672045               -0.03334285               -0.04373104
              30.13059186                2.39267234               92.29399111                0.98822122                0.04599019                0.03499972               -0.17774843                0.00338107               -0.04035761               -0.12896494
              20.68492062                8.91600143               96.16557257                1.00000000               -0.05143290                0.03411938                0.12761778               -0.04342445               -0.05347007                0.44709577
              21.68440629                8.35856684               95.76389413                1.00000000               -0.03960881               -0.01654823                0.08799496               -0.05945331               -0.06385481                0.06685211
              22.68412844                7.80140680               95.36200922                1.00000000               -0.02627025               -0.06399834                0.07254976               -0.00280411               -0.04433041               -0.12842166
              23.68388089                7.24633733               94.96062273                1.00000000               -0.05743424                0.01012760                0.06630186                0.04984741                0.02511069               -0.09019948
              24.68297976                6.69346416               94.55996577                1.00000000               -0.09277519                0.01622911                0.06220930                0.05085435                0.10965695               -0.04699540
              25.68202538                6.14186453               94.16012771                1.00000000               -0.09467658                0.02906096                0.03207385                0.04406496                0.20913315               -0.03930976
              26.68108623                5.59127199               93.76129612                1.00000000               -0.08750959                0.04054298               -0.00190843                0.04665260                0.29859603               -0.03575090
              27.68027519                5.04136684               93.36327431                1.00000000               -0.06694537                0.04493912               -0.03492190                0.04894341                0.32585688               -0.03319827
              28.67974732                4.49181188               92.96530198                1.00000000               -0.03068008                0.04372419               -0.08000981                0.03709406                0.26415742               -0.03556941
              29.67966159                3.94238849               92.56634491                1.00000000                0.00974275                0.03869347               -0.11669692                0.01693667                0.13522046               -0.03664386
              30.67994218                3.39302233               92.16598654                0.97115804                0.02805862                0.03117019               -0.13663796                0.00477355                0.05928252               -0.11408597
              21.24210165                9.91678669               96.02643319                1.00000000               -0.08064245                0.10550805                0.08981381               -0.02008255               -0.00421383                0.59510172
              22.24129522                9.35856363               95.62257731                1.00000000               -0.08280859                0.00619918                0.06037563                0.00175078                0.06968136                0.07563234
              23.24044547                8.80078960               95.22034088                0.00010000               -0.17247507               -0.12077073                0.04081424                0.25413462                0.38345217               -0.43078144
              24.23784572                8.24695377               94.82288841                0.00010000               -0.24981668                3.22890590                0.03133131                3.40701107                0.55268860                6.01550397
              25.23544914                7.69400050               94.42447652                0.00010000               -0.22569247                3.54372522                0.01643178                4.07977163                0.51278797                7.05143363
              26.23333187                7.14245428               94.02654006                0.00010000               -0.19271061                2.65073275               -0.00845989                4.12412019                0.56199754                3.86020751
              27.23159493                6.59187781               93.62938324                0.00010000               -0.15005941                0.87377981               -0.03012224                3.98815338                0.61191397               -2.83193270
              28.23033068                6.04191016               93.23286179                0.00010000               -0.10286863               -1.73263757               -0.04126168                3.94153408                0.59818458              -12.64073044
              29.22953756                5.49227167               92.83619597                0.00010000               -0.05352225               -5.40470914               -0.05936187                4.74921096                0.49986995              -25.20097649
              30.22926024                4.94276271               92.43834852                0.00010000               -0.00589509              -10.49885917               -0.09219105                8.26157311                0.30697051              -39.33664364
              31.22941965                4.39329574               92.03825911                0.35903406                0.01594164              -21.03613739               -0.10738614               18.31138612                0.17676988              -52.15029894
              21.80096510               10.91811159               95.88754808                1.00000000               -0.05267020                0.12899446                0.05183396                0.03110420                0.01187171                0.60794969
              22.80043840               10.35869082               95.48099250                1.00000000               -0.00720535               -0.00175986                0.03093438                0.04410960                0.00071198                0.03507082
              23.80082099                9.79899139               95.07428891                0.00010000                2.91859058               -0.15408712                0.00281412                3.66402568                6.92498029               -0.61934906
              24.85881021                9.31091545               94.80613189                0.00010000                3.41268420                4.01906985                4.84174511                9.24590589               12.76020559               12.56207076
              25.86907468                8.76433866               94.43031557                0.00010000                0.39101311                4.77499727                5.92962204                7.88232073                6.11804835               14.22157261
              26.86663047                8.19487918               93.97033636                0.00010000               -0.38406282                3.38703240                5.09116415                7.54690744                1.23435143                7.73836412
              27.86139342                7.60874759               93.44101655                0.00010000               -0.39592281                0.58766061                3.16141374                7.16795895               -3.12101468               -5.36109330
              28.85871202                7.00671408               92.84992528                0.00010000                0.62427848               -3.58860277               -0.17601728                6.67913077               -7.96897381              -24.34578154
              29.87387899                6.38371770               92.20365709                0.00010000                4.25784826               -9.56569329               -6.02769964                6.82789267              -12.55206103              -48.81032677
              30.94386898                5.73241131               91.52448027                0.00010000               13.56124223              -18.59459224              -15.25264925                5.96828754              -12.66203116              -77.46787724
              32.14510383                4.97229959               90.86987033                0.35897211               20.12348540              -31.43594145              -26.48260627               10.73235676               -5.95290428             -110.75672221
              22.36156527               11.91936658               95.74843888                1.00000000               -0.02676508                0.10480033                0.02250649                0.03507277               -0.00005519                0.58857748
              23.36129762               11.35852843               95.33881017                0.96822933               -0.00319524               -0.01181681                0.01747291                0.05361032                0.00279551               -0.00443449
              24.36150136               10.79770786               94.92927125                0.00010000                4.80594720               -0.11080027                0.00883158                4.56198135               10.66051440               -0.59077596
              25.45741656               10.32733517               94.73271918                0.00010000                7.38152272                0.20939943                7.46872524                9.40753863               19.85110458                9.13068262
              26.50913182                9.78950044               94.36452461                0.00010000                4.12222669                0.41516324                9.15168696                8.07884252               10.53577078               10.01200462
              27.53986109                9.21019493               93.84917669                0.00010000                2.69936956               -0.28234012                7.49584416                8.46636179                3.23516937                4.02448833
              28.56311921                8.60363103               93.21062509                0.00010000                2.45410490               -1.61462140                3.79254325                9.20969991               -3.21173483               -7.34761506
              29.58894319                7.97013810               92.46416158                0.00010000                3.86394874               -3.64511885               -2.40685511                9.34412750               -9.96319667              -23.51388983
              30.64039818                7.30095780               91.62665704                0.00010000                8.55504530               -6.70232550              -12.68401251                7.93967221              -15.49794242              -44.30565922
              31.76004410                6.57087086               90.73966106                0.00010000               16.19460285              -11.12572539              -28.20083203                4.44399531              -13.55831409              -70.10797875
              32.96429024                5.76457691               89.90284221                0.35954654               20.42461414              -12.84687050              -47.04141162                1.58298907               -6.60822276             -101.14087315
              22.92334286               12.92020760               95.60907121                1.00000000               -0.01735319                0.06634227                0.00315474                0.03359448                0.00105946                0.56720181
              23.92316933               12.35845448               95.19648135                0.93588425               -0.00444883               -0.00575573                0.01708484                0.04676059                0.00232931               -0.02066228
              24.92325388               11.79677538               94.78394516                0.00010000                6.59995346               -0.07406340                0.03318807                4.03868720               12.99765038               -0.61039278
              26.05516840               11.31510343               94.63116327                0.00010000               11.22689395               -2.27187157                8.97583372                8.34652537               24.47262101                6.30705591
              27.14779176               10.77264193               94.25873769                0.00010000                8.33293651               -3.30081685               10.78216388                7.15884364               13.50179433                6.36486890
              28.22182713               10.18923238               93.69457876                0.00010000                6.89262430               -3.63058017                8.33543821                7.80091432                5.16904997                1.15911376
              29.28564425                9.57645516               92.96746531                0.00010000                6.32203303               -3.59668375                3.10682997                8.75060357               -2.06163928               -8.30103283
              30.34826779                8.93381171               92.09896221                0.00010000                7.31477136               -3.39308824               -5.42798136                8.60153349               -9.37789092              -21.65691117
              31.43193967                8.24967119               91.11393464                0.00010000               11.04309963               -3.10375137              -19.05401858                6.45782461              -14.99007478              -39.12825578
              32.56912978                7.50989680               90.06711378                0.00010000               17.87059236               -1.93092855              -39.06925891                2.48158382              -13.10538865              -61.20683255
              33.78935152                6.71536218               89.06748980                0.35974481               22.02217419                1.11355715              -64.12359413                1.02609221               -6.36041026              -88.41803065
              23.48574338               13.92069343               95.46954386                1.00000000               -0.00783364                0.03458682               -0.00963636                0.02524108                0.00332211                0.54623963
              24.48566504               13.35841331               95.05400992                0.90657692               -0.00586117               -0.00335591                0.01936690                0.03816327                0.00649062               -0.03690821
              25.48562616               12.79622659               94.63854891                0.00010000                8.14077384               -0.04031481                0.05242405                2.42577675               14.54434302               -0.61290198
              26.64848052               12.28189774               94.51367739                0.00010000               14.62767929               -4.14609908                9.80091790                5.35416979               27.59417779                3.59442271
              27.77817974               11.72348411               94.13407533                0.00010000               12.17928140               -6.18985499               11.56661429                5.11270170               15.58215168                3.02694355
              28.89206615               11.13758333               93.53032899                0.00010000               10.76861063               -6.34923365                8.48259998                6.25746790                6.70107719               -1.20997400
              29.99355196               10.53169735               92.73452875                0.00010000                9.78458453               -5.07274332                2.07226874                7.30272143               -0.88133986               -8.54966615
              31.08775784                9.90227634               91.77229981                0.00010000                9.99588123               -2.73508023               -8.25572086                6.99558814               -8.47441547              -18.96180752
              32.19346958                9.23888278               90.67437013                0.00010000               12.81134729                0.66515079              -24.38344498                4.86799640              -14.38542936              -32.72694985
              33.34398478                8.53225229               89.50195424                0.00010000               19.02058799                5.44312375              -47.76014533                1.77917620              -12.81907464              -50.24091322
              34.57388134                7.78684805               88.37154205                0.35985292               22.98965545               11.64492275              -77.21466548                0.62227351               -6.31850459              -71.34017205
              24.04840790               14.92089933               95.32981915                1.00000000               -0.00084754                0.01347216               -0.02103100                0.01580830                0.00795500                0.51627340
              25.04839943               14.35838737               94.91139801                0.85615917               -0.00614538               -0.00191456                0.01941092                0.02688351                0.01638999               -0.05552979
              26.04828500               13.79596908               94.49315134                0.00010000                9.32974232               -0.01830315                0.06890759               -0.04062975               15.74382202               -0.62241807
              27.23499428               13.23218145               94.38919684                0.00010000               17.30376025               -5.71242678               10.25790528                0.96591393               30.04475542                1.08485842
              28.39436020               12.64884483               94.00609428                0.00010000               15.18844831               -8.56822910               12.01380202                2.31839779               17.38221361                0.03441895
              29.53876324               12.06224771               93.37527155                0.00010000               13.63227323               -8.43744290                8.54393826                4.56722598                8.06704875               -3.05217411
              30.66700567               11.47500030               92.53028652                0.00010000               12.11154412               -5.97904453                1.33980819                5.92222485                0.06911994               -8.13637469
              31.78099412               10.87911010               91.49944781                0.00010000               11.61589914               -1.87595755              -10.24832278                5.67930797               -7.96862074              -15.42745523
              32.89932365               10.26297420               90.31791427                0.00010000               13.78769511                3.72952993              -28.15506503                3.94603163              -14.28324924              -25.19239043
              34.05674803                9.61875928               89.05250338                0.00010000               19.66409101               10.89006727              -53.88300146                1.56337119              -12.95973601              -37.47997319
              35.29260547                8.94826063               87.82678437                0.35988176               23.58574431               19.24388278              -86.24131208                0.56413793               -6.48990961              -51.85654657
              24.61108348               15.92096287               95.18979897                1.00000000                0.00494833                0.00682370               -0.03448022                0.00581702                0.01586147                0.46988683
              25.61113296               15.35837502               94.76858954                0.82204094               -0.00320015                0.00004893                0.01143916                0.01437122                0.02116263               -0.08257425
              26.61101947               14.79586053               94.34749338                0.00010000               10.18950468               -0.01088306                0.07221371               -3.26394851               17.06305130               -0.56990970
              27.81492305               14.16764920               94.26703653                0.00010000               19.17309837               -7.49152827               10.62606969               -4.46122266               32.73917876               -0.96216679
              28.99448144               13.55211953               93.89006035                0.00010000               17.11660737              -10.89005147               12.55899218               -0.19838139               19.55615675               -2.17247258
              30.15725520               12.96883447               93.24700564                0.00010000               15.03263084               -9.82970701                9.01527111                3.26790882                9.63674435               -4.04525780
              31.29513406               12.41211646               92.37088401                0.00010000               12.80574452               -6.32584847                1.38412731                4.81988546                0.77301165               -6.82699508
              32.41337009               11.86475719               91.29306216                0.00010000               11.88034889               -1.03395546              -10.99111057                4.60150542               -8.02579786              -11.07958584
              33.53274104               11.31347337               90.05318063                0.00010000               13.82978433                5.89941466              -30.04286143                3.27763097              -14.78890835              -16.93892951
              34.68996578               10.75005364               88.72470996                0.00010000               19.67101782               14.44358950              -57.25145385                1.51175647              -13.44039421              -24.09267245
              35.92616139               10.17172571               87.43846432                0.35988013               23.61956140               24.23948587              -91.37949512                0.50911334               -6.83418221              -31.76101238
              25.17369994               16.92103581               95.04926639                1.00000000                0.00892589                0.01071014               -0.04800463               -0.00058312                0.03461336                0.35753358
              26.17378920               16.35838835               94.62544743                0.64971230                0.00159566                0.00302600               -0.00742505                0.00384988                0.10336932               -0.11834242
              27.17373185               15.79575142               94.20302736                0.00010000               10.78608141               -0.01508858                0.06051401               -7.52303837               19.21203782               -0.46714474
              28.38951082               15.08235089               94.16127261                0.00010000               20.77377263              -11.37715385               11.31353602               -7.29142982               36.80524194               -1.29258169
              29.58920730               14.43104380               93.80804479                0.00010000               17.73068297              -12.35591992               13.84675830               -1.30617716               23.06846924               -2.85850037
              30.74412448               13.86565357               93.16537718                0.00010000               13.91366779              -10.29976577               10.45024398                2.23821335               11.29047121               -3.31139378
              31.86748066               13.34848333               92.27236809                0.00010000               11.37714168               -6.20360197                2.65768539                3.15853721                0.81764431               -4.19079629
              32.97166732               12.85843099               91.16371226                0.00010000               10.60495800               -0.41030852              -10.13665908                2.91449443               -9.18729281               -5.91190898
              34.07957982               12.38096249               89.88399695                0.00010000               12.85317520                7.07363199              -29.82436328                2.08263913              -16.51408930               -8.47412215
              35.22873082               11.90763107               88.51478860                0.00010000               18.99318873               16.19256704              -57.82605902                1.04891454              -14.67758187              -11.48294626
              36.45944359               11.43305035               87.20040812                0.35995109               23.07127722               26.87249741              -92.81815140                0.17635146               -7.58430596              -13.44626883
              25.73636674               17.92117707               94.90710274                1.00000000                0.01276035                0.01412664               -0.05595855               -0.00747285                0.17187108                0.27061549
              26.73649434               17.35843554               94.48191018                0.76611485                0.01147135                0.00471988               -0.02332156               -0.01040134                0.30004229               -0.13746629
              27.73659616               16.79555876               94.05932506                0.35995680               14.86538704               -0.01926679                0.05369057              -14.63003961               24.28525407               -0.43308781
              29.03380208               15.94010612               94.11353943                0.36097482               22.42295263              -14.22447646               13.81671747              -10.09875570               47.29851482               -5.18208923
              30.18505522               15.30500113               93.79246007                0.36055257               12.53889306              -12.60426730               16.99934715                0.72144307               27.29474112               -5.37445614
              31.28457994               14.76283916               93.15651322                0.36042649                9.02360807              -10.28144131               13.67057605                3.19771061               11.67898040               -4.88379737
              32.36552738               14.28804442               92.25163448                0.36004898                7.73004347               -6.04389054                5.69370455                4.49026506               -1.18086388               -4.52746771
              33.43918081               13.85655102               91.11988115                0.35955914                7.98331829               -0.18799756               -7.33227280                5.09642925              -12.60976272               -4.56903686
              34.52519374               13.45494601               89.81001135                0.35935896               10.98377019                7.39835205              -27.29613550                5.42909063              -20.89785748               -4.78343334
              35.65885622               13.07390498               88.40683875                0.35889495               17.68280592               16.62739110              -55.72958290                5.72402166              -18.82165685               -4.79546792
              36.87884986               12.70917566               87.07568237                0.67989571               21.99936464               27.61253099              -91.09944982                5.46769480              -11.23797563               -2.43996258
              20.52703329                8.06084809               97.30857946                1.00000000               -0.01109360               -0.00305955                0.12614471               -0.04144019               -0.26651107                0.29064091
              21.52692236                7.50109896               96.90655606                1.00000000                0.02520580               -0.02964684                0.08523420               -0.05697495               -0.33709863                0.04000595
              22.52753741                6.94181052               96.50288329                1.00000000                0.07268655               -0.06512904                0.07364130               -0.03136715               -0.36406345               -0.03485786
              23.52837609                6.38426277               96.09989146                0.83082144                0.10283012               -0.03903491                0.05877163                0.06852308               -0.32489952               -0.09600599
              24.52959401                5.82903620               95.69662426                0.77929093                0.08686466               -0.01412258                0.07693397                0.04876848               -0.27293809               -0.05465349
              25.53011338                5.27529357               95.29453176                0.73053822                0.02947207                0.00508676                0.06143006                0.03646874               -0.13811859               -0.05502897
              26.53018345                4.72276764               94.89362258                0.68787078               -0.00721915                0.02499123                0.03554739                0.02805446               -0.02186135               -0.04821325
              27.52996900                4.17119878               94.49357988                0.65774734               -0.02080105                0.03633196               -0.00878090                0.00940133                0.02405816               -0.02616834
              28.52976743                3.62022229               94.09359799                0.67434186                0.00125825                0.03954938               -0.08930777               -0.00346809               -0.03311484               -0.01947433
              29.52999416                3.06948712               93.69275979                0.72106694                0.04606913                0.04706661               -0.20086801               -0.00702328               -0.09418479               -0.04675690
              30.53068882                2.51905298               93.29184888                0.90300030                0.06946510                0.05652363               -0.30483032               -0.02815821               -0.07286254               -0.18704582
              21.08636802                9.06081750               97.16684245                1.00000000               -0.04966327                0.04412952                0.11883198               -0.04691391               -0.03565839                0.41258640
              22.08587139                8.50080249               96.76472529                1.00000000               -0.03630958               -0.01258392                0.07566337               -0.06576945               -0.03103861                0.05787286
              23.08564183                7.94115923               96.36263743                1.00000000               -0.02114550               -0.06462926                0.05565322               -0.00579268                0.00548477               -0.11948717
              24.08544848                7.38387242               95.96115633                1.00000000               -0.05377676                0.01704468                0.04445552                0.04526345                0.07689023               -0.06155909
              25.08456630                6.82889497               95.56042411                1.00000000               -0.09180657                0.02783953                0.03330323                0.04362150                0.14580749               -0.03462781
              26.08361235                6.27534443               95.16026917                0.96980588               -0.10274543                0.04372006                0.00057244                0.03501537                0.22630843               -0.03975020
              27.08251139                5.72301755               94.76118372                0.89784886               -0.11383323                0.05425299               -0.01037521                0.03131995                0.29906100               -0.03682687
              28.08133569                5.17156210               94.36297844                0.84783878               -0.09614044                0.05305411               -0.02502385                0.01399544                0.30476505               -0.02143277
              29.08058858                4.62061778               93.96468751                0.83194980               -0.04135503                0.04096840               -0.05577563                0.00324010                0.23122826               -0.01918839
              30.08050859                4.06995779               93.56534126                0.77464994                0.01263985                0.03703002               -0.10149308                0.00048197                0.12236754               -0.03988816
              31.08084138                3.51961822               93.16472324                0.82685977                0.03327921                0.03988711               -0.16483428               -0.01436835                0.07627576               -0.15015466
              21.64612503               10.06173068               97.02735220                1.00000000               -0.08597957                0.11782471                0.08770582               -0.01877623                0.00553995                0.55183344
              22.64526523                9.50084728               96.62316648                1.00000000               -0.08867002                0.00963943                0.05606272                0.00603001                0.08701802                0.06155159
              23.64435163                8.94051794               96.22068936                0.00010000               -0.18598068               -0.13205369                0.03211673                0.28732658                0.40974178               -0.42799946
              24.64154562                8.38460366               95.82307970                0.00010000               -0.26785996                5.20083318                0.01224964                6.12191787                0.58297722                8.65773536
              25.63899443                7.82959299               95.42445497                0.00010000               -0.24272520                5.71151979               -0.01460438                8.77070978                0.54050758               10.17551563
              26.63669111                7.27616797               95.02621301                0.00010000               -0.22011223                4.59385730               -0.05542359               10.79247989                0.59730005                6.51900574
              27.63459218                6.72385270               94.62892238                0.00010000               -0.20212199                2.37665408               -0.04830359               12.26281911                0.63603173               -1.04805151
              28.63264867                6.17225986               94.23249500                0.00010000               -0.15778184               -0.91211656               -0.03964078               13.00644652                0.60900434              -12.39698586
              29.63143655                5.62104166               93.83581395                0.00010000               -0.08226523               -5.81894270               -0.03476263               13.69617271                0.49833526              -27.97951899
              30.63100337                5.07022772               93.43778789                0.00010000               -0.01779747              -13.25520338               -0.05198656               17.17209287                0.31844894              -47.38394657
              31.63108060                4.51985072               93.03756846                0.35814966                0.00772276              -30.77731225               -0.10337896               30.22452333                0.22937221              -67.05741333
              22.20775930               11.06317399               96.88810513                1.00000000               -0.05545680                0.13732811                0.05431338                0.03738091                0.01398396                0.57065728
              23.20720474               10.50099528               96.48131535                1.00000000               -0.00636604               -0.00242739                0.03293650                0.05195602                0.00312345                0.02488126
              24.20763198                9.93851816               96.07434484                0.00010000                5.58035263               -0.17152692                0.00928366                5.68738108                9.55731162               -0.60588038
              25.31881179                9.48788908               95.85854500                0.00010000                8.03921027                6.44381130                5.38832365               15.93038436               18.47817320               17.97810717
              26.36841619                8.94312537               95.49218812                0.00010000                4.31952267                7.73558404                5.64306471               16.67934310               11.59234496               20.37217376
              27.40520224                8.36722158               95.02267921                0.00010000                3.16298426                6.04872739                4.39004867               19.90256859                8.44651745               12.89255290
              28.43167587                7.77055063               94.47578543                0.00010000                1.95367071                2.59446097                3.10175089               22.57775965                5.90026710               -1.89343024
              29.44427566                7.15331977               93.85406475                0.00010000                1.24341508               -2.66814984                1.09392708               23.52329017                0.62594358              -23.71894319
              30.45654418                6.50423893               93.14770615                0.00010000                4.04328607              -10.62962003               -4.26360796               22.94259412               -7.69752925              -53.65156716
              31.52514138                5.80485372               92.36358340                0.00010000               16.47708373              -23.84172574              -16.10203463               17.23510330              -13.02701957              -92.23926863
              32.78608585                4.90407197               91.57223183                0.35828278               26.09444726              -44.97596357              -34.25806879               19.64949011               -7.20251358             -143.53617394
              22.77123007               12.06447724               96.74871747                1.00000000               -0.02698857                0.10700114                0.02847130                0.03908964                0.00036603                0.56121740
              23.77096018               11.50079873               96.33898557                1.00000000               -0.00123120               -0.01484345                0.01779664                0.05625208                0.00306194               -0.00331431
              24.77120544               10.93708740               95.92928914                0.00010000                9.22929566               -0.11923957                0.00350934                7.04536935               14.65197678               -0.55870432
              25.95554610               10.51347989               95.81246623                0.00010000               16.10216743                0.29014112                7.91842258               15.65846085               28.97915359               12.88043305
              27.09324879                9.98430467               95.45842376                0.00010000               12.58855640                0.80921812                8.20118847               15.76225502               20.11064668               14.29910776
              28.20731722                9.39714251               94.92429836                0.00010000               10.34001956                0.06865761                5.81254806               19.14574586               15.97567376                7.47730895
              29.30004918                8.77574192               94.25066807                0.00010000                8.10544777               -1.51681669                2.97822531               22.77381564               12.53910715               -5.37362829
              30.36942618                8.11889687               93.44547761                0.00010000                6.93526464               -4.08596187               -1.50314118               24.46851870                5.53200960              -23.93447700
              31.43875448                7.40844926               92.50170863                0.00010000               10.32231065               -8.22714165              -11.38646029               22.14706260               -4.72427448              -49.01363206
              32.57587239                6.59339321               91.43953334                0.00010000               19.34397131              -14.67612748              -30.86159329               13.76854595               -9.26135503              -82.86844192
              33.82563390                5.62033145               90.37553455                0.35838129               24.97615107              -16.78250926              -59.81513869                6.03224263               -5.18943319             -128.77113474
              23.33589812               13.06531401               96.60916008                1.00000000               -0.01784992                0.06487359                0.01107732                0.03674815                0.00445212                0.54754831
              24.33571962               12.50069841               96.19664430                0.96079175               -0.00199531               -0.00839896                0.01456979                0.04904157                0.00841841               -0.01217470
              25.33585821               11.93613337               95.78419157                0.00010000               12.45220570               -0.07519422                0.01623359                6.14609244               17.71533084               -0.57194544
              26.58476374               11.49369190               95.72570175                0.00010000               23.20702236               -3.56717139                9.08927069               13.48816276               35.52046161                8.67878226
              27.79999866               10.95930973               95.36744538                0.00010000               20.59580891               -4.98735134                9.09949618               13.20053894               25.49658333                9.11463762
              28.99667991               10.36859473               94.77574401                0.00010000               18.26995854               -5.34007791                5.79430968               16.13322303               21.24586292                3.37672719
              30.16539783                9.74021430               93.99805374                0.00010000               15.21293879               -5.25149577                1.48502366               19.32668160               17.74278316               -7.14660049
              31.30093869                9.07160053               93.04702500                0.00010000               12.97956265               -5.02996105               -5.30371964               20.19784157               10.41059923              -22.31599753
              32.42498909                8.33969609               91.92053042                0.00010000               14.38457060               -4.78218145              -18.79545998               16.83408507               -0.14157470              -43.12729871
              33.58863010                7.51133117               90.64953101                0.00010000               21.39325679               -3.06028658              -43.43726066                8.62933611               -5.99807012              -71.39340624
              34.85285422                6.56842179               89.35167711                0.35873634               26.42241199                2.63390626              -80.08183361                4.10511032               -3.41094974             -109.50448310
              23.90119624               14.06577472               96.46950485                1.00000000               -0.00745789                0.03117446               -0.00123118                0.02792349                0.00789323                0.53126347
              24.90112166               13.50063075               96.05419537                0.91117044               -0.00312201               -0.00585718                0.01696999                0.04143040                0.01443502               -0.02892876
              25.90113380               12.93558352               95.63899510                0.00010000               15.05056646               -0.03931924                0.03733006                3.61582536               19.61721161               -0.58089932
              27.20213299               12.44213646               95.61561503                0.00010000               29.06114737               -6.37493354                9.53244113                8.53074983               39.63566397                4.83058760
              28.48235675               11.88455764               95.24890032                0.00010000               27.34720655               -9.43073660                9.30092915                9.24601414               28.84305241                4.48861859
              29.74907712               11.29034096               94.61082077                0.00010000               25.06101343               -9.76206012                5.32958201               12.25180604               24.52475375                0.02666854
              30.98357701               10.67071200               93.75240583                0.00010000               21.24120464               -8.19433412               -0.11560199               14.94094322               21.01484185               -7.91857324
              32.17390121               10.01829765               92.68922909                0.00010000               17.60642626               -5.29760673               -8.69933943               15.12970227               13.48746746              -19.56316868
              33.33570554                9.31280563               91.42358007                0.00010000               17.29161059               -0.92748486              -24.83387418               11.72654495                2.33862085              -35.73596530
              34.51973342                8.53218748               89.99092761                0.00010000               22.89246729                5.77153847              -53.19658559                5.61490428               -4.65515662              -57.66996890
              35.79355488                7.67300958               88.51412417                0.35846559               27.38214609               15.60048988              -94.78309875                2.51615500               -2.91818570              -85.88985228
              24.46674452               15.06593750               96.32966685                1.00000000               -0.00050864                0.00893787               -0.01235618                0.01744500                0.01372005                0.50288207
              25.46673943               14.50058127               95.91158391                0.83406040               -0.00377508               -0.00358584                0.01754927                0.02977521                0.02855342               -0.05466490
              26.46666901               13.93534698               95.49377250                0.00010000               16.98325873               -0.01496282                0.05688057               -0.16415744               20.98857029               -0.60167278
              27.80640460               13.36619323               95.49476983                0.00010000               33.50227165               -8.74385958                9.68836999                1.64597595               42.60830748                1.35915968
              29.13671445               12.77069500               95.12397190                0.00010000               32.45785366              -13.11362484                9.34249459                4.48232751               31.37593817                0.38345369
              30.45556168               12.17335353               94.45486739                0.00010000               29.97727792              -13.20090810                5.01399260                8.65946212               26.85940142               -2.67584431
              31.73626001               11.57632761               93.53930956                0.00010000               25.29387151              -10.18535416               -1.16875532               11.29310147               23.04719654               -7.97087211
              32.96143911               10.96564840               92.39468648                0.00010000               20.46850736               -5.07768114              -10.99046533               11.23401770               15.02235895              -15.97353689
              34.14563015               10.32114640               91.02697211                0.00010000               18.96425652                2.12541149              -28.94280815                8.44315432                3.22074477              -27.30869691
              35.34072424                9.62676194               89.47651452                0.00010000               23.79514867               11.86817013              -59.77014906                3.98718347               -4.46254557              -42.45877480
              36.62153313                8.88043158               87.87352757                0.35849816               28.08088887               24.02170011             -104.40768863                1.77163548               -2.98769714              -61.24864564
              25.03225761               16.06595347               96.18951373                1.00000000                0.00500720                0.00243916               -0.02493708                0.00645122                0.02101937                0.45804904
              26.03230768               15.50055904               95.76869003                0.76989482               -0.00094647               -0.00030847                0.00866463                0.01659730                0.03608333               -0.09322925
              27.03223868               14.93528426               95.34815753                0.00010000               18.36984046               -0.00704899                0.06333754               -5.11139728               22.45104540               -0.56845915
              28.39970449               14.26725927               95.37549811                0.00010000               36.63021597              -11.55947156                9.83800417               -6.74758461               45.77143018               -1.49543673
              29.76484300               13.62228515               95.01243470                0.00010000               35.84646277              -16.76008605                9.64398836                0.39314106               34.23493542               -2.71504560
              31.11663375               13.02632279               94.33052593                0.00010000               32.61505863              -15.52721978                5.30747739                6.03838330               29.19697800               -4.35314424
              32.41714417               12.46700492               93.37970609                0.00010000               26.85645175              -11.17292714               -1.25134598                8.58172661               24.42674097               -7.02735826
              33.65376278               11.91674402               92.18022195                0.00010000               21.31554546               -4.60178008              -11.82724648                8.33848716               15.50864951              -11.59487086
              34.84345508               11.35531386               90.74248832                0.00010000               19.32145629                4.23123967              -30.90878096                6.25257643                3.09219146              -18.35552217
              36.04019191               10.76955088               89.11363071                0.00010000               23.90966155               15.63599679              -63.23847653                3.16197188               -4.77499537              -27.13658176
              37.32164831               10.15344358               87.43155920                0.35881185               28.14564053               29.30315708             -109.72011785                1.32855879               -3.25575614              -37.30521688
              25.59766242               17.06598629               96.04885799                1.00000000                0.00781748                0.00638770               -0.03539515                0.00024243                0.03182430                0.35135727
              26.59774059               16.50057510               95.62535076                0.59295044                0.00392110                0.00311243               -0.01096927                0.00501739                0.11727883               -0.13320750
              27.59774084               15.93520600               95.20357114                0.00010000               19.33557175               -0.01829019                0.05062084              -11.71676187               24.92799339               -0.47433366
              28.98445203               15.13500380               95.27608397                0.00010000               39.38864529              -17.66363910               10.37666392              -11.24048872               50.61400856               -2.05628785
              30.38551374               14.43549328               94.94300435                0.00010000               37.35787741              -18.99124772               10.84412853               -1.53840068               38.72803791               -3.79730946
              31.73160957               13.86280913               94.26316179                0.00010000               31.59797827              -16.31917428                6.69418659                3.98638467               31.51590607               -3.83327093
              33.01747331               13.35286907               93.29405043                0.00010000               25.41451688              -11.21890143                0.02407059                5.35761928               24.91248365               -4.47186906
              34.23989991               12.87361280               92.05983264                0.00010000               20.02007586               -4.09001917              -10.90973751                4.98960085               14.67257827               -6.26959357
              35.41787483               12.40577119               90.57618373                0.00010000               18.29670217                5.34995208              -30.53039547                3.74607140                1.62700899               -9.24786928
              36.60583395               11.93948188               88.89884095                0.00010000               23.12220418               17.37573269              -63.58851558                2.02826432               -5.80567211              -12.94640754
              37.88031891               11.46649472               87.17957053                0.35891254               27.44849544               32.14589715             -110.98507516                0.58680737               -3.83482234              -15.84824096
              26.16308484               18.06608123               95.90664030                1.00000000                0.01034760                0.00949420               -0.03768229               -0.00375217                0.16303269                0.26889674
              27.16318831               17.50062128               95.48166811                0.73652000                0.01949505                0.00461880               -0.02134698               -0.01336640                0.31713064               -0.15169868
              28.16347474               16.93491845               95.05982888                0.35932114               25.57095651               -0.02875481                0.05510430              -22.75834992               31.35616015               -0.45509638
              29.67460744               15.91398649               95.25493211                0.36042774               42.13974596              -22.10173167               13.11394108              -15.60737144               63.77741793               -7.34256384
              31.00626966               15.24246019               94.96015737                0.36120234               30.21891026              -19.30330861               14.08714448                1.37323247               43.58739736               -7.14824468
              32.27898565               14.69993931               94.28726814                0.36089184               25.36116191              -16.28698247                9.88632680                4.74594222               31.88426219               -6.14125283
              33.51349289               14.24262689               93.30448298                0.36029705               21.08335157              -11.02421828                3.06176034                6.35217521               22.86978589               -5.57842988
              34.70065268               13.83494364               92.04553365                0.35927004               16.95072675               -3.86691568               -7.91626018                7.05957729               11.37309353               -5.68084492
              35.85250743               13.46231290               90.53008987                0.35838869               15.96904908                5.65417072              -27.48733879                7.56935509               -2.67458171               -6.14800901
              37.02003366               13.11706553               88.81533660                0.35827036               21.34256691               17.75836564              -60.61741922                8.12240173              -10.12174020               -6.31086513
              38.27935877               12.79636152               87.07550087                0.67917620               25.93251072               32.98667962             -108.36027305                7.83358449               -7.90838562               -3.64667014
              20.92681754                8.20539115               98.30970612                1.00000000                0.00263252                0.00892682                0.09082336               -0.04106486               -0.22375411                0.25942733
              21.92684386                7.64335626               97.90727615                1.00000000                0.04189223               -0.02423780                0.05479144               -0.06168407               -0.27595974                0.03585717
              22.92765538                7.08186412               97.50352948                1.00000000                0.09116535               -0.06531348                0.05543733               -0.03757411               -0.29583046               -0.02179098
              23.92866717                6.52230135               97.10038563                0.87464680                0.11024045               -0.03834483                0.04437509                0.05243667               -0.24890594               -0.05901848
              24.92986019                5.96498316               96.69729291                0.76633446                0.09152755               -0.00422584                0.05822098                0.04210509               -0.20144443               -0.03875790
              25.93049772                5.40929768               96.29512862                0.68680878                0.04093279                0.00906058                0.05970196                0.02928527               -0.08253390               -0.05420112
              26.93067884                4.85498041               95.89406667                0.62925102               -0.00501334                0.02552471                0.06189143               -0.01240694                0.02924149               -0.02114824
              27.93039745                4.30169088               95.49368826                0.58675199               -0.03518616                0.03321803                0.04451403               -0.06066364                0.04917192                0.01827639
              28.92997512                3.74882865               95.09285080                0.58534415               -0.02000369                0.03834969               -0.04064221               -0.08661105               -0.06665448                0.02161279
              29.92999738                3.19589077               94.69048075                0.61308566                0.04906594                0.06718660               -0.23796948               -0.07471408               -0.18625390               -0.05048753
              30.93095644                2.64318270               94.28789450                0.83412260                0.09590622                0.11169609               -0.49410601               -0.09607805               -0.17990786               -0.34682197
              21.48844178                9.20548042               98.16794921                1.00000000               -0.04512438                0.05847674                0.09627553               -0.04833552               -0.01959017                0.37424117
              22.48799053                8.64311388               97.76540740                1.00000000               -0.03173425               -0.00758324                0.05900430               -0.07074345               -0.00175962                0.05058505
              23.48780709                8.08121099               97.36312229                1.00000000               -0.01792585               -0.06709554                0.04365422               -0.00621383                0.04987919               -0.10856166
              24.48763202                7.52191790               96.96151184                1.00000000               -0.05120087                0.02092306                0.03112707                0.04012007                0.12286498               -0.03327842
              25.48678307                6.96494090               96.56063183                0.99513548               -0.09200368                0.03818224                0.00687123                0.03680934                0.18410822               -0.02075010
              26.48579194                6.40938828               96.16013916                0.80822970               -0.12124501                0.05633408               -0.02228887                0.03037547                0.27975364               -0.04015354
              27.48435817                5.85523566               95.76108862                0.68616458               -0.14626239                0.06673310               -0.01520603               -0.00052484                0.37809925               -0.01469991
              28.48286669                5.30202306               95.36277384                0.60049567               -0.11745536                0.05966244               -0.03364608               -0.04008839                0.41379469                0.01284654
              29.48200907                4.74921215               94.96418647                0.55359621               -0.03967399                0.04170028               -0.06934427               -0.06120911                0.38486566                0.00548855
              30.48207322                4.19656263               94.56431505                0.49739504                0.03473314                0.04754369               -0.11221651               -0.05175809                0.29301852               -0.08758503
              31.48270373                3.64429966               94.16268986                0.68355885                0.06305151                0.07280939               -0.28539962               -0.05182170                0.26444577               -0.39393869
              22.05058390               10.20656068               98.02818731                1.00000000               -0.08854765                0.13395275                0.07151747               -0.01648147                0.01451027                0.50591891
              23.04969842                9.64320459               97.62369856                1.00000000               -0.09284089                0.01277360                0.04942428                0.01160753                0.10178094                0.04678601
              24.04872708                9.08052221               97.22098322                0.00010000               -0.19793826               -0.14684908                0.03139798                0.32228520                0.42819156               -0.42112062
              25.04573966                8.52271981               96.82313340                0.00010000               -0.28005445                7.95865831                0.00489185               10.40614823                0.60243122               11.45243546
              26.04312599                7.96574680               96.42418444                0.00010000               -0.24645955                8.64362281               -0.04137994               16.88544223                0.55994030               12.77109000
              27.04081047                7.41042436               96.02543159                0.00010000               -0.25462097                7.26282999               -0.09006994               22.83699225                0.66856771                8.35482022
              28.03803357                6.85631507               95.62841717                0.00010000               -0.25956361                4.69488157               -0.06164270               27.80574041                0.75061971                0.38332270
              29.03561919                6.30288413               95.23206898                0.00010000               -0.19111027                0.86647714               -0.05907785               30.48955282                0.77448896              -11.45541676
              30.03421137                5.74966266               94.83550072                0.00010000               -0.08722426               -5.22102377               -0.05907369               31.11791040                0.73700672              -29.43588971
              31.03387471                5.19684164               94.43730879                0.00010000                0.01172955              -15.53410730               -0.10521553               33.58529586                0.60905940              -55.53966761
              32.03444596                4.64463888               94.03619153                0.35734925                0.05712495              -44.03448170               -0.49982191               49.83237260                0.75235969              -86.79648414
              22.61482433               11.20815947               97.88863435                1.00000000               -0.05631712                0.14876489                0.04434428                0.04361202                0.01875643                0.53336545
              23.61426116               10.64336935               97.48165123                1.00000000               -0.00433754               -0.00356987                0.03244559                0.06016471                0.00947863                0.01096833
              24.61473758               10.07827400               97.07447458                0.00010000                9.81346164               -0.19175858                0.02001371                8.50274386               12.33420205               -0.59888593
              25.81053039                9.68109107               96.91389837                0.00010000               16.10248958                9.75336345                5.05725558               26.08323531               25.88151330               23.81577833
              26.93678737                9.13781335               96.54317686                0.00010000               12.07165621               11.72392689                2.63906680               31.49702196               20.21319039               25.50930322
              28.05196351                8.55464488               96.05813733                0.00010000               10.56129227                9.81259757                0.44781754               41.88198629               22.79819274               16.65681574
              29.14801322                7.94913329               95.50305157                0.00010000                7.36733266                5.87875348                0.84678910               50.96981234               25.07408204                1.07708359
              30.19931017                7.31935260               94.87180382                0.00010000                3.11982745               -0.21979070                1.74525850               55.42910069               21.51668425              -21.66284935
              31.21040976                6.64479167               94.11838493                0.00010000                2.97463696              -10.09008848               -0.55861312               54.20867404                8.85684896              -55.61373929
              32.25880291                5.88588049               93.20243958                0.00010000               18.66734661              -28.46436122              -13.88358672               39.29673622               -7.30060658             -105.42464132
              33.58375670                4.76361002               92.18470895                0.35744053               32.49537895              -61.74649741              -45.79642747               35.47561424               -6.22211604             -184.58804561
              23.18103638               12.20953598               97.74900831                1.00000000               -0.02491953                0.11058552                0.02432375                0.04167759                0.00269842                0.53566566
              24.18078718               11.64313319               97.33916610                1.00000000                0.00119314               -0.01840789                0.01754802                0.05980500                0.00631641               -0.00884972
              25.18106024               11.07668704               96.92934144                0.00010000               16.35389149               -0.13217478                0.01023648               10.42096794               18.58835206               -0.54362393
              26.50786501               10.71778708               96.89108763                0.00010000               30.92261861                0.22196064                6.39473462               24.76658638               40.24392278               16.29034495
              27.79951261               10.20022534               96.52854838                0.00010000               27.96326207                1.33223810                2.57249583               27.98915163               35.07745996               17.62422602
              29.06713026                9.60667631               95.96542765                0.00010000               24.66047436                0.77998196               -0.91339488               36.89186574               39.70498267                9.90279863
              30.29272210                8.97389014               95.27018959                0.00010000               19.07062847               -0.86739497               -1.45541183               45.65088503               43.37294159               -3.67664766
              31.44854282                8.29848831               94.43409876                0.00010000               12.95674317               -3.78061631               -2.16834012               50.43318354               38.71621575              -23.29891620
              32.55185696                7.54786089               93.39892783                0.00010000               12.62241297               -8.97689510               -8.55817604               47.26292582               22.98251884              -51.32663687
              33.70099108                6.62755442               92.12242919                0.00010000               21.83211030              -17.76230362              -30.49470958               31.05334142                5.68147908              -93.35666988
              34.98849917                5.40970893               90.70653944                0.35766917               28.75080867              -18.84635685              -75.06199480               14.86963295                1.47477876             -157.70349565
              23.74846345               13.21037118               97.60929275                1.00000000               -0.01572515                0.06379689                0.01176861                0.03719231                0.00718064                0.52847153
              24.74830620               12.64300119               97.19677274                1.00000000                0.00198001               -0.01190314                0.01104061                0.04678157                0.01095527               -0.00778926
              25.74850305               12.07563051               96.78426983                0.00010000               21.70088088               -0.08296793                0.00701722                8.90097874               22.07574555               -0.54158420
              27.18232382               11.68553028               96.81294868                0.00010000               42.95890590               -5.41728349                6.29368810               20.61255860               48.64988080               10.50215334
              28.60768117               11.16445812               96.44072761                0.00010000               41.69061031               -7.17476906                1.77110512               22.25183405               43.45088172               11.08838728
              30.01613602               10.57024452               95.81046495                0.00010000               38.07688717               -7.38414966               -2.52322009               28.96263670               49.37402244                5.16708273
              31.36921891                9.93178539               94.99716579                0.00010000               30.89335349               -7.09100381               -4.18230734               35.81070577               53.69137946               -5.64471790
              32.63400309                9.24374028               93.99288781                0.00010000               22.86916330               -6.75684105               -6.86286323               38.56292524               48.65469463              -21.44481226
              33.82660218                8.46525377               92.73802544                0.00010000               19.20092972               -6.50695519              -16.85299164               33.67903277               32.02090904              -44.26090915
              35.01802169                7.53063441               91.19836856                0.00010000               24.51190688               -3.78425076              -44.39588233               19.03877900               11.56366098              -77.94281958
              36.31684032                6.38668288               89.46585313                0.35787371               29.88186287                6.87458064              -97.11200715                9.63611321                4.51399105             -127.46302885
              24.31652020               14.21081192               97.46951924                1.00000000               -0.00567133                0.02884549                0.00227434                0.02755859                0.01191247                0.51393343
              25.31646349               13.64289513               97.05434932                0.93120638                0.00152639               -0.01008952                0.01247152                0.03872078                0.02054828               -0.02170404
              26.31655073               13.07502768               96.63929551                0.00010000               25.74125450               -0.04286531                0.02119380                5.14568554               24.03895049               -0.54665103
              27.83128858               12.60944141               96.70432621                0.00010000               52.16421608               -9.30243590                5.90364540               12.81697380               53.24403467                5.46840653
              29.35983505               12.05672996               96.32009392                0.00010000               52.38835675              -13.57392949                0.91036070               15.18260712               47.76264088                5.39369437
              30.87905571               11.45899332               95.63692063                0.00010000               48.78027063              -14.06094300               -3.86939040               20.99088494               54.15747286                1.18295327
              32.33544046               10.83207007               94.73221672                0.00010000               40.36386177              -12.17513979               -6.38501560               26.16348851               58.75124891               -6.58283027
              33.68633295               10.16335149               93.59831302                0.00010000               30.15515095               -8.75468838              -10.63560263               27.27136904               53.52905597              -18.37065032
              34.93854348                9.41772178               92.17769264                0.00010000               23.70023005               -3.36808794              -23.12473410               22.19131143               35.93611143              -35.63907052
              36.16033755                8.55186940               90.43802253                0.00010000               26.52905044                5.81231349              -54.29850322               11.61993632               13.56473745              -60.88721278
              37.46912449                7.54720055               88.47588007                0.35812732               30.87869419               20.95849023             -111.71506672                5.63237007                5.21689423              -95.73569187
              24.88484820               15.21094809               97.32957203                1.00000000                0.00166591                0.00603987               -0.00739912                0.01668382                0.01799155                0.48625813
              25.88486486               14.64279940               96.91174900                0.81229924                0.00111445               -0.00757724                0.01445929                0.02862246                0.03889310               -0.05572396
              26.88487049               14.07477320               96.49428896                0.00010000               28.60480806               -0.01674911                0.04621079               -0.33181329               25.37480747               -0.58671582
              28.45696102               13.49948156               96.58296424                0.00010000               58.84554592              -12.65075463                5.46735552                2.64961156               56.38877348                1.22162854
              30.06178140               12.89297953               96.19294417                0.00010000               60.18262981              -18.89718929                0.27683048                7.69306933               50.80656478                0.45883799
              31.66061361               12.28902566               95.47555140                0.00010000               56.31745528              -19.27580650               -4.69746926               14.50853638               57.23082758               -2.09975105
              33.18813051               11.68828259               94.50691142                0.00010000               46.65825723              -15.76208213               -7.74191396               18.90766174               61.56254434               -6.98980063
              34.59377876               11.06864651               93.27963850                0.00010000               34.68899960               -9.78189427              -13.02508379               19.20186600               55.76061193              -14.90270125
              35.88191050               10.39789201               91.73905810                0.00010000               26.35814469               -1.02852379              -27.10158185               15.04334005               37.29173089              -26.82616484
              37.12094165                9.64688068               89.85710040                0.00010000               27.84574614               11.65630850              -60.42674821                7.65090595               13.86768302              -43.93154743
              38.43882542                8.80585269               87.73863059                0.35774940               31.78837726               28.61889336             -120.46796235                3.70043996                5.13689673              -66.62334325
              25.45315126               16.21093272               97.18930023                1.00000000                0.00595717               -0.00058573               -0.01735653                0.00622139                0.02384014                0.44304653
              26.45321083               15.64274359               96.76876283                0.70150964                0.00405245               -0.00266411                0.00544622                0.01583717                0.05236216               -0.10876095
              27.45323230               15.07469270               96.34876013                0.00010000               30.64318297               -0.00898992                0.05232659               -7.48146259               26.84683930               -0.58271996
              29.06607449               14.35642632               96.46379661                0.00010000               63.54600160              -16.88452162                5.26718801               -9.52548751               59.83397163               -2.34199426
              30.72415234               13.67878617               96.08294012                0.00010000               65.39244426              -24.28022931                0.29503910                1.59798589               54.28351112               -3.26455308
              32.37392337               13.07347719               95.35315519                0.00010000               60.49102586              -22.83898664               -4.57673542               10.04125803               60.20837063               -4.26481146
              33.93397285               12.51682842               94.34585709                0.00010000               49.34187398              -17.70067708               -7.92296153               13.75826943               63.40973935               -6.44293321
              35.36076085               11.96771361               93.05651723                0.00010000               36.36016279              -10.04595435              -13.86545151               13.47648551               56.59658296              -10.92128602
              36.66117611               11.39715131               91.43500501                0.00010000               27.23170701                0.52557727              -28.91564389               10.42415731               37.39393007              -18.07623291
              37.90539499               10.78499557               89.45994043                0.00010000               28.20065844               15.00581710              -63.53965414                5.53580186               13.59699205              -28.07063355
              39.22518928               10.11957841               87.24406196                0.35789445               31.97942867               33.31455856             -125.19372006                2.58141301                4.86169777              -40.64540093
              26.02135088               17.21093638               97.04855849                1.00000000                0.00707368                0.00288315               -0.02604706                0.00200076                0.02558977                0.34146596
              27.02142162               16.64274612               96.62522805                0.51128834                0.01038113                0.00116439               -0.01132513                0.00472907                0.13325791               -0.15116526
              28.02155850               16.07459340               96.20403978                0.00010000               32.04680873               -0.03756659                0.03192302              -17.18659663               29.57098104               -0.50006501
              29.66235779               15.16179113               96.36880589                0.00010000               67.75658732              -26.04338731                5.63885959              -16.21355034               65.42090266               -3.04914155
              31.37669025               14.40737494               96.02492736                0.00010000               68.05193638              -27.55279935                1.44161403               -1.46152016               59.84961442               -4.66652274
              33.02339652               13.83224593               95.29926091                0.00010000               59.61846143              -24.08379033               -3.16437293                6.54551597               63.06899433               -3.96266568
              34.56905948               13.33426905               94.27284950                0.00010000               47.97945319              -18.06088500               -6.68462399                8.30831144               64.24711575               -4.18379026
              35.98298558               12.86772742               92.94551751                0.00010000               35.20261034               -9.80907544              -12.95541107                7.72047228               56.10597200               -5.97081793
              37.27311169               12.40840356               91.27338904                0.00010000               26.31224990                1.35111220              -28.40017773                5.99963280               36.30276677               -9.23846327
              38.50923058               11.94699703               89.24301829                0.00010000               27.40881549               16.48504081              -63.63203040                3.46778634               12.95706700              -13.60224441
              39.82128799               11.47214386               86.98070662                0.35791251               31.20574132               36.24015792             -126.40663035                1.27289998                4.68233774              -17.84127229
              26.58957178               18.21099038               96.90634909                1.00000000                0.00765987                0.00540020               -0.02135781               -0.00026015                0.14903919                0.26293239
              27.58964838               17.64276688               96.48148324                0.68963210                0.04417900                0.00207546               -0.01191368               -0.02977429                0.33885335               -0.16628951
              28.59045536               17.07394137               96.06042714                0.35904401               40.96867813               -0.06520386                0.06735289              -33.47072927               37.49289106               -0.53349605
              30.40902194               15.83555857               96.37581826                0.36010987               71.70058845              -32.62325587                8.42036577              -22.64414387               81.03475791              -10.12851479
              32.02446713               15.12773018               96.07420296                0.36085693               58.44588165              -27.96447551                4.46407905                2.58982876               65.03982276               -8.80591978
              33.57793958               14.59180138               95.35423975                0.36071622               52.00952299              -24.04445488               -0.30835418                6.84833273               63.21705302               -7.22559487
              35.06465759               14.15561072               94.31286969                0.36009660               43.15481076              -17.86583289               -3.99435578                8.54634718               62.36656251               -6.38396739
              36.44103579               13.77153210               92.96155595                0.35893032               31.86207851               -9.61953226              -10.04171549                9.23316226               53.53611983               -6.73849800
              37.70189916               13.42417355               91.26026457                0.35796014               23.49873114                1.57699944              -24.98518100               10.03696204               33.01303362               -7.70644494
              38.91101042               13.11469639               89.19449037                0.35754985               24.92272225               16.76993612              -59.60138721               11.18838441                9.34462708               -8.50794318
              40.20035361               12.84438157               86.90847691                0.67871388               28.93431916               37.22377124             -122.44969116               10.87507987                0.85556411               -5.56555465
              21.32741816                8.34955047               99.31039593                1.00000000                0.01616436                0.02706706                0.04471776               -0.03551857               -0.17199661                0.21271093
              22.32757980                7.78555360               98.90765189                1.00000000                0.05465824               -0.01618209                0.01881427               -0.05973650               -0.20959730                0.03016893
              23.32851132                7.22218910               98.50399204                1.00000000                0.10273731               -0.06548329                0.03229998               -0.03381662               -0.22807962               -0.00759876
              24.32963455                6.66082997               98.10077896                0.87744092                0.11554038               -0.03708922                0.02929565                0.04587297               -0.19097788               -0.02575289
              25.33082213                6.10158318               97.69778868                0.71157487                0.10271973                0.00052555                0.04002113                0.04782615               -0.12686330               -0.02384199
              26.33168894                5.54418846               97.29572580                0.60981489                0.06932551                0.00499274                0.05715776                0.04204872                0.03143318               -0.03376316
              27.33220864                4.98830077               96.89486041                0.55146136                0.02396816                0.00722775                0.10059640               -0.01675943                0.19445934                0.06019678
              28.33216831                4.43339316               96.49447016                0.51491794               -0.02833958                0.00451567                0.11528333               -0.08133630                0.20939691                0.12573572
              29.33164185                3.87798320               96.09278515                0.50807750               -0.04714625                0.00944284                0.03386754               -0.11893560               -0.01107972                0.09460840
              30.33122538                3.32080878               95.68800040                0.52087086                0.03106565                0.05692643               -0.20542336               -0.10885001               -0.27195400               -0.01552328
              31.33226316                2.76252583               95.28196676                0.77496291                0.10377813                0.09165860               -0.60008008               -0.11654459               -0.34799096               -0.60106178
              21.89105984                9.34982114               99.16876796                1.00000000               -0.03967173                0.08067266                0.06078408               -0.04420761               -0.00518175                0.31887715
              22.89066312                8.78539178               98.76590537                1.00000000               -0.02624323               -0.00072147                0.03963174               -0.06808690                0.02161723                0.04159723
              23.89053498                8.22153427               98.36351052                1.00000000               -0.01334433               -0.07229330                0.03704164                0.00182933                0.08103525               -0.08933268
              24.89039624                7.66045907               97.96177888                1.00000000               -0.04569146                0.02179401                0.02347073                0.04063256                0.14724913               -0.00087690
              25.88962115                7.10158844               97.56056153                0.84364700               -0.08227981                0.04432869               -0.01755324                0.04261136                0.21349470               -0.01207711
              26.88875064                6.54423839               97.15982339                0.58968532               -0.10912236                0.05388681               -0.03860658                0.04626974                0.34343910               -0.03573081
              27.88743870                5.98837305               96.76087960                0.45027519               -0.11184554                0.06277136               -0.06096722               -0.00207608                0.51424792                0.05610727
              28.88651373                5.43343832               96.36230552                0.36170629               -0.03470081                0.03641933               -0.11534732               -0.07044117                0.69043372                0.14177235
              29.88674468                4.87807763               95.96330063                0.30161661                0.06759196                0.00711028               -0.14935905               -0.13826275                0.85398532                0.10935680
              30.88786557                4.32137805               95.56309693                0.24253875                0.13179963                0.02505278               -0.13910560               -0.16834230                0.76998022               -0.16461881
              31.88938067                3.76344241               95.15901525                0.55021064                0.15151069               -0.03119420               -0.37516933                0.01139433                0.68681036               -1.13325416
              22.45539272               10.35116392               99.02878255                1.00000000               -0.08877848                0.15995786                0.03557959               -0.01043319                0.02278204                0.44873688
              23.45450494                9.78553917               98.62415496                1.00000000               -0.09560530                0.01776614                0.03982551                0.02351336                0.11247743                0.02987329
              24.45348062                9.22074323               98.22131732                0.00010000               -0.20559558               -0.16760215                0.04442074                0.36302936                0.43194791               -0.40868187
              25.45039303                8.66126585               97.82317754                0.00010000               -0.27927858               11.78956726                0.01118472               17.95350308                0.59515963               13.77013703
              26.44789504                8.10246976               97.42362737                0.00010000               -0.22816460               12.36795217               -0.07291350               31.14101175                0.58553478               12.90977405
              27.44582973                7.54526620               97.02441161                0.00010000               -0.24639258               10.80617236               -0.09923884               44.98135925                0.74211408                7.11289766
              28.44296719                6.98955619               96.62768952                0.00010000               -0.23874159                8.09734171               -0.09710156               56.04538393                1.02721723               -0.04728384
              29.44105490                6.43412155               96.23131344                0.00010000               -0.10151647                4.22973426               -0.16224057               63.06657338                1.59968071              -10.48843328
              30.44093686                5.87812540               95.83463248                0.00010000                0.07194242               -2.47702990               -0.43863775               65.17445021                2.77912717              -28.43789022
              31.44249375                5.32130984               95.43568358                0.00010000                0.37127288              -15.50687766               -1.01267893               65.43580950                4.38110860              -61.69406193
              32.44836232                4.76190194               95.02757202                0.35700743                0.58685708              -61.07396307               -6.60410958               84.44541577               10.49328261             -119.84782999
              23.02210067               11.35302029               98.88899201                1.00000000               -0.05465956                0.16841156                0.01760382                0.05146722                0.02505933                0.49342122
              24.02155408               10.78574710               98.48196426                1.00000000               -0.00158930               -0.00194745                0.02700717                0.07051869                0.01794189               -0.00404030
              25.02206889               10.21818222               98.07474511                0.00010000               17.30928470               -0.21617821                0.04146406               12.40368287               14.61864523               -0.59454581
              26.36773977                9.89625042               97.95969011                0.00010000               30.31860715               13.94853133                1.38055438               42.07949199               34.54251255               28.18885494
              27.62844103                9.34894748               97.54496946                0.00010000               26.67758084               16.83843419               -8.18595484               56.83371731               40.23328404               26.36246985
              28.90129139                8.76036184               97.03163556                0.00010000               24.55249993               14.88023337               -8.53198984               80.76591660               52.75452515               15.23078471
              30.11949103                8.15031988               96.49272121                0.00010000               17.89922993               10.92692758               -5.91316354              100.67704396               63.25723258                0.86410908
              31.25927599                7.51803300               95.88896992                0.00010000                9.17771824                4.88565019               -2.18164175              112.60872501               66.67382843              -19.12719110
              32.30304539                6.82853703               95.13653388                0.00010000                2.67646163               -5.79247024                0.93972665              113.11725238               56.49510771              -51.76717537
              33.31280522                6.01124050               94.08591166                0.00010000               19.70296954              -29.54895062               -7.19749225               82.64113724               26.43222480             -110.66491222
              34.69710478                4.54196315               92.65630328                0.35689878               38.42995646              -78.83922929              -59.58516740               64.99959942                9.75443292             -228.42288301
              23.59096845               12.35453215               98.74920394                1.00000000               -0.02150667                0.11761096                0.00923892                0.04586126                0.00763822                0.50938727
              24.59075338               11.78550022               98.33933653                1.00000000                0.00412531               -0.01938465                0.01425016                0.06475440                0.01389241               -0.01544520
              25.59105096               11.21641967               97.92949387                0.00010000               28.52321102               -0.14173043                0.01615969               14.69322770               21.05296941               -0.53243193
              27.16121760               10.94023647               97.94036092                0.00010000               56.47035090               -0.28770128               -2.21066142               37.81912883               55.20405059               18.02234836
              28.72045797               10.43923844               97.50987367                0.00010000               54.92790329                2.02922309              -13.33108739               47.28466913               66.46091732               18.16748295
              30.25977567                9.84287087               96.90603047                0.00010000               48.91894660                2.00407859              -14.21358733               64.76435512               84.77392605               10.01050081
              31.69883691                9.20809475               96.22155983                0.00010000               37.76182912                0.74864677              -11.42849987               81.31376101               97.65097490               -2.80937008
              33.01501225                8.53183455               95.40211081                0.00010000               25.56187556               -1.97714875               -7.74679440               91.40390954               98.04216883              -21.03634483
              34.21007442                7.76227600               94.33054511                0.00010000               18.34390602               -7.64119638               -7.49836796               87.76886990               79.71547268              -48.27497126
              35.38189037                6.73033083               92.82963915                0.00010000               23.84172896              -18.71795250              -24.73427083               60.10558857               43.21185065              -94.25232865
              36.68690900                5.18511736               90.87429465                0.35721225               30.50186242              -14.60712900              -88.57640922               31.03165909               18.87946370             -174.89648826
              24.16108176               13.35537251               98.60939545                1.00000000               -0.01201072                0.06209799                0.00611858                0.03898363                0.00984940                0.50547642
              25.16096165               12.78535941               98.19686511                1.00000000                0.00577171               -0.01399016                0.00760137                0.04890362                0.01547704               -0.00593458
              26.16119719               12.21534761               97.78433192                0.00010000               37.01709626               -0.08941483                0.00541895               12.30109716               24.00751900               -0.51304845
              27.90130357               11.89049639               97.85157551                0.00010000               75.51514154               -7.93737198               -4.52701112               29.95910006               63.20660043               10.26349519
              29.67150002               11.38953195               97.40286748                0.00010000               76.32093063               -9.95117362              -16.49954209               34.72520919               75.93937764               11.09885545
              31.42772219               10.80044341               96.72527961                0.00010000               69.26512714               -9.69786439              -17.34840827               46.80444881               96.35733839                5.84808284
              33.05680256               10.16529281               95.91440760                0.00010000               55.27253691               -8.93924906              -14.97836700               58.82096553              110.16278709               -3.64747876
              34.53317292                9.47849003               94.90976774                0.00010000               40.15619752               -8.38502997              -12.63786041               64.72072183              109.85892442              -17.68189201
              35.85992651                8.67571310               93.58347059                0.00010000               27.94513543               -8.16422215              -15.45126742               58.15176290               89.93860710              -38.83186714
              37.09207563                7.63688145               91.76161336                0.00010000               27.41191961               -3.73097181              -38.27556426               34.25289211               49.34400308              -73.21001403
              38.40816491                6.24982057               89.40943697                0.35738996               31.60892732               15.02004596             -109.51209798               18.05734712               22.37573417             -131.03545268
              24.73177433               14.35577411               98.46955033                1.00000000               -0.00179746                0.02545782                0.00294741                0.02806357                0.01223018                0.48798217
              25.73175636               13.78522042               98.05444480                1.00000000                0.00807922               -0.01530686                0.00736487                0.03479877                0.02097613               -0.01499646
              26.73193592               13.21463137               97.63941898                0.00010000               42.72294584               -0.05997852                0.00977834                6.90106748               25.49510326               -0.48372207
              28.58621527               12.78148903               97.73368793                0.00010000               88.65396145              -12.96704972               -6.57698977               17.99024418               67.21509359                4.82780110
              30.50501514               12.24021497               97.26710754                0.00010000               91.69442517              -18.62531940              -18.95655920               22.80915513               80.28951595                5.13449268
              32.42010378               11.64891358               96.53343296                0.00010000               84.60972270              -19.26597318              -19.71822979               32.37917967              101.41623346                1.96540292
              34.19720960               11.02930977               95.62470552                0.00010000               68.94513128              -17.12007933              -17.64011840               41.09207995              115.48607522               -4.33308898
              35.79900640               10.36413395               94.47651704                0.00010000               50.87543292              -13.45499302              -16.25666599               44.05067626              114.92612749              -14.32110335
              37.21471826                9.59899156               92.96108539                0.00010000               34.69171713               -7.42011844              -20.93105924               37.28269021               93.90989001              -29.67078967
              38.49284074                8.65571139               90.90495754                0.00010000               30.37297148                4.46658262              -46.39350982               20.64782475               51.13375835              -54.27898987
              39.82217769                7.48551828               88.27982284                0.35701584               32.93369419               26.49811300             -120.69494515               10.63297640               22.88172122              -92.92498757
              25.30275041               15.35588167               98.32951887                1.00000000                0.00499527                0.00269145               -0.00068747                0.01890454                0.01929674                0.46104503
              26.30280036               14.78505327               97.91187309                0.82804743                0.00997572               -0.01578265                0.00977578                0.02025222                0.04299317               -0.05793263
              27.30294993               14.21414804               97.49469671                0.00010000               46.63622478               -0.03761660                0.02685765               -0.58460523               26.40532428               -0.51058980
              29.23552486               13.63115540               97.60411694                0.00010000               97.86543274              -17.34556515               -7.91254943                3.94330894               69.80836822                0.41786756
              31.26025858               13.01702556               97.12950851                0.00010000              102.53430627              -25.76020372              -20.45113038               12.00540231               83.36789036                0.18268126
              33.28621098               12.41512394               96.36091800                0.00010000               95.15826046              -26.57982628              -21.08450372               22.18230411              104.60950230               -1.32377254
              35.16342379               11.82289123               95.38447128                0.00010000               77.91468369              -22.85507976              -19.21031787               28.95167725              118.35956914               -4.98509004
              36.84450466               11.20939017               94.13418480                0.00010000               57.52895443              -16.58473254              -18.45003784               30.09798094              117.20993430              -11.51261060
              38.31400288               10.52731073               92.48494047                0.00010000               38.70003751               -6.97666464              -24.14582260               24.50075796               95.31894535              -21.95442494
              39.61850541                9.72621310               90.26797956                0.00010000               32.36038933                8.32544635              -50.92613245               13.13530780               51.37325849              -38.29914203
              40.96121066                8.77978283               87.46416833                0.35714493               34.27052560               30.64706295             -126.67519646                6.78004931               22.71274986              -62.93272173
              25.87380922               16.35582794               98.18916660                1.00000000                0.00858108               -0.00574629               -0.00394578                0.01191709                0.02434740                0.42078279
              26.87389503               15.78490477               97.76879896                0.64136909                0.01662332               -0.01109464                0.00035346                0.00875998                0.06284201               -0.12918285
              27.87414168               15.21387904               97.34920406                0.00010000               49.41544548               -0.03051763                0.02784478              -10.38471716               27.68561057               -0.55033258
              29.86220394               14.43457773               97.48084187                0.00010000              104.35064811              -23.45780354               -8.43532391              -12.62052546               73.22525043               -3.39351564
              31.96115465               13.72501090               97.01833548                0.00010000              109.78401251              -33.30627873              -20.62110024                3.72658737               87.20875454               -3.53925623
              34.05788419               13.11731705               96.23899122                0.00010000              101.04111379              -31.63263429              -21.09055747               15.30268061              107.76070591               -3.38557930
              35.98197692               12.57220817               95.22124686                0.00010000               81.93311643              -26.03552827              -19.47355830               20.39287438              120.19764313               -4.80943691
              37.69654652               12.03243930               93.90291292                0.00010000               60.29667814              -18.01162240              -19.21259277               20.21126229              118.03224259               -8.62141529
              39.18791048               11.45945826               92.16417544                0.00010000               40.32641426               -6.57841830              -25.55659944               16.11037601               95.43835059              -15.08694640
              40.50307480               10.82222032               89.84283762                0.00010000               33.13643601               10.33369767              -53.14356851                8.90767890               51.06685235              -24.89493392
              41.85063920               10.09845954               86.92768480                0.35697134               34.75644030               33.27357488             -129.84285208                4.49283859               22.42602776              -39.22273401
              26.44483510               17.35576674               98.04833705                0.97742251                0.00893634               -0.00346337               -0.01747451                0.00586868                0.02261155                0.32196403
              27.44492446               16.78483138               97.62512426                0.40293817                0.03737587               -0.00598316               -0.00769930               -0.01183767                0.13973019               -0.16802824
              28.44558262               16.21353769               97.20420960                0.00010000               51.35290153               -0.12026191               -0.02020013              -23.89880953               30.64598773               -0.52958376
              30.47198249               15.16199933               97.38886117                0.00010000              110.32341946              -36.85931396               -8.23737748              -22.16574296               79.99171391               -4.40225936
              32.65205101               14.35089998               96.97183663                0.00010000              113.65424141              -37.86101456              -18.90017486               -0.60190501               93.63796804               -4.98979631
              34.74506732               13.78247126               96.19987433                0.00010000              100.20540111              -33.59236600              -19.47155627                9.90282330              110.74607737               -3.06473868
              36.65615903               13.30218066               95.16035795                0.00010000               80.82062442              -26.86505068              -18.33548599               11.91087421              120.95996027               -3.05383175
              38.36147981               12.84915772               93.80072442                0.00010000               59.51351755              -18.21712526              -18.45763386               11.04976909              117.71403674               -4.81742926
              39.84642938               12.39574237               92.00818018                0.00010000               39.80889522               -6.25126643              -25.11500475                8.78262665               94.68799586               -8.05693696
              41.15765771               11.93288705               89.62620035                0.00010000               32.60798113               11.08710976              -53.04614193                5.25755123               50.45978349              -12.62473061
              42.49858900               11.44525433               86.65143792                0.35654998               34.09312874               36.55251557             -130.91417587                2.12961580               22.19081004              -18.81955392
              27.01579732               18.35575867               97.90621315                0.94767287                0.00900084               -0.00080719                0.00059906               -0.00113488                0.12899613                0.23962782
              28.01588733               17.78478510               97.48142983                0.61742153                0.16001117               -0.00462766               -0.00840148               -0.11795700                0.36037527               -0.16865376
              29.01899754               17.21147380               97.06117593                0.35886576               63.28197288               -0.20638891                0.01765287              -47.02818992               40.61458532               -1.08815844
              31.28152679               15.69739145               97.42333943                0.36008634              115.48235362              -46.46078773               -5.68775990              -31.22973060               99.07966260              -12.87515495
              33.32864462               14.96779060               97.04943895                0.36076405              101.15665937              -38.31093784              -15.52784340                5.06327499               98.23455855              -10.29319258
              35.30465997               14.44546973               96.28110106                0.36056305               91.24316652              -33.70015269              -17.06018106                9.31509279              110.14503754               -7.18728082
              37.15350795               14.03490716               95.22459587                0.35998184               75.96601103              -26.72735064              -16.31377890               10.86624495              119.43941932               -6.57057794
              38.82398019               13.66809679               93.84469934                0.35895408               56.31628691              -18.10609235              -16.00353465               11.22632733              116.57998984               -7.63913706
              40.27983368               13.33443293               92.03038625                0.35765795               36.73668348               -6.13094318              -21.72541946               12.13371646               93.48132183               -9.41940462
              41.55871386               13.04396251               89.62330885                0.35680454               29.43316399               11.10754624              -48.69256417               14.85946051               49.08027830              -11.20179708
              42.86849696               12.82950985               86.62650705                0.67846096               30.97831006               38.42555175             -126.41030149               15.54552957               21.01531688              -11.84639244
              21.72886568                8.49290130              100.31060048                1.00000000                0.01901237                0.05700320                0.00527745               -0.02510037               -0.09618163                0.12789036
              22.72905581                7.92745267               99.90765244                1.00000000                0.05505158               -0.00099161               -0.00963732               -0.04885510               -0.12170530                0.01671001
              23.72996671                7.36267518               99.50417548                1.00000000                0.09975779               -0.05761329                0.00272612               -0.02455223               -0.13982905                0.00329441
              24.73105096                6.79978646               99.10097154                0.81416970                0.12046827               -0.02846806                0.00388408                0.06177388               -0.11631237                0.00299846
              25.73237608                6.23896061               98.69809333                0.61179845                0.15018472               -0.00999476                0.00578781                0.09527625               -0.02071726               -0.00534496
              26.73405466                5.68042724               98.29627177                0.50256609                0.17237992               -0.04393761                0.02510068                0.08806815                0.22158116                0.03621832
              27.73582368                5.12414597               97.89607859                0.45964569                0.13029969               -0.06172789                0.09863442                0.03911388                0.46933998                0.16933400
              28.73666065                4.56853487               97.49599393                0.44500815                0.01998015               -0.05196435                0.12596699                0.03656295                0.45100833                0.19046053
              29.73622328                4.00968985               97.09352815                0.44186223               -0.06419818               -0.01379023                0.05667636                0.05002724                0.15680159                0.10584163
              30.73537669                3.44538725               96.68637229                0.43888725               -0.00796852                0.01998313               -0.10621108                0.00688268               -0.17382217                0.07995560
              31.73606391                2.87706448               96.27589290                0.72090366                0.06872236               -0.10351726               -0.44136880                0.02166237               -0.33779112               -0.51776405
              22.29406332                9.49347134              100.16916489                1.00000000               -0.03829977                0.12050312                0.01570946               -0.03140665                0.01310979                0.20652478
              23.29368032                8.92744275               99.76620004                1.00000000               -0.02545109                0.01452492                0.01908023               -0.05074484                0.03722791                0.02216601
              24.29355429                8.36209905               99.36386312                1.00000000               -0.00771673               -0.07805998                0.03112018                0.02178875                0.07196972               -0.05873106
              25.29352598                7.79950178               98.96198126                1.00000000               -0.02729206                0.02124256                0.01373216                0.05217285                0.11056158                0.02445059
              26.29300845                7.23886067               98.56028077                0.56838014               -0.05916613                0.02868722               -0.02671042                0.08563125                0.19978953               -0.00531776
              27.29234266                6.67998787               98.15936703                0.28581119               -0.04237246                0.02214524               -0.07441376                0.11019812                0.42117010                0.05333393
              28.29216100                6.12352869               97.75986927                0.17796328                0.09558379               -0.03090917               -0.20300019                0.19398823                0.74665280                0.31076461
              29.29425434                5.56801522               97.36046689                0.13698896                0.30681801               -0.10419051               -0.27901084                0.50162318                1.13391431                0.39857309
              30.29829736                5.00955195               96.96119929                0.10100764                0.37519321               -0.10091286               -0.25946591                1.33861708                1.49872188               -0.02570188
              31.30175820                4.44558708               96.56153293                0.04249100                0.31529685               -0.26207890               -0.19998460                2.98290019                1.43933754               -0.94487664
              32.30460330                3.87602931               96.15518647                0.44019592                0.28450999               -6.33351150               -0.38512897                9.26776360                1.27991143               -7.14909874
              22.86029472               10.49531137              100.02889890                1.00000000               -0.08815198                0.20675847               -0.01344629                0.00906470                0.03275148                0.31765721
              23.85941320                9.92774317               99.62449507                1.00000000               -0.09756310                0.03321118                0.02790329                0.04945954                0.10568283                0.01868352
              24.85834346                9.36111398               99.22187163                0.00010000               -0.20402004               -0.19462521                0.07692558                0.41492446                0.35812617               -0.33882464
              25.85533280                8.80021131               98.82335710                0.00010000               -0.23704179               16.40915028                0.02871336               30.80253454                0.45576300               12.86231780
              26.85360262                8.23953436               98.42272617                0.00010000               -0.18711016               16.99778912               -0.08077774               62.85789914                0.52880513                4.68258118
              27.85159060                7.68087015               98.02344682                0.00010000               -0.09632691               14.88269268               -0.26340168               87.54765149                1.20512165               -0.00023498
              28.85167608                7.12352778               97.62647514                0.00010000                0.45396275               12.45082350               -2.18011556              107.46217032                7.79161816               -5.37958578
              29.86066985                6.56645106               97.22882417                0.00010000                1.68738426                9.89980921               -6.79228793              123.94317680               33.76436474              -11.57664274
              30.88542377                6.00767160               96.82672797                0.00010000                3.39437424                5.19917908              -12.85091568              135.93837138               72.95866461              -23.12020499
              31.92855734                5.44014567               96.41705522                0.00010000                8.75554775               -8.34802037              -16.45848637              135.43212286              115.50353260              -51.34009664
              33.06053472                4.75039425               95.90410934                0.35655609               13.19773881              -76.37997860              -63.01409149              147.69779891              160.89616801             -191.47834177
              23.42938101               11.49760651               99.88898643                1.00000000               -0.05141153                0.20044618               -0.02215687                0.08150907                0.03022993                0.37630536
              24.42886690               10.92810698               99.48219137                1.00000000                0.00018115                0.00901380                0.01357343                0.09809705                0.02862621               -0.00597710
              25.42938464               10.35820654               99.07530386                0.00010000               30.11446996               -0.23311924                0.05649585               17.11647981               13.68313439               -0.48438049
              27.03115630               10.12768479               98.94150945                0.00010000               62.00614846               19.30686668              -28.23451100               69.84216630               95.27609827               29.15079069
              28.66950760                9.57881645               98.37945777                0.00010000               56.40729844               23.30713050              -26.60845509              107.97078608              114.06170011               16.38193994
              30.15930227                8.97764172               97.88749754                0.00010000               44.31579476               21.61860671              -23.30709105              149.65303642              135.08124326                7.54142901
              31.55582350                8.37254516               97.38478830                0.00010000               36.48358979               18.62442844              -19.75875857              184.31774292              147.30019647               -3.29188441
              32.88897406                7.76601141               96.82817098                0.00010000               29.37733407               14.52562725              -16.07163039              209.03607239              154.35219200              -17.18747550
              34.14337018                7.11353553               96.13717946                0.00010000               18.93519730                6.38765803              -11.09475220              217.29147853              150.40598271              -38.19118630
              35.26767801                6.27862667               95.05848973                0.00010000               24.73459681              -18.66697619               -7.67312101              166.39077113              110.34722102              -87.71794283
              36.63806212                4.34842973               92.99300560                0.35668230               37.03841107              -79.58743840              -46.24459974              117.79244261               59.13008868             -215.20293460
              24.00092396               12.49932029               99.74919309                1.00000000               -0.01488577                0.12639057               -0.01461530                0.07732002                0.01274402                0.39662304
              25.00077511               11.92792344               99.33945111                1.00000000                0.00856391               -0.01663704                0.00855481                0.09718405                0.01939282               -0.01379741
              26.00109524               11.35645159               98.92966463                0.00010000               51.53955569               -0.13810567                0.01792372               20.14918027               16.37943651               -0.42473950
              28.03156622               11.18634865               98.84687440                0.00010000              108.09830861               -1.51058101              -37.20195881               57.29946675              106.31708347               13.02671955
              30.16306141               10.70567697               98.26192664                0.00010000              100.96781975                2.51924559              -34.86567993               75.50753279              134.99680197               12.85379404
              32.05092261               10.11324228               97.68115590                0.00010000               79.32999200                4.10809848              -30.00596633              103.13898999              160.96195431                6.68650249
              33.74966125                9.49601635               97.04161959                0.00010000               62.47391553                4.15724852              -24.77650264              128.79421714              174.49040467               -1.96481443
              35.30040093                8.85696360               96.27916287                0.00010000               48.44884123                2.48423990              -19.90212761              145.62764666              178.94345055              -13.67395775
              36.71863808                8.13542476               95.24896048                0.00010000               36.05388165               -2.77296922              -16.22700852              142.00005312              166.37014334              -32.40662807
              38.02147856                7.06680614               93.62774378                0.00010000               27.90696848              -14.37554646              -19.99650141               96.72390438              118.15347214              -65.66336086
              39.27677745                5.15864548               90.93501125                0.35674245               25.52988898                0.60079532              -77.62819975               50.71621698               78.29932736             -139.42181102
              24.57372111               13.50013432               99.60941513                1.00000000               -0.00418359                0.05639239               -0.00440998                0.06658732                0.01228493                0.39092121
              25.57367927               12.92777423               99.19692477                1.00000000                0.01109625               -0.01681102                0.00465967                0.07746861                0.01945338               -0.00495922
              26.57394303               12.35544443               98.78437821                0.00010000               62.71204918               -0.07315768                0.00112064               15.79066752               17.55956145               -0.39270587
              28.82792026               12.09747317               98.72240846                0.00010000              133.94107966              -11.64463212              -44.04014695               39.50463018              111.76962331                6.98640768
              31.25276463               11.62920136               98.11073677                0.00010000              130.19112111              -13.64490940              -40.63244366               48.25747270              141.29990033                7.62938706
              33.43174268               11.05980369               97.46349679                0.00010000              106.76109463              -12.52896507              -34.76417409               66.26742769              169.08378350                4.82819640
              35.38798652               10.45569013               96.69759845                0.00010000               86.51879550              -11.03358764              -28.78900612               85.41545743              182.82241052               -1.00561023
              37.16211859                9.81569621               95.74013060                0.00010000               69.27710905              -10.22256186              -23.98359699               97.52303620              186.40594343               -9.72705199
              38.77352870                9.05807615               94.42900010                0.00010000               50.84083905              -10.62943247              -21.74803409               92.25411189              172.01765645              -23.06342650
              40.17893537                7.99111574               92.43285728                0.00010000               34.75895408               -5.34413693              -29.48242400               57.25831003              122.08241373              -46.34754450
              41.46870778                6.36044564               89.27561117                0.35643045               28.97724124               23.76619788              -91.13831879               31.94553376               79.94110702              -97.07032968
              25.14697588               14.50044814               99.46957819                1.00000000                0.00384910                0.02092048               -0.00108267                0.05413709                0.01027931                0.37718059
              26.14701437               13.92758722               99.05449661                0.87633783                0.01168912               -0.02438220                0.00657549                0.07039534                0.01721706               -0.01830612
              27.14720966               13.35498844               98.63949107                0.00010000               70.04437623               -0.03340530                0.00390085                8.63294389               17.44916353               -0.36088578
              29.54790189               12.95345601               98.57278641                0.00010000              150.93353447              -16.83940960              -48.49770230               23.40933302              113.65648093                2.68123013
              32.16588035               12.43277878               97.94096273                0.00010000              150.09402539              -24.18980779              -44.60520754               31.43902448              144.29200972                3.21953994
              34.54978240               11.86266298               97.24255603                0.00010000              126.80987687              -25.14058675              -38.05606961               45.43320152              172.45310970                1.88445599
              36.70207788               11.27534460               96.37941435                0.00010000              104.93466151              -23.18253377              -31.74230233               59.19589799              186.25378621               -1.56438400
              38.64847563               10.65251237               95.27317970                0.00010000               84.31114483              -20.18488938              -27.07201652               66.14405866              189.63302859               -7.31649285
              40.38830078                9.92283611               93.75907146                0.00010000               60.78998187              -15.11813453              -25.67848702               59.41884959              174.85136736              -16.56138991
              41.86427527                8.95992341               91.51015233                0.00010000               39.43637706               -2.40489893              -34.66383069               35.06884635              123.33106659              -32.42595306
              43.17702832                7.63396944               88.06198117                0.35645586               31.27530559               26.94453263              -96.89268285               19.00435833               80.33397957              -64.44061892
              25.72052569               15.50055273               99.32955828                1.00000000                0.00211931                0.00410285                0.00141534                0.04326677                0.01804807                0.36647396
              26.72054688               14.92728659               98.91194451                0.68341744                0.01037218               -0.03392270                0.00796500                0.08197168                0.04184309               -0.07400795
              27.72073313               14.35477632               98.49482611                0.00010000               74.88848503               -0.04076440               -0.00819257               -0.94548352               17.44807437               -0.39711814
              30.21831658               13.76068498               98.42471325                0.00010000              162.58025079              -22.48221155              -50.90548088                5.20875320              114.88883835               -0.46620938
              32.97233814               13.14540520               97.78392156                0.00010000              163.97621556              -33.35529239              -46.70540979               17.03023559              146.42675588               -0.11087165
              35.49784089               12.55699195               97.05386132                0.00010000              140.48584749              -34.79268503              -39.85691253               31.15389815              174.72414162               -0.38231578
              37.78205509               11.99203945               96.12270506                0.00010000              116.98336828              -31.52957922              -33.49858290               41.34662970              188.20136391               -2.22994786
              39.83750826               11.41199842               94.91063775                0.00010000               93.62197792              -26.18833403              -29.00885579               44.68377470              191.24634415               -5.94676413
              41.65449465               10.75571346               93.25614165                0.00010000               66.58353558              -17.53317171              -27.99557868               38.63684899              175.96175368              -12.17704617
              43.16917897                9.94301776               90.83857775                0.00010000               42.31041154               -1.55236517              -37.34119435               22.12851252              123.62397963              -22.61207301
              44.50070288                8.89933629               87.20512667                0.35663948               33.15239164               25.69423491              -99.33245710               11.98121093               79.99604271              -42.77938932
              26.29437348               16.50053020               99.18922132                1.00000000                0.00567205               -0.01118096                0.00497959                0.02300759                0.01963941                0.33666462
              27.29443020               15.92690877               98.76876990                0.47795293                0.02640589               -0.02659555               -0.00436234                0.07198720                0.07140690               -0.14391993
              28.29490160               15.35417315               98.34931703                0.00010000               78.35089344               -0.13732336               -0.04445597              -13.65443863               18.50225834               -0.48987590
              30.86144807               14.50381177               98.29509014                0.00010000              170.76382400              -31.47182950              -51.25538338              -15.61258761              117.17411416               -3.93022853
              33.71017808               13.76567293               97.67051811                0.00010000              173.23890196              -43.44648313              -46.62954076                6.45479044              149.49796221               -2.36691038
              36.32622611               13.16680928               96.93134404                0.00010000              148.19129660              -41.40753203              -40.00187948               21.55179681              177.07730259               -1.62120282
              38.67400401               12.64475302               95.95638592                0.00010000              122.61255033              -36.10980212              -33.89005833               28.36449525              189.40901621               -2.34525231
              40.77847712               12.12874568               94.67226537                0.00010000               97.80072018              -29.12030013              -29.70485434               28.96777484              191.76955963               -4.72346280
              42.63001842               11.57217267               92.92387302                0.00010000               69.23727815              -18.73297245              -28.94045482               24.35157201              176.07337938               -8.83147325
              44.16322268               10.92887610               90.39706906                0.00010000               43.69985304               -1.44932900              -38.49630675               14.08355013              123.44637389              -15.23075149
              45.50401548               10.14785414               86.64720492                0.35628252               34.07927963               24.87971213             -100.55184100                7.59411140               79.81555727              -27.51855695
              26.86822869               17.50032911               99.04820900                0.76487434                0.01149723               -0.02497295               -0.01253707                0.00979954                0.03085222                0.27352742
              27.86834366               16.92675468               98.62507406                0.22115487                0.12563282               -0.00630604               -0.00802034               -0.04181782                0.12935311               -0.18026776
              28.87074135               16.35202986               98.20363577                0.00010000               81.31106911               -0.79638074               -0.39727513              -31.47852098               22.24077308               -0.68119716
              31.49456505               15.13124839               98.20405834                0.00010000              178.38475503              -49.73564126              -48.78113533              -26.73251052              124.15699982               -6.39398189
              34.43843645               14.27647554               97.64692386                0.00010000              177.76158478              -49.95056253              -44.29795389                0.94057572              155.64616226               -2.92073320
              37.04979674               13.72884131               96.90982979                0.00010000              147.44860718              -44.06034903              -38.24176940               13.64125860              179.03994589               -1.24923005
              39.38740859               13.26984341               95.90613978                0.00010000              121.98236760              -37.45148389              -33.01513914               15.82973944              189.67919502               -1.41937039
              41.48944409               12.82959242               94.57636483                0.00010000               97.69935410              -29.89730851              -29.19323158               14.97893407              191.23905983               -2.80266442
              43.34139568               12.38105401               92.77108894                0.00010000               69.28622060              -19.03996831              -28.54802996               12.36682167              175.50646111               -5.14006116
              44.87516851               11.91403118               90.18209545                0.00010000               43.66166834               -1.62163375              -38.17438592                7.45745161              122.95941507               -8.26114943
              46.21462904               11.39693054               86.36242310                0.35651887               33.94605356               25.47306688             -100.83126987                3.80233944               79.58547722              -14.48778471
              27.44171833               18.50003074               98.90636107                0.82325383                0.01747688               -0.02983714                0.02213658                0.02415498                0.13041536                0.23185799
              28.44189310               17.92678265               98.48131521                0.49977840                0.95595718                0.00279675               -0.02941301               -0.73431631                0.39213882               -0.19275156
              29.46083748               17.33824554               98.06078020                0.35869195               98.02295378               -1.37843172               -3.95512306              -61.87457221               45.97829240               -6.74060022
              32.40235218               15.50909895               98.26206306                0.35922617              183.52795969              -62.21494366              -43.24129037              -37.80047987              143.05126896              -18.87275580
              35.13139667               14.76666168               97.76364609                0.35963202              160.16656192              -50.98138600              -39.12756479                8.12118940              158.45576753               -8.24060272
              37.60568341               14.28560230               97.01303613                0.35971174              137.92255150              -44.32390150              -36.01176728               12.04175004              177.44063555               -6.07528006
              39.88984770               13.89572334               95.98659411                0.35923057              118.05808939              -37.41200734              -31.69854520               12.50377146              188.67679617               -6.24345154
              41.96684520               13.53079951               94.64148526                0.35905226               95.15341925              -29.87929016              -27.55549091               12.52260929              191.63826960               -8.26521096
              43.79291608               13.19137331               92.82575618                0.35794346               66.48249925              -18.96807019              -25.73933275               13.43423659              176.13109554              -12.05498141
              45.29649519               12.89644343               90.22063908                0.35680928               41.06737371               -1.75877548              -34.94156879               15.42977646              123.34709284              -13.85614363
              46.61426356               12.65731547               86.38027088                0.67842866               31.77683713               26.03849385              -97.76857437               16.05065642               80.76420629              -17.89655278
              22.13139061                8.63497945              101.31050148                1.00000000                0.01800785                0.06737646               -0.00990016               -0.03257157               -0.05174044                0.06588172
              23.13157069                8.06879260              100.90745914                1.00000000                0.05025124                0.01998631               -0.01932934               -0.09111090               -0.07125738                0.01677693
              24.13239564                7.50287971              100.50404656                1.00000000                0.09098828               -0.02162198               -0.01289253               -0.11635421               -0.08723256                0.02908993
              25.13339046                6.93887050              100.10085664                1.00000000                0.13559568               -0.03079721               -0.01148972               -0.00897940               -0.07315641                0.02809135
              26.13510755                6.37710140               99.69790444                1.00000000                0.23724216               -0.02521572               -0.01888883                0.10495228                0.04170597                0.02636767
              27.13813530                5.81872232               99.29622782                1.00000000                0.33828682               -0.05922937               -0.00439567                0.29525778                0.35449727                0.04023767
              28.14187329                5.26410609               98.89683310                1.00000000                0.28018096                0.00857028                0.07545028                0.41656669                0.64304499               -0.00533818
              29.14373892                4.70825645               98.49698950                1.00000000                0.12631173                0.03230944                0.09955696                0.44489096                0.56210584               -0.05426156
              30.14439952                4.14475775               98.09391867                1.00000000                0.08226333               -0.03939801                0.03905272                0.31686255                0.26195842               -0.07394678
              31.14538419                3.57208660               97.68587618                1.00000000                0.10332960               -0.02890106               -0.04961049                0.16937757               -0.03821466               -0.00795934
              32.14646612                2.99358340               97.27313938                1.00000000                0.10819283               -0.13394037               -0.27535172                0.27025250               -0.23345950               -0.53077902
              22.69725175                9.63565322              101.16908215                1.00000000               -0.05422953                0.13580396               -0.00827421                0.00716451                0.03932591                0.11879525
              23.69670945                9.06899247              100.76628698                1.00000000               -0.05292999                0.05644514                0.00869420               -0.04572778                0.05545201                0.01766557
              24.69619315                8.50266349              100.36413292                1.00000000               -0.02598163               -0.01768582                0.02698028               -0.05222310                0.05221233               -0.00309144
              25.69618982                7.93856253               99.96205352                1.00000000                0.00190093                0.00567527                0.00722612               -0.02754759                0.06110365                0.05083292
              26.69623117                7.37684925               99.56002733                1.00000000                0.06978588               -0.00785104               -0.02534427                0.14206869                0.13635109                0.00422697
              27.69758554                6.81813003               99.15833512                1.00000000                0.25203636               -0.07956650               -0.10319123                0.76952182                0.36390093               -0.03999613
              28.70127189                6.26419179               98.75681959                1.00000000                0.51382316               -0.35303190               -0.30496793                7.09992154                0.83059826               -1.57098398
              29.70786200                5.70857954               98.35672530                1.00000000                0.71905902                1.33140758               -0.37415862               32.62612128                1.42535214               -6.01965921
              30.71565307                5.14436377               97.95811131                1.00000000                0.74015681                4.74916917               -0.30879765               71.53488139                1.85416763              -12.33404370
              31.72266514                4.57179759               97.55909724                1.00000000                0.60093803               11.27322555               -0.24356982              118.88395369                1.75076130              -16.34706558
              32.72767183                3.99224400               97.15131267                1.00000000                0.50066980              -44.95337149               -0.38738022              169.33020741                1.52839633              -63.67099019
              23.26485540               10.63769553              101.02851363                1.00000000               -0.12095468                0.22994980               -0.03852719                0.17477904                0.07600853                0.21175263
              24.26364586               10.06992151              100.62471303                1.00000000               -0.15371457                0.08395302                0.02179556                0.19650909                0.14037612                0.01527168
              25.26178111                9.50252600              100.22285583                1.00000000               -0.24960520               -0.09809396                0.09841997                0.46414236                0.29570459               -0.27169286
              26.25865375                8.93898401               99.82375181                1.00000000               -0.16998421               25.85931993                0.03947115              107.36681988                0.28989458              -14.47541214
              27.25838143                8.37694438               99.42201182                1.00000000                0.37647196               23.02682818               -0.07143487              157.28013838                0.24746886              -13.62034601
              28.26618319                7.81713099               99.01914357                1.00000000                6.75203886               21.76756512               -0.43032423              189.00506247               -0.43697062              -16.01598456
              29.39342221                7.25704545               98.58408721                1.00000000               32.49530879               20.25729717               -4.23879276              217.06516119                7.99081756              -19.61191115
              30.91608937                6.73488460               98.09546768                1.00000000               65.92284497               20.76826230              -13.33564846              243.43811752               55.21829941              -22.61604533
              32.71187911                6.23974113               97.57761416                1.00000000               87.95468313               24.90585127              -24.91138016              271.39298662              133.19784220              -28.96666996
              34.67518303                5.79755111               97.10651385                1.00000000               99.01491658               23.71977448              -31.05413627              239.80165990              184.14637090              -45.59185588
              36.69217744                4.09451597               95.76729019                1.00000000              101.69944057              -39.26207267             -113.68191444              193.84663576              229.24190530             -236.58289675
              23.83629538               11.64025221              100.88854888                1.00000000               -0.04862123                0.21701907               -0.04375498                0.33452592                0.06012232                0.28447099
              24.83580917               11.07067153              100.48223573                1.00000000                0.00590575                0.02846854                0.00443609                0.37366217                0.06053452               -0.00381495
              25.83641349               10.50070162              100.07587503                1.00000000              106.66493328               -0.18377354                0.05711671               26.72563391              -13.65890628               -0.40066727
              28.96910783               10.45574893               99.39499989                1.00000000              156.36367284               24.04439275              -54.65095618              151.66638545              140.64141983                1.43491063
              30.96368695                9.83738581               99.01280035                1.00000000               81.42389438               29.40454683              -36.66574119              206.27317431              187.94262679               -4.61565089
              32.59758572                9.25348133               98.56549374                1.00000000               58.05672801               29.17353358              -32.20037991              263.25452647              198.06562954               -8.07766072
              34.12482151                8.66933774               98.09754604                1.00000000               49.81714748               29.94714303              -28.72422633              303.38396414              207.00198005              -13.22361385
              35.59392867                8.12394479               97.56753732                1.00000000               47.80123930               30.57555886              -26.06336665              322.17970367              211.35010092              -18.77663330
              37.08084630                7.64248079               96.91463884                1.00000000               53.49974129               29.12908340              -22.25406185              319.96327803              211.99320771              -25.68593514
              38.66392349                7.04619308               95.93244924                1.00000000               46.49142612               12.25724791              -12.60404933              247.41238792              180.46317102              -57.08359598
              40.01067482                5.20700255               93.73141129                1.00000000               34.67513240                0.97797976              -26.15943188              163.39010507              117.15747450             -136.42069584
              24.41070729               12.64203591              100.74891163                1.00000000               -0.00375970                0.12768139               -0.02814534                0.34613580                0.03793233                0.30948072
              25.41066970               12.07049088              100.33950763                1.00000000                0.02545476               -0.02284043                0.00565206                0.36965402                0.03649452               -0.00712796
              26.41121639               11.49885053               99.92985234                1.00000000              127.23137849               -0.15172812                0.01877107               24.99361129              -16.14717938               -0.33614174
              29.95529727               11.41987186               99.19632174                1.00000000              208.74480624               -7.57181951              -65.05526603               65.37072221              136.50849145                2.14095532
              32.58611251               10.96503532               98.81256007                1.00000000              137.20122654                1.28488907              -44.93665624               88.67262726              197.78457989                4.80674803
              34.69932180               10.40060166               98.30591114                1.00000000              100.22627588                4.10629393              -37.52447635              125.79517255              210.51340375                1.96105746
              36.59063803                9.85598831               97.72602978                1.00000000               84.36092924                6.90240613              -31.55898129              162.87947805              219.00553383               -1.94873235
              38.38654038                9.34639577               97.00406826                1.00000000               79.91291724                8.29936854              -27.50946116              195.11479823              222.61270371               -7.92885867
              40.18889638                8.82232280               96.00600494                1.00000000               83.61843281                3.09263961              -24.29555348              211.15034814              218.30787304              -19.61664235
              42.05890904                8.04269607               94.42970912                1.00000000               72.47321108              -10.93355382              -19.80346555              165.74710517              169.52933384              -40.43522601
              43.63836060                6.11407557               91.32173065                1.00000000               57.94515591               -1.27792429              -61.32805966              122.67817231              125.36046823             -111.69402602
              24.98630817               13.64280584              100.60930725                1.00000000                0.00794651                0.05693297               -0.01078776                0.31267622                0.02381135                0.29800442
              25.98638763               13.07021472              100.19695831                1.00000000                0.02982840               -0.03281599                0.00335358                0.31896638                0.02318963               -0.00251768
              26.98690473               12.49766705               99.78435433                1.00000000              141.19749262               -0.09423843               -0.00238837               19.27554088              -20.01311691               -0.29550492
              30.81033748               12.30431254               98.97077257                1.00000000              238.47524809              -14.35315076              -75.16358850               48.39962532              138.53493667               -0.94545579
              33.75640970               11.86308359               98.59021861                1.00000000              170.60993479              -16.68071730              -52.05181577               58.31339382              203.32568430                1.51038876
              36.22253618               11.33560721               98.02999612                1.00000000              134.01036319              -15.21817501              -43.35006653               83.78474112              216.49979301                0.90037318
              38.43661696               10.80738586               97.33862747                1.00000000              115.36769827              -14.15364191              -35.89709727              112.76742854              224.86802764               -1.63894257
              40.52989014               10.28993216               96.43009580                1.00000000              108.54680045              -14.95494111              -31.00348042              136.12086036              227.27127706               -6.02598236
              42.60755297                9.70433359               95.14850991                1.00000000              107.86113434              -19.08502994              -28.04901890              141.17332178              220.49588059              -13.29872079
              44.68711283                8.82752200               93.17196488                1.00000000               85.69631459              -22.06121014              -26.08924000              103.73769001              172.72578025              -27.26078390
              46.32147926                7.18144406               89.58667059                1.00000000               63.43664287                7.65574188              -68.89405809               69.73415659              126.74771890              -66.88823175
              25.56214306               14.64317457              100.46952868                1.00000000                0.00447485                0.03810900               -0.00495076                0.26753552                0.02148152                0.28463970
              26.56218781               14.06983456              100.05457631                1.00000000                0.02431621               -0.04574446                0.00796932                0.28864759                0.01576019               -0.02156219
              27.56262939               13.49696576               99.63949699                1.00000000              149.78427116               -0.06436623                0.00059206               10.76061174              -23.00014805               -0.29334162
              31.55787323               13.13280885               98.76373389                1.00000000              257.92281670              -20.23925237              -80.90525249               28.41619521              137.77245390               -1.30297857
              34.72108572               12.63142097               98.37500339                1.00000000              193.64205602              -28.89154241              -56.59593453               38.33326200              205.94942121                0.12330473
              37.43071435               12.09623816               97.77231157                1.00000000              158.52879662              -30.84587942              -47.02444659               58.04343214              218.83599997                0.04669970
              39.89166165               11.57291547               96.98985947                1.00000000              139.06477532              -30.30325809              -38.95548732               79.25582387              227.09663414               -1.44930517
              42.21200986               11.04729695               95.93507671                1.00000000              129.15556584              -29.92814727              -33.81029900               93.69057660              229.23623196               -4.32594707
              44.47477297               10.44062220               94.44751565                1.00000000              122.22712527              -29.26826708              -31.15558104               92.59599464              222.47742982               -9.39544112
              46.65655237                9.60147186               92.21168093                1.00000000               92.52133191              -22.02335418              -29.84714056               64.07276805              173.95038667              -18.38561485
              48.32519961                8.26719041               88.34196918                1.00000000               66.86472418                7.87636188              -72.00119868               41.89957542              127.84595395              -42.13547381
              26.13833891               15.64356802              100.32954718                1.00000000                0.00304891                0.03679695               -0.00111000                0.22126977                0.02984362                0.28840471
              27.13836939               15.06929983               99.91203239                1.00000000                0.04018863               -0.04688685                0.00878828                0.29256778                0.03153573               -0.09190610
              28.13914268               14.49637973               99.49453286                1.00000000              155.29183886               -0.08469507               -0.02932485               -0.72675552              -24.46029887               -0.39876209
              32.24420617               13.89952749               98.58600732                1.00000000              271.02514711              -27.80903886              -83.87059276                5.77424584              137.63233216               -1.51573287
              35.55964562               13.28525274               98.19540032                1.00000000              209.88520753              -40.83752929              -58.85212454               20.64681963              207.61936923               -0.47818198
              38.44191032               12.71868962               97.56377975                1.00000000              175.55145130              -43.36568143              -49.00815717               39.94580133              220.36190854               -0.49813039
              41.07067465               12.20132070               96.71449963                1.00000000              154.70423127              -41.55235348              -40.82054336               55.51269263              228.37335178               -1.39256483
              43.53599495               11.69136921               95.55400769                1.00000000              141.73116521              -38.75269960              -35.66300609               63.50441476              230.37513282               -3.37596465
              45.90529795               11.11896825               93.92502890                1.00000000              130.30025205              -33.63703475              -33.11127550               60.27435609              223.43772896               -6.78198641
              48.14199999               10.38705492               91.52115567                1.00000000               96.13678660              -21.36921382              -31.74220777               40.60605354              174.90661640              -12.53475677
              49.82803368                9.33897130               87.47751918                1.00000000               68.60336937                6.18007775              -72.76074823               26.26558926              128.36943124              -27.30255976
              26.71510484               16.64391051              100.18926619                1.00000000                0.01226173                0.02647587                0.00448722                0.16778694                0.01768774                0.26498781
              27.71522746               16.06889682               99.76871171                1.00000000                0.13808871               -0.03095580               -0.00581894                0.25383532                0.03216291               -0.15462208
              28.71786661               15.49527186               99.34831494                1.00000000              158.46288388               -0.39645775               -0.10020845              -15.99988127              -23.35237405               -0.80356751
              32.88448514               14.57662807               98.45573420                1.00000000              279.84966850              -41.61903607              -83.93559319              -20.64866199              139.17519252               -1.35681351
              36.31485998               13.81467039               98.08574467                1.00000000              221.45386470              -54.29477012              -58.47734441                7.59268232              209.62916147               -0.57639283
              39.31356243               13.22892453               97.43895363                1.00000000              185.71879646              -52.14475253              -49.23904140               27.59690090              221.61868299               -0.22551521
              42.02923591               12.74186840               96.54344569                1.00000000              162.54440889              -47.88678158              -41.29402285               37.79258337              229.01630029               -1.01068399
              44.56445061               12.27224296               95.30881583                1.00000000              147.76692372              -43.37423325              -36.34495406               40.56649987              230.69338155               -2.50766738
              46.98457439               11.76788151               93.58536635                1.00000000              134.21098893              -36.39551301              -33.85066758               37.36873291              223.66037989               -4.81958268
              49.24867039               11.17408759               91.07291149                1.00000000               98.10521206              -22.14804392              -32.41575688               25.32111620              175.10885203               -8.40100375
              50.94667863               10.39079196               86.91664798                1.00000000               69.80082438                4.17306881              -73.05569367               16.75091545              128.63996438              -17.84155060
              27.29172203               17.64409754              100.04808631                1.00000000                0.03627277                0.00905888               -0.01226949                0.12794301                0.03708770                0.24632733
              28.29208475               17.06868071               99.62496385                1.00000000                0.98458883               -0.02245252               -0.01102102               -0.07817209               -0.21700140               -0.20090359
              29.31141380               16.48845057               99.19626410                1.00000000              160.98748238               -6.64494563               -0.73716718              -28.07925061              -16.51902422               -4.67000167
              33.51183440               15.06714677               98.41323846                1.00000000              287.38945003              -68.63505876              -79.08198777              -36.69460451              146.20760779               -1.27119094
              37.05920280               14.19935734               98.08587755                1.00000000              227.74079619              -62.25681445              -56.10463131                2.02873549              213.16665927                1.34532947
              40.06665032               13.67579457               97.43503894                1.00000000              186.20025418              -55.56865451              -47.47908472               18.05949773              222.39423921                0.79092995
              42.78320789               13.24358506               96.50005517                1.00000000              162.73307586              -49.63694726              -40.60846085               20.87244039              228.67097166               -0.26687127
              45.32131184               12.82388455               95.21685979                1.00000000              148.38100481              -44.98456196              -35.95050429               20.03029150              230.04499511               -1.33210252
              47.75082798               12.39105799               93.43721958                1.00000000              135.21000087              -39.19413381              -33.38693662               17.94684355              223.23587272               -2.48793996
              50.02551186               11.94409404               90.86271263                1.00000000               98.94076302              -24.21676066              -31.93828224               12.69226629              174.91398261               -4.41541508
              51.72964324               11.42243267               86.63481252                1.00000000               70.41313836                2.25456371              -72.76105765                8.72580709              128.71140986               -9.72540739
              27.86849735               18.64409169               99.90665588                1.00000000                0.08136291               -0.00058493                0.02948050                0.11314058                0.09647131                0.26305232
              28.86931098               18.06844777               99.48084157                1.00000000               14.46590979               -0.02329435               -0.04736389               -6.36331450               -3.48733248               -0.24571554
              30.15781555               17.36237294               98.98207347                1.00000000              178.51876489              -12.60776285               -7.87067277              -58.58586933               23.58140937              -19.00632233
              34.43968628               15.20392689               98.55851362                1.00000000              279.44856744              -86.32198745              -70.35494383              -46.85675463              167.97411933              -15.98968953
              37.74678689               14.56953410               98.26688766                1.00000000              209.54191921              -62.98232422              -49.67584311               14.43963666              211.65662731               -1.61174754
              40.63052466               14.11755144               97.56086572                1.00000000              177.59039245              -55.82431255              -45.21704149               15.36720162              218.67098990               -4.22240789
              43.29859474               13.74912946               96.59062496                1.00000000              159.35294277              -49.44556060              -39.59691500               14.28869968              227.51089475               -5.60240877
              45.81758352               13.37255172               95.29358952                1.00000000              146.23535126              -45.13328253              -34.78957350               11.37063611              231.32256320               -8.15180583
              48.22330177               12.98399883               93.51559960                1.00000000              132.67787534              -40.70591544              -31.01565841               13.10741130              224.58296628              -12.89944569
              50.47114102               12.68975237               90.92447748                1.00000000               97.06078644              -25.43416636              -29.61616050               17.15713663              175.24138168              -14.49262031
              52.16451750               12.43588323               86.67113556                1.00000000               69.33764746                1.34505614              -70.91353198               18.10051170              129.69120206              -18.51092054
         1          2         13         12        122        123        134        133  
         2          3         14         13        123        124        135        134  
         3          4         15         14        124        125        136        135  
         4          5         16         15        125        126        137        136  
         5          6         17         16        126        127        138        137  
         6          7         18         17        127        128        139        138  
         7          8         19         18        128        129        140        139  
         8          9         20         19        129        130        141        140  
         9         10         21         20        130        131        142        141  
        10         11         22         21        131        132        143        142  
        12         13         24         23        133        134        145        144  
        13         14         25         24        134        135        146        145  
        14         15         26         25        135        136        147        146  
        15         16         27         26        136        137        148        147  
        16         17         28         27        137        138        149        148  
        17         18         29         28        138        139        150        149  
        18         19         30         29        139        140        151        150  
        19         20         31         30        140        141        152        151  
        20         21         32         31        141        142        153        152  
        21         22         33         32        142        143        154        153  
        23         24         35         34        144        145        156        155  
        24         25         36         35        145        146        157        156  
        25         26         37         36        146        147        158        157  
        26         27         38         37        147        148        159        158  
        27         28         39         38        148        149        160        159  
        28         29         40         39        149        150        161        160  
        29         30         41         40        150        151        162        161  
        30         31         42         41        151        152        163        162  
        31         32         43         42        152        153        164        163  
        32         33         44         43        153        154        165        164  
        34         35         46         45        155        156        167        166  
        35         36         47         46        156        157        168        167  
        36         37         48         47        157        158        169        168  
        37         38         49         48        158        159        170        169  
        38         39         50         49        159        160        171        170  
        39         40         51         50        160        161        172        171  
        40         41         52         51        161        162        173        172  
        41         42         53         52        162        163        174        173  
        42         43         54         53        163        164        175        174  
        43         44         55         54        164        165        176        175  
        45         46         57         56        166        167        178        177  
        46         47         58         57        167        168        179        178  
        47         48         59         58        168        169        180        179  
        48         49         60         59        169        170        181        180  
        49         50         61         60        170        171        182        181  
        50         51         62         61        171        172        183        182  
        51         52         63         62        172        173        184        183  
        52         53         64         63        173        174        185        184  
        53         54         65         64        174        175        186        185  
        54         55         66         65        175        176        187        186  
        56         57         68         67        177        178        189        188  
        57         58         69         68        178        179        190        189  
        58         59         70         69        179        180        191        190  
        59         60         71         70        180        181        192        191  
        60         61         72         71        181        182        193        192  
        61         62         73         72        182        183        194        193  
        62         63         74         73        183        184        195        194  
        63         64         75         74        184        185        196        195  
        64         65         76         75        185        186        197        196  
        65         66         77         76        186        187        198        197  
        67         68         79         78        188        189        200        199  
        68         69         80         79        189        190        201        200  
        69         70         81         80        190        191        202        201  
        70         71         82         81        191        192        203        202  
        71         72         83         82        192        193        204        203  
        72         73         84         83        193        194        205        204  
        73         74         85         84        194        195        206        205  
        74         75         86         85        195        196        207        206  
        75         76         87         86        196        197        208        207  
        76         77         88         87        197        198        209        208  
        78         79         90         89        199        200        211        210  
        79         80         91         90        200        201        212        211  
        80         81         92         91        201        202        213        212  
        81         82         93         92        202        203        214        213  
        82         83         94         93        203        204        215        214  
        83         84         95         94        204        205        216        215  
        84         85         96         95        205        206        217        216  
        85         86         97         96        206        207        218        217  
        86         87         98         97        207        208        219        218  
        87         88         99         98        208        209        220        219  
        89         90        101        100        210        211        222        221  
        90         91        102        101        211        212        223        222  
        91         92        103        102        212        213        224        223  
        92         93        104        103        213        214        225        224  
        93         94        105        104        214        215        226        225  
        94         95        106        105        215        216        227        226  
        95         96        107        106        216        217        228        227  
        96         97        108        107        217        218        229        228  
        97         98        109        108        218        219        230        229  
        98         99        110        109        219        220        231        230  
       100        101        112        111        221        222        233        232  
       101        102        113        112        222        223        234        233  
       102        103        114        113        223        224        235        234  
       103        104        115        114        224        225        236        235  
       104        105        116        115        225        226        237        236  
       105        106        117        116        226        227        238        237  
       106        107        118        117        227        228        239        238  
       107        108        119        118        228        229        240        239  
       108        109        120        119        229        230        241        240  
       109        110        121        120        230        231        242        241  
       122        123        134        133        243        244        255        254  
       123        124        135        134        244        245        256        255  
       124        125        136        135        245        246        257        256  
       125        126        137        136        246        247        258        257  
       126        127        138        137        247        248        259        258  
       127        128        139        138        248        249        260        259  
       128        129        140        139        249        250        261        260  
       129        130        141        140        250        251        262        261  
       130        131        142        141        251        252        263        262  
       131        132        143        142        252        253        264        263  
       133        134        145        144        254        255        266        265  
       134        135        146        145        255        256        267        266  
       135        136        147        146        256        257        268        267  
       136        137        148        147        257        258        269        268  
       137        138        149        148        258        259        270        269  
       138        139        150        149        259        260        271        270  
       139        140        151        150        260        261        272        271  
       140        141        152        151        261        262        273        272  
       141        142        153        152        262        263        274        273  
       142        143        154        153        263        264        275        274  
       144        145        156        155        265        266        277        276  
       145        146        157        156        266        267        278        277  
       146        147        158        157        267        268        279        278  
       147        148        159        158        268        269        280        279  
       148        149        160        159        269        270        281        280  
       149        150        161        160        270        271        282        281  
       150        151        162        161        271        272        283        282  
       151        152        163        162        272        273        284        283  
       152        153        164        163        273        274        285        284  
       153        154        165        164        274        275        286        285  
       155        156        167        166        276        277        288        287  
       156        157        168        167        277        278        289        288  
       157        158        169        168        278        279        290        289  
       158        159        170        169        279        280        291        290  
       159        160        171        170        280        281        292        291  
       160        161        172        171        281        282        293        292  
       161        162        173        172        282        283        294        293  
       162        163        174        173        283        284        295        294  
       163        164        175        174        284        285        296        295  
       164        165        176        175        285        286        297        296  
       166        167        178        177        287        288        299        298  
       167        168        179        178        288        289        300        299  
       168        169        180        179        289        290        301        300  
       169        170        181        180        290        291        302        301  
       170        171        182        181        291        292        303        302  
       171        172        183        182        292        293        304        303  
       172        173        184        183        293        294        305        304  
       173        174        185        184        294        295        306        305  
       174        175        186        185        295        296        307        306  
       175        176        187        186        296        297        308        307  
       177        178        189        188        298        299        310        309  
       178        179        190        189        299        300        311        310  
       179        180        191        190        300        301        312        311  
       180        181        192        191        301        302        313        312  
       181        182        193        192        302        303        314        313  
       182        183        194        193        303        304        315        314  
       183        184        195        194        304        305        316        315  
       184        185        196        195        305        306        317        316  
       185        186        197        196        306        307        318        317  
       186        187        198        197        307        308        319        318  
       188        189        200        199        309        310        321        320  
       189        190        201        200        310        311        322        321  
       190        191        202        201        311        312        323        322  
       191        192        203        202        312        313        324        323  
       192        193        204        203        313        314        325        324  
       193        194        205        204        314        315        326        325  
       194        195        206        205        315        316        327        326  
       195        196        207        206        316        317        328        327  
       196        197        208        207        317        318        329        328  
       197        198        209        208        318        319        330        329  
       199        200        211        210        320        321        332        331  
       200        201        212        211        321        322        333        332  
       201        202        213        212        322        323        334        333  
       202        203        214        213        323        324        335        334  
       203        204        215        214        324        325        336        335  
       204        205        216        215        325        326        337        336  
       205        206        217        216        326        327        338        337  
       206        207        218        217        327        328        339        338  
       207        208        219        218        328        329        340        339  
       208        209        220        219        329        330        341        340  
       210        211        222        221        331        332        343        342  
       211        212        223        222        332        333        344        343  
       212        213        224        223        333        334        345        344  
       213        214        225        224        334        335        346        345  
       214        215        226        225        335        336        347        346  
       215        216        227        226        336        337        348        347  
       216        217        228        227        337        338        349        348  
       217        218        229        228        338        339        350        349  
       218        219        230        229        339        340        351        350  
       219        220        231        230        340        341        352        351  
       221        222        233        232        342        343        354        353  
       222        223        234        233        343        344        355        354  
       223        224        235        234        344        345        356        355  
       224        225        236        235        345        346        357        356  
       225        226        237        236        346        347        358        357  
       226        227        238        237        347        348        359        358  
       227        228        239        238        348        349        360        359  
       228        229        240        239        349        350        361        360  
       229        230        241        240        350        351        362        361  
       230        231        242        241        351        352        363        362  
       243        244        255        254        364        365        376        375  
       244        245        256        255        365        366        377        376  
       245        246        257        256        366        367        378        377  
       246        247        258        257        367        368        379        378  
       247        248        259        258        368        369        380        379  
       248        249        260        259        369        370        381        380  
       249        250        261        260        370        371        382        381  
       250        251        262        261        371        372        383        382  
       251        252        263        262        372        373        384        383  
       252        253        264        263        373        374        385        384  
       254        255        266        265        375        376        387        386  
       255        256        267        266        376        377        388        387  
       256        257        268        267        377        378        389        388  
       257        258        269        268        378        379        390        389  
       258        259        270        269        379        380        391        390  
       259        260        271        270        380        381        392        391  
       260        261        272        271        381        382        393        392  
       261        262        273        272        382        383        394        393  
       262        263        274        273        383        384        395        394  
       263        264        275        274        384        385        396        395  
       265        266        277        276        386        387        398        397  
       266        267        278        277        387        388        399        398  
       267        268        279        278        388        389        400        399  
       268        269        280        279        389        390        401        400  
       269        270        281        280        390        391        402        401  
       270        271        282        281        391        392        403        402  
       271        272        283        282        392        393        404        403  
       272        273        284        283        393        394        405        404  
       273        274        285        284        394        395        406        405  
       274        275        286        285        395        396        407        406  
       276        277        288        287        397        398        409        408  
       277        278        289        288        398        399        410        409  
       278        279        290        289        399        400        411        410  
       279        280        291        290        400        401        412        411  
       280        281        292        291        401        402        413        412  
       281        282        293        292        402        403        414        413  
       282        283        294        293        403        404        415        414  
       283        284        295        294        404        405        416        415  
       284        285        296        295        405        406        417        416  
       285        286        297        296        406        407        418        417  
       287        288        299        298        408        409        420        419  
       288        289        300        299        409        410        421        420  
       289        290        301        300        410        411        422        421  
       290        291        302        301        411        412        423        422  
       291        292        303        302        412        413        424        423  
       292        293        304        303        413        414        425        424  
       293        294        305        304        414        415        426        425  
       294        295        306        305        415        416        427        426  
       295        296        307        306        416        417        428        427  
       296        297        308        307        417        418        429        428  
       298        299        310        309        419        420        431        430  
       299        300        311        310        420        421        432        431  
       300        301        312        311        421        422        433        432  
       301        302        313        312        422        423        434        433  
       302        303        314        313        423        424        435        434  
       303        304        315        314        424        425        436        435  
       304        305        316        315        425        426        437        436  
       305        306        317        316        426        427        438        437  
       306        307        318        317        427        428        439        438  
       307        308        319        318        428        429        440        439  
       309        310        321        320        430        431        442        441  
       310        311        322        321        431        432        443        442  
       311        312        323        322        432        433        444        443  
       312        313        324        323        433        434        445        444  
       313        314        325        324        434        435        446        445  
       314        315        326        325        435        436        447        446  
       315        316        327        326        436        437        448        447  
       316        317        328        327        437        438        449        448  
       317        318        329        328        438        439        450        449  
       318        319        330        329        439        440        451        450  
       320        321        332        331        441        442        453        452  
       321        322        333        332        442        443        454        453  
       322        323        334        333        443        444        455        454  
       323        324        335        334        444        445        456        455  
       324        325        336        335        445        446        457        456  
       325        326        337        336        446        447        458        457  
       326        327        338        337        447        448        459        458  
       327        328        339        338        448        449        460        459  
       328        329        340        339        449        450        461        460  
       329        330        341        340        450        451        462        461  
       331        332        343        342        452        453        464        463  
       332        333        344        343        453        454        465        464  
       333        334        345        344        454        455        466        465  
       334        335        346        345        455        456        467        466  
       335        336        347        346        456        457        468        467  
       336        337        348        347        457        458        469        468  
       337        338        349        348        458        459        470        469  
       338        339        350        349        459        460        471        470  
       339        340        351        350        460        461        472        471  
       340        341        352        351        461        462        473        472  
       342        343        354        353        463        464        475        474  
       343        344        355        354        464        465        476        475  
       344        345        356        355        465        466        477        476  
       345        346        357        356        466        467        478        477  
       346        347        358        357        467        468        479        478  
       347        348        359        358        468        469        480        479  
       348        349        360        359        469        470        481        480  
       349        350        361        360        470        471        482        481  
       350        351        362        361        471        472        483        482  
       351        352        363        362        472        473        484        483  
       364        365        376        375        485        486        497        496  
       365        366        377        376        486        487        498        497  
       366        367        378        377        487        488        499        498  
       367        368        379        378        488        489        500        499  
       368        369        380        379        489        490        501        500  
       369        370        381        380        490        491        502        501  
       370        371        382        381        491        492        503        502  
       371        372        383        382        492        493        504        503  
       372        373        384        383        493        494        505        504  
       373        374        385        384        494        495        506        505  
       375        376        387        386        496        497        508        507  
       376        377        388        387        497        498        509        508  
       377        378        389        388        498        499        510        509  
       378        379        390        389        499        500        511        510  
       379        380        391        390        500        501        512        511  
       380        381        392        391        501        502        513        512  
       381        382        393        392        502        503        514        513  
       382        383        394        393        503        504        515        514  
       383        384        395        394        504        505        516        515  
       384        385        396        395        505        506        517        516  
       386        387        398        397        507        508        519        518  
       387        388        399        398        508        509        520        519  
       388        389        400        399        509        510        521        520  
       389        390        401        400        510        511        522        521  
       390        391        402        401        511        512        523        522  
       391        392        403        402        512        513        524        523  
       392        393        404        403        513        514        525        524  
       393        394        405        404        514        515        526        525  
       394        395        406        405        515        516        527        526  
       395        396        407        406        516        517        528        527  
       397        398        409        408        518        519        530        529  
       398        399        410        409        519        520        531        530  
       399        400        411        410        520        521        532        531  
       400        401        412        411        521        522        533        532  
       401        402        413        412        522        523        534        533  
       402        403        414        413        523        524        535        534  
       403        404        415        414        524        525        536        535  
       404        405        416        415        525        526        537        536  
       405        406        417        416        526        527        538        537  
       406        407        418        417        527        528        539        538  
       408        409        420        419        529        530        541        540  
       409        410        421        420        530        531        542        541  
       410        411        422        421        531        532        543        542  
       411        412        423        422        532        533        544        543  
       412        413        424        423        533        534        545        544  
       413        414        425        424        534        535        546        545  
       414        415        426        425        535        536        547        546  
       415        416        427        426        536        537        548        547  
       416        417        428        427        537        538        549        548  
       417        418        429        428        538        539        550        549  
       419        420        431        430        540        541        552        551  
       420        421        432        431        541        542        553        552  
       421        422        433        432        542        543        554        553  
       422        423        434        433        543        544        555        554  
       423        424        435        434        544        545        556        555  
       424        425        436        435        545        546        557        556  
       425        426        437        436        546        547        558        557  
       426        427        438        437        547        548        559        558  
       427        428        439        438        548        549        560        559  
       428        429        440        439        549        550        561        560  
       430        431        442        441        551        552        563        562  
       431        432        443        442        552        553        564        563  
       432        433        444        443        553        554        565        564  
       433        434        445        444        554        555        566        565  
       434        435        446        445        555        556        567        566  
       435        436        447        446        556        557        568        567  
       436        437        448        447        557        558        569        568  
       437        438        449        448        558        559        570        569  
       438        439        450        449        559        560        571        570  
       439        440        451        450        560        561        572        571  
       441        442        453        452        562        563        574        573  
       442        443        454        453        563        564        575        574  
       443        444        455        454        564        565        576        575  
       444        445        456        455        565        566        577        576  
       445        446        457        456        566        567        578        577  
       446        447        458        457        567        568        579        578  
       447        448        459        458        568        569        580        579  
       448        449        460        459        569        570        581        580  
       449        450        461        460        570        571        582        581  
       450        451        462        461        571        572        583        582  
       452        453        464        463        573        574        585        584  
       453        454        465        464        574        575        586        585  
       454        455        466        465        575        576        587        586  
       455        456        467        466        576        577        588        587  
       456        457        468        467        577        578        589        588  
       457        458        469        468        578        579        590        589  
       458        459        470        469        579        580        591        590  
       459        460        471        470        580        581        592        591  
       460        461        472        471        581        582        593        592  
       461        462        473        472        582        583        594        593  
       463        464        475        474        584        585        596        595  
       464        465        476        475        585        586        597        596  
       465        466        477        476        586        587        598        597  
       466        467        478        477        587        588        599        598  
       467        468        479        478        588        589        600        599  
       468        469        480        479        589        590        601        600  
       469        470        481        480        590        591        602        601  
       470        471        482        481        591        592        603        602  
       471        472        483        482        592        593        604        603  
       472        473        484        483        593        594        605        604  
       485        486        497        496        606        607        618        617  
       486        487        498        497        607        608        619        618  
       487        488        499        498        608        609        620        619  
       488        489        500        499        609        610        621        620  
       489        490        501        500        610        611        622        621  
       490        491        502        501        611        612        623        622  
       491        492        503        502        612        613        624        623  
       492        493        504        503        613        614        625        624  
       493        494        505        504        614        615        626        625  
       494        495        506        505        615        616        627        626  
       496        497        508        507        617        618        629        628  
       497        498        509        508        618        619        630        629  
       498        499        510        509        619        620        631        630  
       499        500        511        510        620        621        632        631  
       500        501        512        511        621        622        633        632  
       501        502        513        512        622        623        634        633  
       502        503        514        513        623        624        635        634  
       503        504        515        514        624        625        636        635  
       504        505        516        515        625        626        637        636  
       505        506        517        516        626        627        638        637  
       507        508        519        518        628        629        640        639  
       508        509        520        519        629        630        641        640  
       509        510        521        520        630        631        642        641  
       510        511        522        521        631        632        643        642  
       511        512        523        522        632        633        644        643  
       512        513        524        523        633        634        645        644  
       513        514        525        524        634        635        646        645  
       514        515        526        525        635        636        647        646  
       515        516        527        526        636        637        648        647  
       516        517        528        527        637        638        649        648  
       518        519        530        529        639        640        651        650  
       519        520        531        530        640        641        652        651  
       520        521        532        531        641        642        653        652  
       521        522        533        532        642        643        654        653  
       522        523        534        533        643        644        655        654  
       523        524        535        534        644        645        656        655  
       524        525        536        535        645        646        657        656  
       525        526        537        536        646        647        658        657  
       526        527        538        537        647        648        659        658  
       527        528        539        538        648        649        660        659  
       529        530        541        540        650        651        662        661  
       530        531        542        541        651        652        663        662  
       531        532        543        542        652        653        664        663  
       532        533        544        543        653        654        665        664  
       533        534        545        544        654        655        666        665  
       534        535        546        545        655        656        667        666  
       535        536        547        546        656        657        668        667  
       536        537        548        547        657        658        669        668  
       537        538        549        548        658        659        670        669  
       538        539        550        549        659        660        671        670  
       540        541        552        551        661        662        673        672  
       541        542        553        552        662        663        674        673  
       542        543        554        553        663        664        675        674  
       543        544        555        554        664        665        676        675  
       544        545        556        555        665        666        677        676  
       545        546        557        556        666        667        678        677  
       546        547        558        557        667        668        679        678  
       547        548        559        558        668        669        680        679  
       548        549        560        559        669        670        681        680  
       549        550        561        560        670        671        682        681  
       551        552        563        562        672        673        684        683  
       552        553        564        563        673        674        685        684  
       553        554        565        564        674        675        686        685  
       554        555        566        565        675        676        687        686  
       555        556        567        566        676        677        688        687  
       556        557        568        567        677        678        689        688  
       557        558        569        568        678        679        690        689  
       558        559        570        569        679        680        691        690  
       559        560        571        570        680        681        692        691  
       560        561        572        571        681        682        693        692  
       562        563        574        573        683        684        695        694  
       563        564        575        574        684        685        696        695  
       564        565        576        575        685        686        697        696  
       565        566        577        576        686        687        698        697  
       566        567        578        577        687        688        699        698  
       567        568        579        578        688        689        700        699  
       568        569        580        579        689        690        701        700  
       569        570        581        580        690        691        702        701  
       570        571        582        581        691        692        703        702  
       571        572        583        582        692        693        704        703  
       573        574        585        584        694        695        706        705  
       574        575        586        585        695        696        707        706  
       575        576        587        586        696        697        708        707  
       576        577        588        587        697        698        709        708  
       577        578        589        588        698        699        710        709  
       578        579        590        589        699        700        711        710  
       579        580        591        590        700        701        712        711  
       580        581        592        591        701        702        713        712  
       581        582        593        592        702        703        714        713  
       582        583        594        593        703        704        715        714  
       584        585        596        595        705        706        717        716  
       585        586        597        596        706        707        718        717  
       586        587        598        597        707        708        719        718  
       587        588        599        598        708        709        720        719  
       588        589        600        599        709        710        721        720  
       589        590        601        600        710        711        722        721  
       590        591        602        601        711        712        723        722  
       591        592        603        602        712        713        724        723  
       592        593        604        603        713        714        725        724  
       593        594        605        604        714        715        726        725  
       606        607        618        617        727        728        739        738  
       607        608        619        618        728        729        740        739  
       608        609        620        619        729        730        741        740  
       609        610        621        620        730        731        742        741  
       610        611        622        621        731        732        743        742  
       611        612        623        622        732        733        744        743  
       612        613        624        623        733        734        745        744  
       613        614        625        624        734        735        746        745  
       614        615        626        625        735        736        747        746  
       615        616        627        626        736        737        748        747  
       617        618        629        628        738        739        750        749  
       618        619        630        629        739        740        751        750  
       619        620        631        630        740        741        752        751  
       620        621        632        631        741        742        753        752  
       621        622        633        632        742        743        754        753  
       622        623        634        633        743        744        755        754  
       623        624        635        634        744        745        756        755  
       624        625        636        635        745        746        757        756  
       625        626        637        636        746        747        758        757  
       626        627        638        637        747        748        759        758  
       628        629        640        639        749        750        761        760  
       629        630        641        640        750        751        762        761  
       630        631        642        641        751        752        763        762  
       631        632        643        642        752        753        764        763  
       632        633        644        643        753        754        765        764  
       633        634        645        644        754        755        766        765  
       634        635        646        645        755        756        767        766  
       635        636        647        646        756        757        768        767  
       636        637        648        647        757        758        769        768  
       637        638        649        648        758        759        770        769  
       639        640        651        650        760        761        772        771  
       640        641        652        651        761        762        773        772  
       641        642        653        652        762        763        774        773  
       642        643        654        653        763        764        775        774  
       643        644        655        654        764        765        776        775  
       644        645        656        655        765        766        777        776  
       645        646        657        656        766        767        778        777  
       646        647        658        657        767        768        779        778  
       647        648        659        658        768        769        780        779  
       648        649        660        659        769        770        781        780  
       650        651        662        661        771        772        783        782  
       651        652        663        662        772        773        784        783  
       652        653        664        663        773        774        785        784  
       653        654        665        664        774        775        786        785  
       654        655        666        665        775        776        787        786  
       655        656        667        666        776        777        788        787  
       656        657        668        667        777        778        789        788  
       657        658        669        668        778        779        790        789  
       658        659        670        669        779        780        791        790  
       659        660        671        670        780        781        792        791  
       661        662        673        672        782        783        794        793  
       662        663        674        673        783        784        795        794  
       663        664        675        674        784        785        796        795  
       664        665        676        675        785        786        797        796  
       665        666        677        676        786        787        798        797  
       666        667        678        677        787        788        799        798  
       667        668        679        678        788        789        800        799  
       668        669        680        679        789        790        801        800  
       669        670        681        680        790        791        802        801  
       670        671        682        681        791        792        803        802  
       672        673        684        683        793        794        805        804  
       673        674        685        684        794        795        806        805  
       674        675        686        685        795        796        807        806  
       675        676        687        686        796        797        808        807  
       676        677        688        687        797        798        809        808  
       677        678        689        688        798        799        810        809  
       678        679        690        689        799        800        811        810  
       679        680        691        690        800        801        812        811  
       680        681        692        691        801        802        813        812  
       681        682        693        692        802        803        814        813  
       683        684        695        694        804        805        816        815  
       684        685        696        695        805        806        817        816  
       685        686        697        696        806        807        818        817  
       686        687        698        697        807        808        819        818  
       687        688        699        698        808        809        820        819  
       688        689        700        699        809        810        821        820  
       689        690        701        700        810        811        822        821  
       690        691        702        701        811        812        823        822  
       691        692        703        702        812        813        824        823  
       692        693        704        703        813        814        825        824  
       694        695        706        705        815        816        827        826  
       695        696        707        706        816        817        828        827  
       696        697        708        707        817        818        829        828  
       697        698        709        708        818        819        830        829  
       698        699        710        709        819        820        831        830  
       699        700        711        710        820        821        832        831  
       700        701        712        711        821        822        833        832  
       701        702        713        712        822        823        834        833  
       702        703        714        713        823        824        835        834  
       703        704        715        714        824        825        836        835  
       705        706        717        716        826        827        838        837  
       706        707        718        717        827        828        839        838  
       707        708        719        718        828        829        840        839  
       708        709        720        719        829        830        841        840  
       709        710        721        720        830        831        842        841  
       710        711        722        721        831        832        843        842  
       711        712        723        722        832        833        844        843  
       712        713        724        723        833        834        845        844  
       713        714        725        724        834        835        846        845  
       714        715        726        725        835        836        847        846  
       727        728        739        738        848        849        860        859  
       728        729        740        739        849        850        861        860  
       729        730        741        740        850        851        862        861  
       730        731        742        741        851        852        863        862  
       731        732        743        742        852        853        864        863  
       732        733        744        743        853        854        865        864  
       733        734        745        744        854        855        866        865  
       734        735        746        745        855        856        867        866  
       735        736        747        746        856        857        868        867  
       736        737        748        747        857        858        869        868  
       738        739        750        749        859        860        871        870  
       739        740        751        750        860        861        872        871  
       740        741        752        751        861        862        873        872  
       741        742        753        752        862        863        874        873  
       742        743        754        753        863        864        875        874  
       743        744        755        754        864        865        876        875  
       744        745        756        755        865        866        877        876  
       745        746        757        756        866        867        878        877  
       746        747        758        757        867        868        879        878  
       747        748        759        758        868        869        880        879  
       749        750        761        760        870        871        882        881  
       750        751        762        761        871        872        883        882  
       751        752        763        762        872        873        884        883  
       752        753        764        763        873        874        885        884  
       753        754        765        764        874        875        886        885  
       754        755        766        765        875        876        887        886  
       755        756        767        766        876        877        888        887  
       756        757        768        767        877        878        889        888  
       757        758        769        768        878        879        890        889  
       758        759        770        769        879        880        891        890  
       760        761        772        771        881        882        893        892  
       761        762        773        772        882        883        894        893  
       762        763        774        773        883        884        895        894  
       763        764        775        774        884        885        896        895  
       764        765        776        775        885        886        897        896  
       765        766        777        776        886        887        898        897  
       766        767        778        777        887        888        899        898  
       767        768        779        778        888        889        900        899  
       768        769        780        779        889        890        901        900  
       769        770        781        780        890        891        902        901  
       771        772        783        782        892        893        904        903  
       772        773        784        783        893        894        905        904  
       773        774        785        784        894        895        906        905  
       774        775        786        785        895        896        907        906  
       775        776        787        786        896        897        908        907  
       776        777        788        787        897        898        909        908  
       777        778        789        788        898        899        910        909  
       778        779        790        789        899        900        911        910  
       779        780        791        790        900        901        912        911  
       780        781        792        791        901        902        913        912  
       782        783        794        793        903        904        915        914  
       783        784        795        794        904        905        916        915  
       784        785        796        795        905        906        917        916  
       785        786        797        796        906        907        918        917  
       786        787        798        797        907        908        919        918  
       787        788        799        798        908        909        920        919  
       788        789        800        799        909        910        921        920  
       789        790        801        800        910        911        922        921  
       790        791        802        801        911        912        923        922  
       791        792        803        802        912        913        924        923  
       793        794        805        804        914        915        926        925  
       794        795        806        805        915        916        927        926  
       795        796        807        806        916        917        928        927  
       796        797        808        807        917        918        929        928  
       797        798        809        808        918        919        930        929  
       798        799        810        809        919        920        931        930  
       799        800        811        810        920        921        932        931  
       800        801        812        811        921        922        933        932  
       801        802        813        812        922        923        934        933  
       802        803        814        813        923        924        935        934  
       804        805        816        815        925        926        937        936  
       805        806        817        816        926        927        938        937  
       806        807        818        817        927        928        939        938  
       807        808        819        818        928        929        940        939  
       808        809        820        819        929        930        941        940  
       809        810        821        820        930        931        942        941  
       810        811        822        821        931        932        943        942  
       811        812        823        822        932        933        944        943  
       812        813        824        823        933        934        945        944  
       813        814        825        824        934        935        946        945  
       815        816        827        826        936        937        948        947  
       816        817        828        827        937        938        949        948  
       817        818        829        828        938        939        950        949  
       818        819        830        829        939        940        951        950  
       819        820        831        830        940        941        952        951  
       820        821        832        831        941        942        953        952  
       821        822        833        832        942        943        954        953  
       822        823        834        833        943        944        955        954  
       823        824        835        834        944        945        956        955  
       824        825        836        835        945        946        957        956  
       826        827        838        837        947        948        959        958  
       827        828        839        838        948        949        960        959  
       828        829        840        839        949        950        961        960  
       829        830        841        840        950        951        962        961  
       830        831        842        841        951        952        963        962  
       831        832        843        842        952        953        964        963  
       832        833        844        843        953        954        965        964  
       833        834        845        844        954        955        966        965  
       834        835        846        845        955        956        967        966  
       835        836        847        846        956        957        968        967  
       848        849        860        859        969        970        981        980  
       849        850        861        860        970        971        982        981  
       850        851        862        861        971        972        983        982  
       851        852        863        862        972        973        984        983  
       852        853        864        863        973        974        985        984  
       853        854        865        864        974        975        986        985  
       854        855        866        865        975        976        987        986  
       855        856        867        866        976        977        988        987  
       856        857        868        867        977        978        989        988  
       857        858        869        868        978        979        990        989  
       859        860        871        870        980        981        992        991  
       860        861        872        871        981        982        993        992  
       861        862        873        872        982        983        994        993  
       862        863        874        873        983        984        995        994  
       863        864        875        874        984        985        996        995  
       864        865        876        875        985        986        997        996  
       865        866        877        876        986        987        998        997  
       866        867        878        877        987        988        999        998  
       867        868        879        878        988        989       1000        999  
       868        869        880        879        989        990       1001       1000  
       870        871        882        881        991        992       1003       1002  
       871        872        883        882        992        993       1004       1003  
       872        873        884        883        993        994       1005       1004  
       873        874        885        884        994        995       1006       1005  
       874        875        886        885        995        996       1007       1006  
       875        876        887        886        996        997       1008       1007  
       876        877        888        887        997        998       1009       1008  
       877        878        889        888        998        999       1010       1009  
       878        879        890        889        999       1000       1011       1010  
       879        880        891        890       1000       1001       1012       1011  
       881        882        893        892       1002       1003       1014       1013  
       882        883        894        893       1003       1004       1015       1014  
       883        884        895        894       1004       1005       1016       1015  
       884        885        896        895       1005       1006       1017       1016  
       885        886        897        896       1006       1007       1018       1017  
       886        887        898        897       1007       1008       1019       1018  
       887        888        899        898       1008       1009       1020       1019  
       888        889        900        899       1009       1010       1021       1020  
       889        890        901        900       1010       1011       1022       1021  
       890        891        902        901       1011       1012       1023       1022  
       892        893        904        903       1013       1014       1025       1024  
       893        894        905        904       1014       1015       1026       1025  
       894        895        906        905       1015       1016       1027       1026  
       895        896        907        906       1016       1017       1028       1027  
       896        897        908        907       1017       1018       1029       1028  
       897        898        909        908       1018       1019       1030       1029  
       898        899        910        909       1019       1020       1031       1030  
       899        900        911        910       1020       1021       1032       1031  
       900        901        912        911       1021       1022       1033       1032  
       901        902        913        912       1022       1023       1034       1033  
       903        904        915        914       1024       1025       1036       1035  
       904        905        916        915       1025       1026       1037       1036  
       905        906        917        916       1026       1027       1038       1037  
       906        907        918        917       1027       1028       1039       1038  
       907        908        919        918       1028       1029       1040       1039  
       908        909        920        919       1029       1030       1041       1040  
       909        910        921        920       1030       1031       1042       1041  
       910        911        922        921       1031       1032       1043       1042  
       911        912        923        922       1032       1033       1044       1043  
       912        913        924        923       1033       1034       1045       1044  
       914        915        926        925       1035       1036       1047       1046  
       915        916        927        926       1036       1037       1048       1047  
       916        917        928        927       1037       1038       1049       1048  
       917        918        929        928       1038       1039       1050       1049  
       918        919        930        929       1039       1040       1051       1050  
       919        920        931        930       1040       1041       1052       1051  
       920        921        932        931       1041       1042       1053       1052  
       921        922        933        932       1042       1043       1054       1053  
       922        923        934        933       1043       1044       1055       1054  
       923        924        935        934       1044       1045       1056       1055  
       925        926        937        936       1046       1047       1058       1057  
       926        927        938        937       1047       1048       1059       1058  
       927        928        939        938       1048       1049       1060       1059  
       928        929        940        939       1049       1050       1061       1060  
       929        930        941        940       1050       1051       1062       1061  
       930        931        942        941       1051       1052       1063       1062  
       931        932        943        942       1052       1053       1064       1063  
       932        933        944        943       1053       1054       1065       1064  
       933        934        945        944       1054       1055       1066       1065  
       934        935        946        945       1055       1056       1067       1066  
       936        937        948        947       1057       1058       1069       1068  
       937        938        949        948       1058       1059       1070       1069  
       938        939        950        949       1059       1060       1071       1070  
       939        940        951        950       1060       1061       1072       1071  
       940        941        952        951       1061       1062       1073       1072  
       941        942        953        952       1062       1063       1074       1073  
       942        943        954        953       1063       1064       1075       1074  
       943        944        955        954       1064       1065       1076       1075  
       944        945        956        955       1065       1066       1077       1076  
       945        946        957        956       1066       1067       1078       1077  
       947        948        959        958       1068       1069       1080       1079  
       948        949        960        959       1069       1070       1081       1080  
       949        950        961        960       1070       1071       1082       1081  
       950        951        962        961       1071       1072       1083       1082  
       951        952        963        962       1072       1073       1084       1083  
       952        953        964        963       1073       1074       1085       1084  
       953        954        965        964       1074       1075       1086       1085  
       954        955        966        965       1075       1076       1087       1086  
       955        956        967        966       1076       1077       1088       1087  
       956        957        968        967       1077       1078       1089       1088  
       969        970        981        980       1090       1091       1102       1101  
       970        971        982        981       1091       1092       1103       1102  
       971        972        983        982       1092       1093       1104       1103  
       972        973        984        983       1093       1094       1105       1104  
       973        974        985        984       1094       1095       1106       1105  
       974        975        986        985       1095       1096       1107       1106  
       975        976        987        986       1096       1097       1108       1107  
       976        977        988        987       1097       1098       1109       1108  
       977        978        989        988       1098       1099       1110       1109  
       978        979        990        989       1099       1100       1111       1110  
       980        981        992        991       1101       1102       1113       1112  
       981        982        993        992       1102       1103       1114       1113  
       982        983        994        993       1103       1104       1115       1114  
       983        984        995        994       1104       1105       1116       1115  
       984        985        996        995       1105       1106       1117       1116  
       985        986        997        996       1106       1107       1118       1117  
       986        987        998        997       1107       1108       1119       1118  
       987        988        999        998       1108       1109       1120       1119  
       988        989       1000        999       1109       1110       1121       1120  
       989        990       1001       1000       1110       1111       1122       1121  
       991        992       1003       1002       1112       1113       1124       1123  
       992        993       1004       1003       1113       1114       1125       1124  
       993        994       1005       1004       1114       1115       1126       1125  
       994        995       1006       1005       1115       1116       1127       1126  
       995        996       1007       1006       1116       1117       1128       1127  
       996        997       1008       1007       1117       1118       1129       1128  
       997        998       1009       1008       1118       1119       1130       1129  
       998        999       1010       1009       1119       1120       1131       1130  
       999       1000       1011       1010       1120       1121       1132       1131  
      1000       1001       1012       1011       1121       1122       1133       1132  
      1002       1003       1014       1013       1123       1124       1135       1134  
      1003       1004       1015       1014       1124       1125       1136       1135  
      1004       1005       1016       1015       1125       1126       1137       1136  
      1005       1006       1017       1016       1126       1127       1138       1137  
      1006       1007       1018       1017       1127       1128       1139       1138  
      1007       1008       1019       1018       1128       1129       1140       1139  
      1008       1009       1020       1019       1129       1130       1141       1140  
      1009       1010       1021       1020       1130       1131       1142       1141  
      1010       1011       1022       1021       1131       1132       1143       1142  
      1011       1012       1023       1022       1132       1133       1144       1143  
      1013       1014       1025       1024       1134       1135       1146       1145  
      1014       1015       1026       1025       1135       1136       1147       1146  
      1015       1016       1027       1026       1136       1137       1148       1147  
      1016       1017       1028       1027       1137       1138       1149       1148  
      1017       1018       1029       1028       1138       1139       1150       1149  
      1018       1019       1030       1029       1139       1140       1151       1150  
      1019       1020       1031       1030       1140       1141       1152       1151  
      1020       1021       1032       1031       1141       1142       1153       1152  
      1021       1022       1033       1032       1142       1143       1154       1153  
      1022       1023       1034       1033       1143       1144       1155       1154  
      1024       1025       1036       1035       1145       1146       1157       1156  
      1025       1026       1037       1036       1146       1147       1158       1157  
      1026       1027       1038       1037       1147       1148       1159       1158  
      1027       1028       1039       1038       1148       1149       1160       1159  
      1028       1029       1040       1039       1149       1150       1161       1160  
      1029       1030       1041       1040       1150       1151       1162       1161  
      1030       1031       1042       1041       1151       1152       1163       1162  
      1031       1032       1043       1042       1152       1153       1164       1163  
      1032       1033       1044       1043       1153       1154       1165       1164  
      1033       1034       1045       1044       1154       1155       1166       1165  
      1035       1036       1047       1046       1156       1157       1168       1167  
      1036       1037       1048       1047       1157       1158       1169       1168  
      1037       1038       1049       1048       1158       1159       1170       1169  
      1038       1039       1050       1049       1159       1160       1171       1170  
      1039       1040       1051       1050       1160       1161       1172       1171  
      1040       1041       1052       1051       1161       1162       1173       1172  
      1041       1042       1053       1052       1162       1163       1174       1173  
      1042       1043       1054       1053       1163       1164       1175       1174  
      1043       1044       1055       1054       1164       1165       1176       1175  
      1044       1045       1056       1055       1165       1166       1177       1176  
      1046       1047       1058       1057       1167       1168       1179       1178  
      1047       1048       1059       1058       1168       1169       1180       1179  
      1048       1049       1060       1059       1169       1170       1181       1180  
      1049       1050       1061       1060       1170       1171       1182       1181  
      1050       1051       1062       1061       1171       1172       1183       1182  
      1051       1052       1063       1062       1172       1173       1184       1183  
      1052       1053       1064       1063       1173       1174       1185       1184  
      1053       1054       1065       1064       1174       1175       1186       1185  
      1054       1055       1066       1065       1175       1176       1187       1186  
      1055       1056       1067       1066       1176       1177       1188       1187  
      1057       1058       1069       1068       1178       1179       1190       1189  
      1058       1059       1070       1069       1179       1180       1191       1190  
      1059       1060       1071       1070       1180       1181       1192       1191  
      1060       1061       1072       1071       1181       1182       1193       1192  
      1061       1062       1073       1072       1182       1183       1194       1193  
      1062       1063       1074       1073       1183       1184       1195       1194  
      1063       1064       1075       1074       1184       1185       1196       1195  
      1064       1065       1076       1075       1185       1186       1197       1196  
      1065       1066       1077       1076       1186       1187       1198       1197  
      1066       1067       1078       1077       1187       1188       1199       1198  
      1068       1069       1080       1079       1189       1190       1201       1200  
      1069       1070       1081       1080       1190       1191       1202       1201  
      1070       1071       1082       1081       1191       1192       1203       1202  
      1071       1072       1083       1082       1192       1193       1204       1203  
      1072       1073       1084       1083       1193       1194       1205       1204  
      1073       1074       1085       1084       1194       1195       1206       1205  
      1074       1075       1086       1085       1195       1196       1207       1206  
      1075       1076       1087       1086       1196       1197       1208       1207  
      1076       1077       1088       1087       1197       1198       1209       1208  
      1077       1078       1089       1088       1198       1199       1210       1209  
      1090       1091       1102       1101       1211       1212       1223       1222  
      1091       1092       1103       1102       1212       1213       1224       1223  
      1092       1093       1104       1103       1213       1214       1225       1224  
      1093       1094       1105       1104       1214       1215       1226       1225  
      1094       1095       1106       1105       1215       1216       1227       1226  
      1095       1096       1107       1106       1216       1217       1228       1227  
      1096       1097       1108       1107       1217       1218       1229       1228  
      1097       1098       1109       1108       1218       1219       1230       1229  
      1098       1099       1110       1109       1219       1220       1231       1230  
      1099       1100       1111       1110       1220       1221       1232       1231  
      1101       1102       1113       1112       1222       1223       1234       1233  
      1102       1103       1114       1113       1223       1224       1235       1234  
      1103       1104       1115       1114       1224       1225       1236       1235  
      1104       1105       1116       1115       1225       1226       1237       1236  
      1105       1106       1117       1116       1226       1227       1238       1237  
      1106       1107       1118       1117       1227       1228       1239       1238  
      1107       1108       1119       1118       1228       1229       1240       1239  
      1108       1109       1120       1119       1229       1230       1241       1240  
      1109       1110       1121       1120       1230       1231       1242       1241  
      1110       1111       1122       1121       1231       1232       1243       1242  
      1112       1113       1124       1123       1233       1234       1245       1244  
      1113       1114       1125       1124       1234       1235       1246       1245  
      1114       1115       1126       1125       1235       1236       1247       1246  
      1115       1116       1127       1126       1236       1237       1248       1247  
      1116       1117       1128       1127       1237       1238       1249       1248  
      1117       1118       1129       1128       1238       1239       1250       1249  
      1118       1119       1130       1129       1239       1240       1251       1250  
      1119       1120       1131       1130       1240       1241       1252       1251  
      1120       1121       1132       1131       1241       1242       1253       1252  
      1121       1122       1133       1132       1242       1243       1254       1253  
      1123       1124       1135       1134       1244       1245       1256       1255  
      1124       1125       1136       1135       1245       1246       1257       1256  
      1125       1126       1137       1136       1246       1247       1258       1257  
      1126       1127       1138       1137       1247       1248       1259       1258  
      1127       1128       1139       1138       1248       1249       1260       1259  
      1128       1129       1140       1139       1249       1250       1261       1260  
      1129       1130       1141       1140       1250       1251       1262       1261  
      1130       1131       1142       1141       1251       1252       1263       1262  
      1131       1132       1143       1142       1252       1253       1264       1263  
      1132       1133       1144       1143       1253       1254       1265       1264  
      1134       1135       1146       1145       1255       1256       1267       1266  
      1135       1136       1147       1146       1256       1257       1268       1267  
      1136       1137       1148       1147       1257       1258       1269       1268  
      1137       1138       1149       1148       1258       1259       1270       1269  
      1138       1139       1150       1149       1259       1260       1271       1270  
      1139       1140       1151       1150       1260       1261       1272       1271  
      1140       1141       1152       1151       1261       1262       1273       1272  
      1141       1142       1153       1152       1262       1263       1274       1273  
      1142       1143       1154       1153       1263       1264       1275       1274  
      1143       1144       1155       1154       1264       1265       1276       1275  
      1145       1146       1157       1156       1266       1267       1278       1277  
      1146       1147       1158       1157       1267       1268       1279       1278  
      1147       1148       1159       1158       1268       1269       1280       1279  
      1148       1149       1160       1159       1269       1270       1281       1280  
      1149       1150       1161       1160       1270       1271       1282       1281  
      1150       1151       1162       1161       1271       1272       1283       1282  
      1151       1152       1163       1162       1272       1273       1284       1283  
      1152       1153       1164       1163       1273       1274       1285       1284  
      1153       1154       1165       1164       1274       1275       1286       1285  
      1154       1155       1166       1165       1275       1276       1287       1286  
      1156       1157       1168       1167       1277       1278       1289       1288  
      1157       1158       1169       1168       1278       1279       1290       1289  
      1158       1159       1170       1169       1279       1280       1291       1290  
      1159       1160       1171       1170       1280       1281       1292       1291  
      1160       1161       1172       1171       1281       1282       1293       1292  
      1161       1162       1173       1172       1282       1283       1294       1293  
      1162       1163       1174       1173       1283       1284       1295       1294  
      1163       1164       1175       1174       1284       1285       1296       1295  
      1164       1165       1176       1175       1285       1286       1297       1296  
      1165       1166       1177       1176       1286       1287       1298       1297  
      1167       1168       1179       1178       1288       1289       1300       1299  
      1168       1169       1180       1179       1289       1290       1301       1300  
      1169       1170       1181       1180       1290       1291       1302       1301  
      1170       1171       1182       1181       1291       1292       1303       1302  
      1171       1172       1183       1182       1292       1293       1304       1303  
      1172       1173       1184       1183       1293       1294       1305       1304  
      1173       1174       1185       1184       1294       1295       1306       1305  
      1174       1175       1186       1185       1295       1296       1307       1306  
      1175       1176       1187       1186       1296       1297       1308       1307  
      1176       1177       1188       1187       1297       1298       1309       1308  
      1178       1179       1190       1189       1299       1300       1311       1310  
      1179       1180       1191       1190       1300       1301       1312       1311  
      1180       1181       1192       1191       1301       1302       1313       1312  
      1181       1182       1193       1192       1302       1303       1314       1313  
      1182       1183       1194       1193       1303       1304       1315       1314  
      1183       1184       1195       1194       1304       1305       1316       1315  
      1184       1185       1196       1195       1305       1306       1317       1316  
      1185       1186       1197       1196       1306       1307       1318       1317  
      1186       1187       1198       1197       1307       1308       1319       1318  
      1187       1188       1199       1198       1308       1309       1320       1319  
      1189       1190       1201       1200       1310       1311       1322       1321  
      1190       1191       1202       1201       1311       1312       1323       1322  
      1191       1192       1203       1202       1312       1313       1324       1323  
      1192       1193       1204       1203       1313       1314       1325       1324  
      1193       1194       1205       1204       1314       1315       1326       1325  
      1194       1195       1206       1205       1315       1316       1327       1326  
      1195       1196       1207       1206       1316       1317       1328       1327  
      1196       1197       1208       1207       1317       1318       1329       1328  
      1197       1198       1209       1208       1318       1319       1330       1329  
      1198       1199       1210       1209       1319       1320       1331       1330  
      1211       1212       1223       1222       1332       1333       1344       1343  
      1212       1213       1224       1223       1333       1334       1345       1344  
      1213       1214       1225       1224       1334       1335       1346       1345  
      1214       1215       1226       1225       1335       1336       1347       1346  
      1215       1216       1227       1226       1336       1337       1348       1347  
      1216       1217       1228       1227       1337       1338       1349       1348  
      1217       1218       1229       1228       1338       1339       1350       1349  
      1218       1219       1230       1229       1339       1340       1351       1350  
      1219       1220       1231       1230       1340       1341       1352       1351  
      1220       1221       1232       1231       1341       1342       1353       1352  
      1222       1223       1234       1233       1343       1344       1355       1354  
      1223       1224       1235       1234       1344       1345       1356       1355  
      1224       1225       1236       1235       1345       1346       1357       1356  
      1225       1226       1237       1236       1346       1347       1358       1357  
      1226       1227       1238       1237       1347       1348       1359       1358  
      1227       1228       1239       1238       1348       1349       1360       1359  
      1228       1229       1240       1239       1349       1350       1361       1360  
      1229       1230       1241       1240       1350       1351       1362       1361  
      1230       1231       1242       1241       1351       1352       1363       1362  
      1231       1232       1243       1242       1352       1353       1364       1363  
      1233       1234       1245       1244       1354       1355       1366       1365  
      1234       1235       1246       1245       1355       1356       1367       1366  
      1235       1236       1247       1246       1356       1357       1368       1367  
      1236       1237       1248       1247       1357       1358       1369       1368  
      1237       1238       1249       1248       1358       1359       1370       1369  
      1238       1239       1250       1249       1359       1360       1371       1370  
      1239       1240       1251       1250       1360       1361       1372       1371  
      1240       1241       1252       1251       1361       1362       1373       1372  
      1241       1242       1253       1252       1362       1363       1374       1373  
      1242       1243       1254       1253       1363       1364       1375       1374  
      1244       1245       1256       1255       1365       1366       1377       1376  
      1245       1246       1257       1256       1366       1367       1378       1377  
      1246       1247       1258       1257       1367       1368       1379       1378  
      1247       1248       1259       1258       1368       1369       1380       1379  
      1248       1249       1260       1259       1369       1370       1381       1380  
      1249       1250       1261       1260       1370       1371       1382       1381  
      1250       1251       1262       1261       1371       1372       1383       1382  
      1251       1252       1263       1262       1372       1373       1384       1383  
      1252       1253       1264       1263       1373       1374       1385       1384  
      1253       1254       1265       1264       1374       1375       1386       1385  
      1255       1256       1267       1266       1376       1377       1388       1387  
      1256       1257       1268       1267       1377       1378       1389       1388  
      1257       1258       1269       1268       1378       1379       1390       1389  
      1258       1259       1270       1269       1379       1380       1391       1390  
      1259       1260       1271       1270       1380       1381       1392       1391  
      1260       1261       1272       1271       1381       1382       1393       1392  
      1261       1262       1273       1272       1382       1383       1394       1393  
      1262       1263       1274       1273       1383       1384       1395       1394  
      1263       1264       1275       1274       1384       1385       1396       1395  
      1264       1265       1276       1275       1385       1386       1397       1396  
      1266       1267       1278       1277       1387       1388       1399       1398  
      1267       1268       1279       1278       1388       1389       1400       1399  
      1268       1269       1280       1279       1389       1390       1401       1400  
      1269       1270       1281       1280       1390       1391       1402       1401  
      1270       1271       1282       1281       1391       1392       1403       1402  
      1271       1272       1283       1282       1392       1393       1404       1403  
      1272       1273       1284       1283       1393       1394       1405       1404  
      1273       1274       1285       1284       1394       1395       1406       1405  
      1274       1275       1286       1285       1395       1396       1407       1406  
      1275       1276       1287       1286       1396       1397       1408       1407  
      1277       1278       1289       1288       1398       1399       1410       1409  
      1278       1279       1290       1289       1399       1400       1411       1410  
      1279       1280       1291       1290       1400       1401       1412       1411  
      1280       1281       1292       1291       1401       1402       1413       1412  
      1281       1282       1293       1292       1402       1403       1414       1413  
      1282       1283       1294       1293       1403       1404       1415       1414  
      1283       1284       1295       1294       1404       1405       1416       1415  
      1284       1285       1296       1295       1405       1406       1417       1416  
      1285       1286       1297       1296       1406       1407       1418       1417  
      1286       1287       1298       1297       1407       1408       1419       1418  
      1288       1289       1300       1299       1409       1410       1421       1420  
      1289       1290       1301       1300       1410       1411       1422       1421  
      1290       1291       1302       1301       1411       1412       1423       1422  
      1291       1292       1303       1302       1412       1413       1424       1423  
      1292       1293       1304       1303       1413       1414       1425       1424  
      1293       1294       1305       1304       1414       1415       1426       1425  
      1294       1295       1306       1305       1415       1416       1427       1426  
      1295       1296       1307       1306       1416       1417       1428       1427  
      1296       1297       1308       1307       1417       1418       1429       1428  
      1297       1298       1309       1308       1418       1419       1430       1429  
      1299       1300       1311       1310       1420       1421       1432       1431  
      1300       1301       1312       1311       1421       1422       1433       1432  
      1301       1302       1313       1312       1422       1423       1434       1433  
      1302       1303       1314       1313       1423       1424       1435       1434  
      1303       1304       1315       1314       1424       1425       1436       1435  
      1304       1305       1316       1315       1425       1426       1437       1436  
      1305       1306       1317       1316       1426       1427       1438       1437  
      1306       1307       1318       1317       1427       1428       1439       1438  
      1307       1308       1319       1318       1428       1429       1440       1439  
      1308       1309       1320       1319       1429       1430       1441       1440  
      1310       1311       1322       1321       1431       1432       1443       1442  
      1311       1312       1323       1322       1432       1433       1444       1443  
      1312       1313       1324       1323       1433       1434       1445       1444  
      1313       1314       1325       1324       1434       1435       1446       1445  
      1314       1315       1326       1325       1435       1436       1447       1446  
      1315       1316       1327       1326       1436       1437       1448       1447  
      1316       1317       1328       1327       1437       1438       1449       1448  
      1317       1318       1329       1328       1438       1439       1450       1449  
      1318       1319       1330       1329       1439       1440       1451       1450  
      1319       1320       1331       1330       1440       1441       1452       1451  
      1332       1333       1344       1343       1453       1454       1465       1464  
      1333       1334       1345       1344       1454       1455       1466       1465  
      1334       1335       1346       1345       1455       1456       1467       1466  
      1335       1336       1347       1346       1456       1457       1468       1467  
      1336       1337       1348       1347       1457       1458       1469       1468  
      1337       1338       1349       1348       1458       1459       1470       1469  
      1338       1339       1350       1349       1459       1460       1471       1470  
      1339       1340       1351       1350       1460       1461       1472       1471  
      1340       1341       1352       1351       1461       1462       1473       1472  
      1341       1342       1353       1352       1462       1463       1474       1473  
      1343       1344       1355       1354       1464       1465       1476       1475  
      1344       1345       1356       1355       1465       1466       1477       1476  
      1345       1346       1357       1356       1466       1467       1478       1477  
      1346       1347       1358       1357       1467       1468       1479       1478  
      1347       1348       1359       1358       1468       1469       1480       1479  
      1348       1349       1360       1359       1469       1470       1481       1480  
      1349       1350       1361       1360       1470       1471       1482       1481  
      1350       1351       1362       1361       1471       1472       1483       1482  
      1351       1352       1363       1362       1472       1473       1484       1483  
      1352       1353       1364       1363       1473       1474       1485       1484  
      1354       1355       1366       1365       1475       1476       1487       1486  
      1355       1356       1367       1366       1476       1477       1488       1487  
      1356       1357       1368       1367       1477       1478       1489       1488  
      1357       1358       1369       1368       1478       1479       1490       1489  
      1358       1359       1370       1369       1479       1480       1491       1490  
      1359       1360       1371       1370       1480       1481       1492       1491  
      1360       1361       1372       1371       1481       1482       1493       1492  
      1361       1362       1373       1372       1482       1483       1494       1493  
      1362       1363       1374       1373       1483       1484       1495       1494  
      1363       1364       1375       1374       1484       1485       1496       1495  
      1365       1366       1377       1376       1486       1487       1498       1497  
      1366       1367       1378       1377       1487       1488       1499       1498  
      1367       1368       1379       1378       1488       1489       1500       1499  
      1368       1369       1380       1379       1489       1490       1501       1500  
      1369       1370       1381       1380       1490       1491       1502       1501  
      1370       1371       1382       1381       1491       1492       1503       1502  
      1371       1372       1383       1382       1492       1493       1504       1503  
      1372       1373       1384       1383       1493       1494       1505       1504  
      1373       1374       1385       1384       1494       1495       1506       1505  
      1374       1375       1386       1385       1495       1496       1507       1506  
      1376       1377       1388       1387       1497       1498       1509       1508  
      1377       1378       1389       1388       1498       1499       1510       1509  
      1378       1379       1390       1389       1499       1500       1511       1510  
      1379       1380       1391       1390       1500       1501       1512       1511  
      1380       1381       1392       1391       1501       1502       1513       1512  
      1381       1382       1393       1392       1502       1503       1514       1513  
      1382       1383       1394       1393       1503       1504       1515       1514  
      1383       1384       1395       1394       1504       1505       1516       1515  
      1384       1385       1396       1395       1505       1506       1517       1516  
      1385       1386       1397       1396       1506       1507       1518       1517  
      1387       1388       1399       1398       1508       1509       1520       1519  
      1388       1389       1400       1399       1509       1510       1521       1520  
      1389       1390       1401       1400       1510       1511       1522       1521  
      1390       1391       1402       1401       1511       1512       1523       1522  
      1391       1392       1403       1402       1512       1513       1524       1523  
      1392       1393       1404       1403       1513       1514       1525       1524  
      1393       1394       1405       1404       1514       1515       1526       1525  
      1394       1395       1406       1405       1515       1516       1527       1526  
      1395       1396       1407       1406       1516       1517       1528       1527  
      1396       1397       1408       1407       1517       1518       1529       1528  
      1398       1399       1410       1409       1519       1520       1531       1530  
      1399       1400       1411       1410       1520       1521       1532       1531  
      1400       1401       1412       1411       1521       1522       1533       1532  
      1401       1402       1413       1412       1522       1523       1534       1533  
      1402       1403       1414       1413       1523       1524       1535       1534  
      1403       1404       1415       1414       1524       1525       1536       1535  
      1404       1405       1416       1415       1525       1526       1537       1536  
      1405       1406       1417       1416       1526       1527       1538       1537  
      1406       1407       1418       1417       1527       1528       1539       1538  
      1407       1408       1419       1418       1528       1529       1540       1539  
      1409       1410       1421       1420       1530       1531       1542       1541  
      1410       1411       1422       1421       1531       1532       1543       1542  
      1411       1412       1423       1422       1532       1533       1544       1543  
      1412       1413       1424       1423       1533       1534       1545       1544  
      1413       1414       1425       1424       1534       1535       1546       1545  
      1414       1415       1426       1425       1535       1536       1547       1546  
      1415       1416       1427       1426       1536       1537       1548       1547  
      1416       1417       1428       1427       1537       1538       1549       1548  
      1417       1418       1429       1428       1538       1539       1550       1549  
      1418       1419       1430       1429       1539       1540       1551       1550  
      1420       1421       1432       1431       1541       1542       1553       1552  
      1421       1422       1433       1432       1542       1543       1554       1553  
      1422       1423       1434       1433       1543       1544       1555       1554  
      1423       1424       1435       1434       1544       1545       1556       1555  
      1424       1425       1436       1435       1545       1546       1557       1556  
      1425       1426       1437       1436       1546       1547       1558       1557  
      1426       1427       1438       1437       1547       1548       1559       1558  
      1427       1428       1439       1438       1548       1549       1560       1559  
      1428       1429       1440       1439       1549       1550       1561       1560  
      1429       1430       1441       1440       1550       1551       1562       1561  
      1431       1432       1443       1442       1552       1553       1564       1563  
      1432       1433       1444       1443       1553       1554       1565       1564  
      1433       1434       1445       1444       1554       1555       1566       1565  
      1434       1435       1446       1445       1555       1556       1567       1566  
      1435       1436       1447       1446       1556       1557       1568       1567  
      1436       1437       1448       1447       1557       1558       1569       1568  
      1437       1438       1449       1448       1558       1559       1570       1569  
      1438       1439       1450       1449       1559       1560       1571       1570  
      1439       1440       1451       1450       1560       1561       1572       1571  
      1440       1441       1452       1451       1561       1562       1573       1572  
      1453       1454       1465       1464       1574       1575       1586       1585  
      1454       1455       1466       1465       1575       1576       1587       1586  
      1455       1456       1467       1466       1576       1577       1588       1587  
      1456       1457       1468       1467       1577       1578       1589       1588  
      1457       1458       1469       1468       1578       1579       1590       1589  
      1458       1459       1470       1469       1579       1580       1591       1590  
      1459       1460       1471       1470       1580       1581       1592       1591  
      1460       1461       1472       1471       1581       1582       1593       1592  
      1461       1462       1473       1472       1582       1583       1594       1593  
      1462       1463       1474       1473       1583       1584       1595       1594  
      1464       1465       1476       1475       1585       1586       1597       1596  
      1465       1466       1477       1476       1586       1587       1598       1597  
      1466       1467       1478       1477       1587       1588       1599       1598  
      1467       1468       1479       1478       1588       1589       1600       1599  
      1468       1469       1480       1479       1589       1590       1601       1600  
      1469       1470       1481       1480       1590       1591       1602       1601  
      1470       1471       1482       1481       1591       1592       1603       1602  
      1471       1472       1483       1482       1592       1593       1604       1603  
      1472       1473       1484       1483       1593       1594       1605       1604  
      1473       1474       1485       1484       1594       1595       1606       1605  
      1475       1476       1487       1486       1596       1597       1608       1607  
      1476       1477       1488       1487       1597       1598       1609       1608  
      1477       1478       1489       1488       1598       1599       1610       1609  
      1478       1479       1490       1489       1599       1600       1611       1610  
      1479       1480       1491       1490       1600       1601       1612       1611  
      1480       1481       1492       1491       1601       1602       1613       1612  
      1481       1482       1493       1492       1602       1603       1614       1613  
      1482       1483       1494       1493       1603       1604       1615       1614  
      1483       1484       1495       1494       1604       1605       1616       1615  
      1484       1485       1496       1495       1605       1606       1617       1616  
      1486       1487       1498       1497       1607       1608       1619       1618  
      1487       1488       1499       1498       1608       1609       1620       1619  
      1488       1489       1500       1499       1609       1610       1621       1620  
      1489       1490       1501       1500       1610       1611       1622       1621  
      1490       1491       1502       1501       1611       1612       1623       1622  
      1491       1492       1503       1502       1612       1613       1624       1623  
      1492       1493       1504       1503       1613       1614       1625       1624  
      1493       1494       1505       1504       1614       1615       1626       1625  
      1494       1495       1506       1505       1615       1616       1627       1626  
      1495       1496       1507       1506       1616       1617       1628       1627  
      1497       1498       1509       1508       1618       1619       1630       1629  
      1498       1499       1510       1509       1619       1620       1631       1630  
      1499       1500       1511       1510       1620       1621       1632       1631  
      1500       1501       1512       1511       1621       1622       1633       1632  
      1501       1502       1513       1512       1622       1623       1634       1633  
      1502       1503       1514       1513       1623       1624       1635       1634  
      1503       1504       1515       1514       1624       1625       1636       1635  
      1504       1505       1516       1515       1625       1626       1637       1636  
      1505       1506       1517       1516       1626       1627       1638       1637  
      1506       1507       1518       1517       1627       1628       1639       1638  
      1508       1509       1520       1519       1629       1630       1641       1640  
      1509       1510       1521       1520       1630       1631       1642       1641  
      1510       1511       1522       1521       1631       1632       1643       1642  
      1511       1512       1523       1522       1632       1633       1644       1643  
      1512       1513       1524       1523       1633       1634       1645       1644  
      1513       1514       1525       1524       1634       1635       1646       1645  
      1514       1515       1526       1525       1635       1636       1647       1646  
      1515       1516       1527       1526       1636       1637       1648       1647  
      1516       1517       1528       1527       1637       1638       1649       1648  
      1517       1518       1529       1528       1638       1639       1650       1649  
      1519       1520       1531       1530       1640       1641       1652       1651  
      1520       1521       1532       1531       1641       1642       1653       1652  
      1521       1522       1533       1532       1642       1643       1654       1653  
      1522       1523       1534       1533       1643       1644       1655       1654  
      1523       1524       1535       1534       1644       1645       1656       1655  
      1524       1525       1536       1535       1645       1646       1657       1656  
      1525       1526       1537       1536       1646       1647       1658       1657  
      1526       1527       1538       1537       1647       1648       1659       1658  
      1527       1528       1539       1538       1648       1649       1660       1659  
      1528       1529       1540       1539       1649       1650       1661       1660  
      1530       1531       1542       1541       1651       1652       1663       1662  
      1531       1532       1543       1542       1652       1653       1664       1663  
      1532       1533       1544       1543       1653       1654       1665       1664  
      1533       1534       1545       1544       1654       1655       1666       1665  
      1534       1535       1546       1545       1655       1656       1667       1666  
      1535       1536       1547       1546       1656       1657       1668       1667  
      1536       1537       1548       1547       1657       1658       1669       1668  
      1537       1538       1549       1548       1658       1659       1670       1669  
      1538       1539       1550       1549       1659       1660       1671       1670  
      1539       1540       1551       1550       1660       1661       1672       1671  
      1541       1542       1553       1552       1662       1663       1674       1673  
      1542       1543       1554       1553       1663       1664       1675       1674  
      1543       1544       1555       1554       1664       1665       1676       1675  
      1544       1545       1556       1555       1665       1666       1677       1676  
      1545       1546       1557       1556       1666       1667       1678       1677  
      1546       1547       1558       1557       1667       1668       1679       1678  
      1547       1548       1559       1558       1668       1669       1680       1679  
      1548       1549       1560       1559       1669       1670       1681       1680  
      1549       1550       1561       1560       1670       1671       1682       1681  
      1550       1551       1562       1561       1671       1672       1683       1682  
      1552       1553       1564       1563       1673       1674       1685       1684  
      1553       1554       1565       1564       1674       1675       1686       1685  
      1554       1555       1566       1565       1675       1676       1687       1686  
      1555       1556       1567       1566       1676       1677       1688       1687  
      1556       1557       1568       1567       1677       1678       1689       1688  
      1557       1558       1569       1568       1678       1679       1690       1689  
      1558       1559       1570       1569       1679       1680       1691       1690  
      1559       1560       1571       1570       1680       1681       1692       1691  
      1560       1561       1572       1571       1681       1682       1693       1692  
      1561       1562       1573       1572       1682       1683       1694       1693  
      1574       1575       1586       1585       1695       1696       1707       1706  
      1575       1576       1587       1586       1696       1697       1708       1707  
      1576       1577       1588       1587       1697       1698       1709       1708  
      1577       1578       1589       1588       1698       1699       1710       1709  
      1578       1579       1590       1589       1699       1700       1711       1710  
      1579       1580       1591       1590       1700       1701       1712       1711  
      1580       1581       1592       1591       1701       1702       1713       1712  
      1581       1582       1593       1592       1702       1703       1714       1713  
      1582       1583       1594       1593       1703       1704       1715       1714  
      1583       1584       1595       1594       1704       1705       1716       1715  
      1585       1586       1597       1596       1706       1707       1718       1717  
      1586       1587       1598       1597       1707       1708       1719       1718  
      1587       1588       1599       1598       1708       1709       1720       1719  
      1588       1589       1600       1599       1709       1710       1721       1720  
      1589       1590       1601       1600       1710       1711       1722       1721  
      1590       1591       1602       1601       1711       1712       1723       1722  
      1591       1592       1603       1602       1712       1713       1724       1723  
      1592       1593       1604       1603       1713       1714       1725       1724  
      1593       1594       1605       1604       1714       1715       1726       1725  
      1594       1595       1606       1605       1715       1716       1727       1726  
      1596       1597       1608       1607       1717       1718       1729       1728  
      1597       1598       1609       1608       1718       1719       1730       1729  
      1598       1599       1610       1609       1719       1720       1731       1730  
      1599       1600       1611       1610       1720       1721       1732       1731  
      1600       1601       1612       1611       1721       1722       1733       1732  
      1601       1602       1613       1612       1722       1723       1734       1733  
      1602       1603       1614       1613       1723       1724       1735       1734  
      1603       1604       1615       1614       1724       1725       1736       1735  
      1604       1605       1616       1615       1725       1726       1737       1736  
      1605       1606       1617       1616       1726       1727       1738       1737  
      1607       1608       1619       1618       1728       1729       1740       1739  
      1608       1609       1620       1619       1729       1730       1741       1740  
      1609       1610       1621       1620       1730       1731       1742       1741  
      1610       1611       1622       1621       1731       1732       1743       1742  
      1611       1612       1623       1622       1732       1733       1744       1743  
      1612       1613       1624       1623       1733       1734       1745       1744  
      1613       1614       1625       1624       1734       1735       1746       1745  
      1614       1615       1626       1625       1735       1736       1747       1746  
      1615       1616       1627       1626       1736       1737       1748       1747  
      1616       1617       1628       1627       1737       1738       1749       1748  
      1618       1619       1630       1629       1739       1740       1751       1750  
      1619       1620       1631       1630       1740       1741       1752       1751  
      1620       1621       1632       1631       1741       1742       1753       1752  
      1621       1622       1633       1632       1742       1743       1754       1753  
      1622       1623       1634       1633       1743       1744       1755       1754  
      1623       1624       1635       1634       1744       1745       1756       1755  
      1624       1625       1636       1635       1745       1746       1757       1756  
      1625       1626       1637       1636       1746       1747       1758       1757  
      1626       1627       1638       1637       1747       1748       1759       1758  
      1627       1628       1639       1638       1748       1749       1760       1759  
      1629       1630       1641       1640       1750       1751       1762       1761  
      1630       1631       1642       1641       1751       1752       1763       1762  
      1631       1632       1643       1642       1752       1753       1764       1763  
      1632       1633       1644       1643       1753       1754       1765       1764  
      1633       1634       1645       1644       1754       1755       1766       1765  
      1634       1635       1646       1645       1755       1756       1767       1766  
      1635       1636       1647       1646       1756       1757       1768       1767  
      1636       1637       1648       1647       1757       1758       1769       1768  
      1637       1638       1649       1648       1758       1759       1770       1769  
      1638       1639       1650       1649       1759       1760       1771       1770  
      1640       1641       1652       1651       1761       1762       1773       1772  
      1641       1642       1653       1652       1762       1763       1774       1773  
      1642       1643       1654       1653       1763       1764       1775       1774  
      1643       1644       1655       1654       1764       1765       1776       1775  
      1644       1645       1656       1655       1765       1766       1777       1776  
      1645       1646       1657       1656       1766       1767       1778       1777  
      1646       1647       1658       1657       1767       1768       1779       1778  
      1647       1648       1659       1658       1768       1769       1780       1779  
      1648       1649       1660       1659       1769       1770       1781       1780  
      1649       1650       1661       1660       1770       1771       1782       1781  
      1651       1652       1663       1662       1772       1773       1784       1783  
      1652       1653       1664       1663       1773       1774       1785       1784  
      1653       1654       1665       1664       1774       1775       1786       1785  
      1654       1655       1666       1665       1775       1776       1787       1786  
      1655       1656       1667       1666       1776       1777       1788       1787  
      1656       1657       1668       1667       1777       1778       1789       1788  
      1657       1658       1669       1668       1778       1779       1790       1789  
      1658       1659       1670       1669       1779       1780       1791       1790  
      1659       1660       1671       1670       1780       1781       1792       1791  
      1660       1661       1672       1671       1781       1782       1793       1792  
      1662       1663       1674       1673       1783       1784       1795       1794  
      1663       1664       1675       1674       1784       1785       1796       1795  
      1664       1665       1676       1675       1785       1786       1797       1796  
      1665       1666       1677       1676       1786       1787       1798       1797  
      1666       1667       1678       1677       1787       1788       1799       1798  
      1667       1668       1679       1678       1788       1789       1800       1799  
      1668       1669       1680       1679       1789       1790       1801       1800  
      1669       1670       1681       1680       1790       1791       1802       1801  
      1670       1671       1682       1681       1791       1792       1803       1802  
      1671       1672       1683       1682       1792       1793       1804       1803  
      1673       1674       1685       1684       1794       1795       1806       1805  
      1674       1675       1686       1685       1795       1796       1807       1806  
      1675       1676       1687       1686       1796       1797       1808       1807  
      1676       1677       1688       1687       1797       1798       1809       1808  
      1677       1678       1689       1688       1798       1799       1810       1809  
      1678       1679       1690       1689       1799       1800       1811       1810  
      1679       1680       1691       1690       1800       1801       1812       1811  
      1680       1681       1692       1691       1801       1802       1813       1812  
      1681       1682       1693       1692       1802       1803       1814       1813  
      1682       1683       1694       1693       1803       1804       1815       1814  
      1695       1696       1707       1706       1816       1817       1828       1827  
      1696       1697       1708       1707       1817       1818       1829       1828  
      1697       1698       1709       1708       1818       1819       1830       1829  
      1698       1699       1710       1709       1819       1820       1831       1830  
      1699       1700       1711       1710       1820       1821       1832       1831  
      1700       1701       1712       1711       1821       1822       1833       1832  
      1701       1702       1713       1712       1822       1823       1834       1833  
      1702       1703       1714       1713       1823       1824       1835       1834  
      1703       1704       1715       1714       1824       1825       1836       1835  
      1704       1705       1716       1715       1825       1826       1837       1836  
      1706       1707       1718       1717       1827       1828       1839       1838  
      1707       1708       1719       1718       1828       1829       1840       1839  
      1708       1709       1720       1719       1829       1830       1841       1840  
      1709       1710       1721       1720       1830       1831       1842       1841  
      1710       1711       1722       1721       1831       1832       1843       1842  
      1711       1712       1723       1722       1832       1833       1844       1843  
      1712       1713       1724       1723       1833       1834       1845       1844  
      1713       1714       1725       1724       1834       1835       1846       1845  
      1714       1715       1726       1725       1835       1836       1847       1846  
      1715       1716       1727       1726       1836       1837       1848       1847  
      1717       1718       1729       1728       1838       1839       1850       1849  
      1718       1719       1730       1729       1839       1840       1851       1850  
      1719       1720       1731       1730       1840       1841       1852       1851  
      1720       1721       1732       1731       1841       1842       1853       1852  
      1721       1722       1733       1732       1842       1843       1854       1853  
      1722       1723       1734       1733       1843       1844       1855       1854  
      1723       1724       1735       1734       1844       1845       1856       1855  
      1724       1725       1736       1735       1845       1846       1857       1856  
      1725       1726       1737       1736       1846       1847       1858       1857  
      1726       1727       1738       1737       1847       1848       1859       1858  
      1728       1729       1740       1739       1849       1850       1861       1860  
      1729       1730       1741       1740       1850       1851       1862       1861  
      1730       1731       1742       1741       1851       1852       1863       1862  
      1731       1732       1743       1742       1852       1853       1864       1863  
      1732       1733       1744       1743       1853       1854       1865       1864  
      1733       1734       1745       1744       1854       1855       1866       1865  
      1734       1735       1746       1745       1855       1856       1867       1866  
      1735       1736       1747       1746       1856       1857       1868       1867  
      1736       1737       1748       1747       1857       1858       1869       1868  
      1737       1738       1749       1748       1858       1859       1870       1869  
      1739       1740       1751       1750       1860       1861       1872       1871  
      1740       1741       1752       1751       1861       1862       1873       1872  
      1741       1742       1753       1752       1862       1863       1874       1873  
      1742       1743       1754       1753       1863       1864       1875       1874  
      1743       1744       1755       1754       1864       1865       1876       1875  
      1744       1745       1756       1755       1865       1866       1877       1876  
      1745       1746       1757       1756       1866       1867       1878       1877  
      1746       1747       1758       1757       1867       1868       1879       1878  
      1747       1748       1759       1758       1868       1869       1880       1879  
      1748       1749       1760       1759       1869       1870       1881       1880  
      1750       1751       1762       1761       1871       1872       1883       1882  
      1751       1752       1763       1762       1872       1873       1884       1883  
      1752       1753       1764       1763       1873       1874       1885       1884  
      1753       1754       1765       1764       1874       1875       1886       1885  
      1754       1755       1766       1765       1875       1876       1887       1886  
      1755       1756       1767       1766       1876       1877       1888       1887  
      1756       1757       1768       1767       1877       1878       1889       1888  
      1757       1758       1769       1768       1878       1879       1890       1889  
      1758       1759       1770       1769       1879       1880       1891       1890  
      1759       1760       1771       1770       1880       1881       1892       1891  
      1761       1762       1773       1772       1882       1883       1894       1893  
      1762       1763       1774       1773       1883       1884       1895       1894  
      1763       1764       1775       1774       1884       1885       1896       1895  
      1764       1765       1776       1775       1885       1886       1897       1896  
      1765       1766       1777       1776       1886       1887       1898       1897  
      1766       1767       1778       1777       1887       1888       1899       1898  
      1767       1768       1779       1778       1888       1889       1900       1899  
      1768       1769       1780       1779       1889       1890       1901       1900  
      1769       1770       1781       1780       1890       1891       1902       1901  
      1770       1771       1782       1781       1891       1892       1903       1902  
      1772       1773       1784       1783       1893       1894       1905       1904  
      1773       1774       1785       1784       1894       1895       1906       1905  
      1774       1775       1786       1785       1895       1896       1907       1906  
      1775       1776       1787       1786       1896       1897       1908       1907  
      1776       1777       1788       1787       1897       1898       1909       1908  
      1777       1778       1789       1788       1898       1899       1910       1909  
      1778       1779       1790       1789       1899       1900       1911       1910  
      1779       1780       1791       1790       1900       1901       1912       1911  
      1780       1781       1792       1791       1901       1902       1913       1912  
      1781       1782       1793       1792       1902       1903       1914       1913  
      1783       1784       1795       1794       1904       1905       1916       1915  
      1784       1785       1796       1795       1905       1906       1917       1916  
      1785       1786       1797       1796       1906       1907       1918       1917  
      1786       1787       1798       1797       1907       1908       1919       1918  
      1787       1788       1799       1798       1908       1909       1920       1919  
      1788       1789       1800       1799       1909       1910       1921       1920  
      1789       1790       1801       1800       1910       1911       1922       1921  
      1790       1791       1802       1801       1911       1912       1923       1922  
      1791       1792       1803       1802       1912       1913       1924       1923  
      1792       1793       1804       1803       1913       1914       1925       1924  
      1794       1795       1806       1805       1915       1916       1927       1926  
      1795       1796       1807       1806       1916       1917       1928       1927  
      1796       1797       1808       1807       1917       1918       1929       1928  
      1797       1798       1809       1808       1918       1919       1930       1929  
      1798       1799       1810       1809       1919       1920       1931       1930  
      1799       1800       1811       1810       1920       1921       1932       1931  
      1800       1801       1812       1811       1921       1922       1933       1932  
      1801       1802       1813       1812       1922       1923       1934       1933  
      1802       1803       1814       1813       1923       1924       1935       1934  
      1803       1804       1815       1814       1924       1925       1936       1935  
      1816       1817       1828       1827       1937       1938       1949       1948  
      1817       1818       1829       1828       1938       1939       1950       1949  
      1818       1819       1830       1829       1939       1940       1951       1950  
      1819       1820       1831       1830       1940       1941       1952       1951  
      1820       1821       1832       1831       1941       1942       1953       1952  
      1821       1822       1833       1832       1942       1943       1954       1953  
      1822       1823       1834       1833       1943       1944       1955       1954  
      1823       1824       1835       1834       1944       1945       1956       1955  
      1824       1825       1836       1835       1945       1946       1957       1956  
      1825       1826       1837       1836       1946       1947       1958       1957  
      1827       1828       1839       1838       1948       1949       1960       1959  
      1828       1829       1840       1839       1949       1950       1961       1960  
      1829       1830       1841       1840       1950       1951       1962       1961  
      1830       1831       1842       1841       1951       1952       1963       1962  
      1831       1832       1843       1842       1952       1953       1964       1963  
      1832       1833       1844       1843       1953       1954       1965       1964  
      1833       1834       1845       1844       1954       1955       1966       1965  
      1834       1835       1846       1845       1955       1956       1967       1966  
      1835       1836       1847       1846       1956       1957       1968       1967  
      1836       1837       1848       1847       1957       1958       1969       1968  
      1838       1839       1850       1849       1959       1960       1971       1970  
      1839       1840       1851       1850       1960       1961       1972       1971  
      1840       1841       1852       1851       1961       1962       1973       1972  
      1841       1842       1853       1852       1962       1963       1974       1973  
      1842       1843       1854       1853       1963       1964       1975       1974  
      1843       1844       1855       1854       1964       1965       1976       1975  
      1844       1845       1856       1855       1965       1966       1977       1976  
      1845       1846       1857       1856       1966       1967       1978       1977  
      1846       1847       1858       1857       1967       1968       1979       1978  
      1847       1848       1859       1858       1968       1969       1980       1979  
      1849       1850       1861       1860       1970       1971       1982       1981  
      1850       1851       1862       1861       1971       1972       1983       1982  
      1851       1852       1863       1862       1972       1973       1984       1983  
      1852       1853       1864       1863       1973       1974       1985       1984  
      1853       1854       1865       1864       1974       1975       1986       1985  
      1854       1855       1866       1865       1975       1976       1987       1986  
      1855       1856       1867       1866       1976       1977       1988       1987  
      1856       1857       1868       1867       1977       1978       1989       1988  
      1857       1858       1869       1868       1978       1979       1990       1989  
      1858       1859       1870       1869       1979       1980       1991       1990  
      1860       1861       1872       1871       1981       1982       1993       1992  
      1861       1862       1873       1872       1982       1983       1994       1993  
      1862       1863       1874       1873       1983       1984       1995       1994  
      1863       1864       1875       1874       1984       1985       1996       1995  
      1864       1865       1876       1875       1985       1986       1997       1996  
      1865       1866       1877       1876       1986       1987       1998       1997  
      1866       1867       1878       1877       1987       1988       1999       1998  
      1867       1868       1879       1878       1988       1989       2000       1999  
      1868       1869       1880       1879       1989       1990       2001       2000  
      1869       1870       1881       1880       1990       1991       2002       2001  
      1871       1872       1883       1882       1992       1993       2004       2003  
      1872       1873       1884       1883       1993       1994       2005       2004  
      1873       1874       1885       1884       1994       1995       2006       2005  
      1874       1875       1886       1885       1995       1996       2007       2006  
      1875       1876       1887       1886       1996       1997       2008       2007  
      1876       1877       1888       1887       1997       1998       2009       2008  
      1877       1878       1889       1888       1998       1999       2010       2009  
      1878       1879       1890       1889       1999       2000       2011       2010  
      1879       1880       1891       1890       2000       2001       2012       2011  
      1880       1881       1892       1891       2001       2002       2013       2012  
      1882       1883       1894       1893       2003       2004       2015       2014  
      1883       1884       1895       1894       2004       2005       2016       2015  
      1884       1885       1896       1895       2005       2006       2017       2016  
      1885       1886       1897       1896       2006       2007       2018       2017  
      1886       1887       1898       1897       2007       2008       2019       2018  
      1887       1888       1899       1898       2008       2009       2020       2019  
      1888       1889       1900       1899       2009       2010       2021       2020  
      1889       1890       1901       1900       2010       2011       2022       2021  
      1890       1891       1902       1901       2011       2012       2023       2022  
      1891       1892       1903       1902       2012       2013       2024       2023  
      1893       1894       1905       1904       2014       2015       2026       2025  
      1894       1895       1906       1905       2015       2016       2027       2026  
      1895       1896       1907       1906       2016       2017       2028       2027  
      1896       1897       1908       1907       2017       2018       2029       2028  
      1897       1898       1909       1908       2018       2019       2030       2029  
      1898       1899       1910       1909       2019       2020       2031       2030  
      1899       1900       1911       1910       2020       2021       2032       2031  
      1900       1901       1912       1911       2021       2022       2033       2032  
      1901       1902       1913       1912       2022       2023       2034       2033  
      1902       1903       1914       1913       2023       2024       2035       2034  
      1904       1905       1916       1915       2025       2026       2037       2036  
      1905       1906       1917       1916       2026       2027       2038       2037  
      1906       1907       1918       1917       2027       2028       2039       2038  
      1907       1908       1919       1918       2028       2029       2040       2039  
      1908       1909       1920       1919       2029       2030       2041       2040  
      1909       1910       1921       1920       2030       2031       2042       2041  
      1910       1911       1922       1921       2031       2032       2043       2042  
      1911       1912       1923       1922       2032       2033       2044       2043  
      1912       1913       1924       1923       2033       2034       2045       2044  
      1913       1914       1925       1924       2034       2035       2046       2045  
      1915       1916       1927       1926       2036       2037       2048       2047  
      1916       1917       1928       1927       2037       2038       2049       2048  
      1917       1918       1929       1928       2038       2039       2050       2049  
      1918       1919       1930       1929       2039       2040       2051       2050  
      1919       1920       1931       1930       2040       2041       2052       2051  
      1920       1921       1932       1931       2041       2042       2053       2052  
      1921       1922       1933       1932       2042       2043       2054       2053  
      1922       1923       1934       1933       2043       2044       2055       2054  
      1923       1924       1935       1934       2044       2045       2056       2055  
      1924       1925       1936       1935       2045       2046       2057       2056  
      1937       1938       1949       1948       2058       2059       2070       2069  
      1938       1939       1950       1949       2059       2060       2071       2070  
      1939       1940       1951       1950       2060       2061       2072       2071  
      1940       1941       1952       1951       2061       2062       2073       2072  
      1941       1942       1953       1952       2062       2063       2074       2073  
      1942       1943       1954       1953       2063       2064       2075       2074  
      1943       1944       1955       1954       2064       2065       2076       2075  
      1944       1945       1956       1955       2065       2066       2077       2076  
      1945       1946       1957       1956       2066       2067       2078       2077  
      1946       1947       1958       1957       2067       2068       2079       2078  
      1948       1949       1960       1959       2069       2070       2081       2080  
      1949       1950       1961       1960       2070       2071       2082       2081  
      1950       1951       1962       1961       2071       2072       2083       2082  
      1951       1952       1963       1962       2072       2073       2084       2083  
      1952       1953       1964       1963       2073       2074       2085       2084  
      1953       1954       1965       1964       2074       2075       2086       2085  
      1954       1955       1966       1965       2075       2076       2087       2086  
      1955       1956       1967       1966       2076       2077       2088       2087  
      1956       1957       1968       1967       2077       2078       2089       2088  
      1957       1958       1969       1968       2078       2079       2090       2089  
      1959       1960       1971       1970       2080       2081       2092       2091  
      1960       1961       1972       1971       2081       2082       2093       2092  
      1961       1962       1973       1972       2082       2083       2094       2093  
      1962       1963       1974       1973       2083       2084       2095       2094  
      1963       1964       1975       1974       2084       2085       2096       2095  
      1964       1965       1976       1975       2085       2086       2097       2096  
      1965       1966       1977       1976       2086       2087       2098       2097  
      1966       1967       1978       1977       2087       2088       2099       2098  
      1967       1968       1979       1978       2088       2089       2100       2099  
      1968       1969       1980       1979       2089       2090       2101       2100  
      1970       1971       1982       1981       2091       2092       2103       2102  
      1971       1972       1983       1982       2092       2093       2104       2103  
      1972       1973       1984       1983       2093       2094       2105       2104  
      1973       1974       1985       1984       2094       2095       2106       2105  
      1974       1975       1986       1985       2095       2096       2107       2106  
      1975       1976       1987       1986       2096       2097       2108       2107  
      1976       1977       1988       1987       2097       2098       2109       2108  
      1977       1978       1989       1988       2098       2099       2110       2109  
      1978       1979       1990       1989       2099       2100       2111       2110  
      1979       1980       1991       1990       2100       2101       2112       2111  
      1981       1982       1993       1992       2102       2103       2114       2113  
      1982       1983       1994       1993       2103       2104       2115       2114  
      1983       1984       1995       1994       2104       2105       2116       2115  
      1984       1985       1996       1995       2105       2106       2117       2116  
      1985       1986       1997       1996       2106       2107       2118       2117  
      1986       1987       1998       1997       2107       2108       2119       2118  
      1987       1988       1999       1998       2108       2109       2120       2119  
      1988       1989       2000       1999       2109       2110       2121       2120  
      1989       1990       2001       2000       2110       2111       2122       2121  
      1990       1991       2002       2001       2111       2112       2123       2122  
      1992       1993       2004       2003       2113       2114       2125       2124  
      1993       1994       2005       2004       2114       2115       2126       2125  
      1994       1995       2006       2005       2115       2116       2127       2126  
      1995       1996       2007       2006       2116       2117       2128       2127  
      1996       1997       2008       2007       2117       2118       2129       2128  
      1997       1998       2009       2008       2118       2119       2130       2129  
      1998       1999       2010       2009       2119       2120       2131       2130  
      1999       2000       2011       2010       2120       2121       2132       2131  
      2000       2001       2012       2011       2121       2122       2133       2132  
      2001       2002       2013       2012       2122       2123       2134       2133  
      2003       2004       2015       2014       2124       2125       2136       2135  
      2004       2005       2016       2015       2125       2126       2137       2136  
      2005       2006       2017       2016       2126       2127       2138       2137  
      2006       2007       2018       2017       2127       2128       2139       2138  
      2007       2008       2019       2018       2128       2129       2140       2139  
      2008       2009       2020       2019       2129       2130       2141       2140  
      2009       2010       2021       2020       2130       2131       2142       2141  
      2010       2011       2022       2021       2131       2132       2143       2142  
      2011       2012       2023       2022       2132       2133       2144       2143  
      2012       2013       2024       2023       2133       2134       2145       2144  
      2014       2015       2026       2025       2135       2136       2147       2146  
      2015       2016       2027       2026       2136       2137       2148       2147  
      2016       2017       2028       2027       2137       2138       2149       2148  
      2017       2018       2029       2028       2138       2139       2150       2149  
      2018       2019       2030       2029       2139       2140       2151       2150  
      2019       2020       2031       2030       2140       2141       2152       2151  
      2020       2021       2032       2031       2141       2142       2153       2152  
      2021       2022       2033       2032       2142       2143       2154       2153  
      2022       2023       2034       2033       2143       2144       2155       2154  
      2023       2024       2035       2034       2144       2145       2156       2155  
      2025       2026       2037       2036       2146       2147       2158       2157  
      2026       2027       2038       2037       2147       2148       2159       2158  
      2027       2028       2039       2038       2148       2149       2160       2159  
      2028       2029       2040       2039       2149       2150       2161       2160  
      2029       2030       2041       2040       2150       2151       2162       2161  
      2030       2031       2042       2041       2151       2152       2163       2162  
      2031       2032       2043       2042       2152       2153       2164       2163  
      2032       2033       2044       2043       2153       2154       2165       2164  
      2033       2034       2045       2044       2154       2155       2166       2165  
      2034       2035       2046       2045       2155       2156       2167       2166  
      2036       2037       2048       2047       2157       2158       2169       2168  
      2037       2038       2049       2048       2158       2159       2170       2169  
      2038       2039       2050       2049       2159       2160       2171       2170  
      2039       2040       2051       2050       2160       2161       2172       2171  
      2040       2041       2052       2051       2161       2162       2173       2172  
      2041       2042       2053       2052       2162       2163       2174       2173  
      2042       2043       2054       2053       2163       2164       2175       2174  
      2043       2044       2055       2054       2164       2165       2176       2175  
      2044       2045       2056       2055       2165       2166       2177       2176  
      2045       2046       2057       2056       2166       2167       2178       2177  
      2058       2059       2070       2069       2179       2180       2191       2190  
      2059       2060       2071       2070       2180       2181       2192       2191  
      2060       2061       2072       2071       2181       2182       2193       2192  
      2061       2062       2073       2072       2182       2183       2194       2193  
      2062       2063       2074       2073       2183       2184       2195       2194  
      2063       2064       2075       2074       2184       2185       2196       2195  
      2064       2065       2076       2075       2185       2186       2197       2196  
      2065       2066       2077       2076       2186       2187       2198       2197  
      2066       2067       2078       2077       2187       2188       2199       2198  
      2067       2068       2079       2078       2188       2189       2200       2199  
      2069       2070       2081       2080       2190       2191       2202       2201  
      2070       2071       2082       2081       2191       2192       2203       2202  
      2071       2072       2083       2082       2192       2193       2204       2203  
      2072       2073       2084       2083       2193       2194       2205       2204  
      2073       2074       2085       2084       2194       2195       2206       2205  
      2074       2075       2086       2085       2195       2196       2207       2206  
      2075       2076       2087       2086       2196       2197       2208       2207  
      2076       2077       2088       2087       2197       2198       2209       2208  
      2077       2078       2089       2088       2198       2199       2210       2209  
      2078       2079       2090       2089       2199       2200       2211       2210  
      2080       2081       2092       2091       2201       2202       2213       2212  
      2081       2082       2093       2092       2202       2203       2214       2213  
      2082       2083       2094       2093       2203       2204       2215       2214  
      2083       2084       2095       2094       2204       2205       2216       2215  
      2084       2085       2096       2095       2205       2206       2217       2216  
      2085       2086       2097       2096       2206       2207       2218       2217  
      2086       2087       2098       2097       2207       2208       2219       2218  
      2087       2088       2099       2098       2208       2209       2220       2219  
      2088       2089       2100       2099       2209       2210       2221       2220  
      2089       2090       2101       2100       2210       2211       2222       2221  
      2091       2092       2103       2102       2212       2213       2224       2223  
      2092       2093       2104       2103       2213       2214       2225       2224  
      2093       2094       2105       2104       2214       2215       2226       2225  
      2094       2095       2106       2105       2215       2216       2227       2226  
      2095       2096       2107       2106       2216       2217       2228       2227  
      2096       2097       2108       2107       2217       2218       2229       2228  
      2097       2098       2109       2108       2218       2219       2230       2229  
      2098       2099       2110       2109       2219       2220       2231       2230  
      2099       2100       2111       2110       2220       2221       2232       2231  
      2100       2101       2112       2111       2221       2222       2233       2232  
      2102       2103       2114       2113       2223       2224       2235       2234  
      2103       2104       2115       2114       2224       2225       2236       2235  
      2104       2105       2116       2115       2225       2226       2237       2236  
      2105       2106       2117       2116       2226       2227       2238       2237  
      2106       2107       2118       2117       2227       2228       2239       2238  
      2107       2108       2119       2118       2228       2229       2240       2239  
      2108       2109       2120       2119       2229       2230       2241       2240  
      2109       2110       2121       2120       2230       2231       2242       2241  
      2110       2111       2122       2121       2231       2232       2243       2242  
      2111       2112       2123       2122       2232       2233       2244       2243  
      2113       2114       2125       2124       2234       2235       2246       2245  
      2114       2115       2126       2125       2235       2236       2247       2246  
      2115       2116       2127       2126       2236       2237       2248       2247  
      2116       2117       2128       2127       2237       2238       2249       2248  
      2117       2118       2129       2128       2238       2239       2250       2249  
      2118       2119       2130       2129       2239       2240       2251       2250  
      2119       2120       2131       2130       2240       2241       2252       2251  
      2120       2121       2132       2131       2241       2242       2253       2252  
      2121       2122       2133       2132       2242       2243       2254       2253  
      2122       2123       2134       2133       2243       2244       2255       2254  
      2124       2125       2136       2135       2245       2246       2257       2256  
      2125       2126       2137       2136       2246       2247       2258       2257  
      2126       2127       2138       2137       2247       2248       2259       2258  
      2127       2128       2139       2138       2248       2249       2260       2259  
      2128       2129       2140       2139       2249       2250       2261       2260  
      2129       2130       2141       2140       2250       2251       2262       2261  
      2130       2131       2142       2141       2251       2252       2263       2262  
      2131       2132       2143       2142       2252       2253       2264       2263  
      2132       2133       2144       2143       2253       2254       2265       2264  
      2133       2134       2145       2144       2254       2255       2266       2265  
      2135       2136       2147       2146       2256       2257       2268       2267  
      2136       2137       2148       2147       2257       2258       2269       2268  
      2137       2138       2149       2148       2258       2259       2270       2269  
      2138       2139       2150       2149       2259       2260       2271       2270  
      2139       2140       2151       2150       2260       2261       2272       2271  
      2140       2141       2152       2151       2261       2262       2273       2272  
      2141       2142       2153       2152       2262       2263       2274       2273  
      2142       2143       2154       2153       2263       2264       2275       2274  
      2143       2144       2155       2154       2264       2265       2276       2275  
      2144       2145       2156       2155       2265       2266       2277       2276  
      2146       2147       2158       2157       2267       2268       2279       2278  
      2147       2148       2159       2158       2268       2269       2280       2279  
      2148       2149       2160       2159       2269       2270       2281       2280  
      2149       2150       2161       2160       2270       2271       2282       2281  
      2150       2151       2162       2161       2271       2272       2283       2282  
      2151       2152       2163       2162       2272       2273       2284       2283  
      2152       2153       2164       2163       2273       2274       2285       2284  
      2153       2154       2165       2164       2274       2275       2286       2285  
      2154       2155       2166       2165       2275       2276       2287       2286  
      2155       2156       2167       2166       2276       2277       2288       2287  
      2157       2158       2169       2168       2278       2279       2290       2289  
      2158       2159       2170       2169       2279       2280       2291       2290  
      2159       2160       2171       2170       2280       2281       2292       2291  
      2160       2161       2172       2171       2281       2282       2293       2292  
      2161       2162       2173       2172       2282       2283       2294       2293  
      2162       2163       2174       2173       2283       2284       2295       2294  
      2163       2164       2175       2174       2284       2285       2296       2295  
      2164       2165       2176       2175       2285       2286       2297       2296  
      2165       2166       2177       2176       2286       2287       2298       2297  
      2166       2167       2178       2177       2287       2288       2299       2298  
      2179       2180       2191       2190       2300       2301       2312       2311  
      2180       2181       2192       2191       2301       2302       2313       2312  
      2181       2182       2193       2192       2302       2303       2314       2313  
      2182       2183       2194       2193       2303       2304       2315       2314  
      2183       2184       2195       2194       2304       2305       2316       2315  
      2184       2185       2196       2195       2305       2306       2317       2316  
      2185       2186       2197       2196       2306       2307       2318       2317  
      2186       2187       2198       2197       2307       2308       2319       2318  
      2187       2188       2199       2198       2308       2309       2320       2319  
      2188       2189       2200       2199       2309       2310       2321       2320  
      2190       2191       2202       2201       2311       2312       2323       2322  
      2191       2192       2203       2202       2312       2313       2324       2323  
      2192       2193       2204       2203       2313       2314       2325       2324  
      2193       2194       2205       2204       2314       2315       2326       2325  
      2194       2195       2206       2205       2315       2316       2327       2326  
      2195       2196       2207       2206       2316       2317       2328       2327  
      2196       2197       2208       2207       2317       2318       2329       2328  
      2197       2198       2209       2208       2318       2319       2330       2329  
      2198       2199       2210       2209       2319       2320       2331       2330  
      2199       2200       2211       2210       2320       2321       2332       2331  
      2201       2202       2213       2212       2322       2323       2334       2333  
      2202       2203       2214       2213       2323       2324       2335       2334  
      2203       2204       2215       2214       2324       2325       2336       2335  
      2204       2205       2216       2215       2325       2326       2337       2336  
      2205       2206       2217       2216       2326       2327       2338       2337  
      2206       2207       2218       2217       2327       2328       2339       2338  
      2207       2208       2219       2218       2328       2329       2340       2339  
      2208       2209       2220       2219       2329       2330       2341       2340  
      2209       2210       2221       2220       2330       2331       2342       2341  
      2210       2211       2222       2221       2331       2332       2343       2342  
      2212       2213       2224       2223       2333       2334       2345       2344  
      2213       2214       2225       2224       2334       2335       2346       2345  
      2214       2215       2226       2225       2335       2336       2347       2346  
      2215       2216       2227       2226       2336       2337       2348       2347  
      2216       2217       2228       2227       2337       2338       2349       2348  
      2217       2218       2229       2228       2338       2339       2350       2349  
      2218       2219       2230       2229       2339       2340       2351       2350  
      2219       2220       2231       2230       2340       2341       2352       2351  
      2220       2221       2232       2231       2341       2342       2353       2352  
      2221       2222       2233       2232       2342       2343       2354       2353  
      2223       2224       2235       2234       2344       2345       2356       2355  
      2224       2225       2236       2235       2345       2346       2357       2356  
      2225       2226       2237       2236       2346       2347       2358       2357  
      2226       2227       2238       2237       2347       2348       2359       2358  
      2227       2228       2239       2238       2348       2349       2360       2359  
      2228       2229       2240       2239       2349       2350       2361       2360  
      2229       2230       2241       2240       2350       2351       2362       2361  
      2230       2231       2242       2241       2351       2352       2363       2362  
      2231       2232       2243       2242       2352       2353       2364       2363  
      2232       2233       2244       2243       2353       2354       2365       2364  
      2234       2235       2246       2245       2355       2356       2367       2366  
      2235       2236       2247       2246       2356       2357       2368       2367  
      2236       2237       2248       2247       2357       2358       2369       2368  
      2237       2238       2249       2248       2358       2359       2370       2369  
      2238       2239       2250       2249       2359       2360       2371       2370  
      2239       2240       2251       2250       2360       2361       2372       2371  
      2240       2241       2252       2251       2361       2362       2373       2372  
      2241       2242       2253       2252       2362       2363       2374       2373  
      2242       2243       2254       2253       2363       2364       2375       2374  
      2243       2244       2255       2254       2364       2365       2376       2375  
      2245       2246       2257       2256       2366       2367       2378       2377  
      2246       2247       2258       2257       2367       2368       2379       2378  
      2247       2248       2259       2258       2368       2369       2380       2379  
      2248       2249       2260       2259       2369       2370       2381       2380  
      2249       2250       2261       2260       2370       2371       2382       2381  
      2250       2251       2262       2261       2371       2372       2383       2382  
      2251       2252       2263       2262       2372       2373       2384       2383  
      2252       2253       2264       2263       2373       2374       2385       2384  
      2253       2254       2265       2264       2374       2375       2386       2385  
      2254       2255       2266       2265       2375       2376       2387       2386  
      2256       2257       2268       2267       2377       2378       2389       2388  
      2257       2258       2269       2268       2378       2379       2390       2389  
      2258       2259       2270       2269       2379       2380       2391       2390  
      2259       2260       2271       2270       2380       2381       2392       2391  
      2260       2261       2272       2271       2381       2382       2393       2392  
      2261       2262       2273       2272       2382       2383       2394       2393  
      2262       2263       2274       2273       2383       2384       2395       2394  
      2263       2264       2275       2274       2384       2385       2396       2395  
      2264       2265       2276       2275       2385       2386       2397       2396  
      2265       2266       2277       2276       2386       2387       2398       2397  
      2267       2268       2279       2278       2388       2389       2400       2399  
      2268       2269       2280       2279       2389       2390       2401       2400  
      2269       2270       2281       2280       2390       2391       2402       2401  
      2270       2271       2282       2281       2391       2392       2403       2402  
      2271       2272       2283       2282       2392       2393       2404       2403  
      2272       2273       2284       2283       2393       2394       2405       2404  
      2273       2274       2285       2284       2394       2395       2406       2405  
      2274       2275       2286       2285       2395       2396       2407       2406  
      2275       2276       2287       2286       2396       2397       2408       2407  
      2276       2277       2288       2287       2397       2398       2409       2408  
      2278       2279       2290       2289       2399       2400       2411       2410  
      2279       2280       2291       2290       2400       2401       2412       2411  
      2280       2281       2292       2291       2401       2402       2413       2412  
      2281       2282       2293       2292       2402       2403       2414       2413  
      2282       2283       2294       2293       2403       2404       2415       2414  
      2283       2284       2295       2294       2404       2405       2416       2415  
      2284       2285       2296       2295       2405       2406       2417       2416  
      2285       2286       2297       2296       2406       2407       2418       2417  
      2286       2287       2298       2297       2407       2408       2419       2418  
      2287       2288       2299       2298       2408       2409       2420       2419  
      2300       2301       2312       2311       2421       2422       2433       2432  
      2301       2302       2313       2312       2422       2423       2434       2433  
      2302       2303       2314       2313       2423       2424       2435       2434  
      2303       2304       2315       2314       2424       2425       2436       2435  
      2304       2305       2316       2315       2425       2426       2437       2436  
      2305       2306       2317       2316       2426       2427       2438       2437  
      2306       2307       2318       2317       2427       2428       2439       2438  
      2307       2308       2319       2318       2428       2429       2440       2439  
      2308       2309       2320       2319       2429       2430       2441       2440  
      2309       2310       2321       2320       2430       2431       2442       2441  
      2311       2312       2323       2322       2432       2433       2444       2443  
      2312       2313       2324       2323       2433       2434       2445       2444  
      2313       2314       2325       2324       2434       2435       2446       2445  
      2314       2315       2326       2325       2435       2436       2447       2446  
      2315       2316       2327       2326       2436       2437       2448       2447  
      2316       2317       2328       2327       2437       2438       2449       2448  
      2317       2318       2329       2328       2438       2439       2450       2449  
      2318       2319       2330       2329       2439       2440       2451       2450  
      2319       2320       2331       2330       2440       2441       2452       2451  
      2320       2321       2332       2331       2441       2442       2453       2452  
      2322       2323       2334       2333       2443       2444       2455       2454  
      2323       2324       2335       2334       2444       2445       2456       2455  
      2324       2325       2336       2335       2445       2446       2457       2456  
      2325       2326       2337       2336       2446       2447       2458       2457  
      2326       2327       2338       2337       2447       2448       2459       2458  
      2327       2328       2339       2338       2448       2449       2460       2459  
      2328       2329       2340       2339       2449       2450       2461       2460  
      2329       2330       2341       2340       2450       2451       2462       2461  
      2330       2331       2342       2341       2451       2452       2463       2462  
      2331       2332       2343       2342       2452       2453       2464       2463  
      2333       2334       2345       2344       2454       2455       2466       2465  
      2334       2335       2346       2345       2455       2456       2467       2466  
      2335       2336       2347       2346       2456       2457       2468       2467  
      2336       2337       2348       2347       2457       2458       2469       2468  
      2337       2338       2349       2348       2458       2459       2470       2469  
      2338       2339       2350       2349       2459       2460       2471       2470  
      2339       2340       2351       2350       2460       2461       2472       2471  
      2340       2341       2352       2351       2461       2462       2473       2472  
      2341       2342       2353       2352       2462       2463       2474       2473  
      2342       2343       2354       2353       2463       2464       2475       2474  
      2344       2345       2356       2355       2465       2466       2477       2476  
      2345       2346       2357       2356       2466       2467       2478       2477  
      2346       2347       2358       2357       2467       2468       2479       2478  
      2347       2348       2359       2358       2468       2469       2480       2479  
      2348       2349       2360       2359       2469       2470       2481       2480  
      2349       2350       2361       2360       2470       2471       2482       2481  
      2350       2351       2362       2361       2471       2472       2483       2482  
      2351       2352       2363       2362       2472       2473       2484       2483  
      2352       2353       2364       2363       2473       2474       2485       2484  
      2353       2354       2365       2364       2474       2475       2486       2485  
      2355       2356       2367       2366       2476       2477       2488       2487  
      2356       2357       2368       2367       2477       2478       2489       2488  
      2357       2358       2369       2368       2478       2479       2490       2489  
      2358       2359       2370       2369       2479       2480       2491       2490  
      2359       2360       2371       2370       2480       2481       2492       2491  
      2360       2361       2372       2371       2481       2482       2493       2492  
      2361       2362       2373       2372       2482       2483       2494       2493  
      2362       2363       2374       2373       2483       2484       2495       2494  
      2363       2364       2375       2374       2484       2485       2496       2495  
      2364       2365       2376       2375       2485       2486       2497       2496  
      2366       2367       2378       2377       2487       2488       2499       2498  
      2367       2368       2379       2378       2488       2489       2500       2499  
      2368       2369       2380       2379       2489       2490       2501       2500  
      2369       2370       2381       2380       2490       2491       2502       2501  
      2370       2371       2382       2381       2491       2492       2503       2502  
      2371       2372       2383       2382       2492       2493       2504       2503  
      2372       2373       2384       2383       2493       2494       2505       2504  
      2373       2374       2385       2384       2494       2495       2506       2505  
      2374       2375       2386       2385       2495       2496       2507       2506  
      2375       2376       2387       2386       2496       2497       2508       2507  
      2377       2378       2389       2388       2498       2499       2510       2509  
      2378       2379       2390       2389       2499       2500       2511       2510  
      2379       2380       2391       2390       2500       2501       2512       2511  
      2380       2381       2392       2391       2501       2502       2513       2512  
      2381       2382       2393       2392       2502       2503       2514       2513  
      2382       2383       2394       2393       2503       2504       2515       2514  
      2383       2384       2395       2394       2504       2505       2516       2515  
      2384       2385       2396       2395       2505       2506       2517       2516  
      2385       2386       2397       2396       2506       2507       2518       2517  
      2386       2387       2398       2397       2507       2508       2519       2518  
      2388       2389       2400       2399       2509       2510       2521       2520  
      2389       2390       2401       2400       2510       2511       2522       2521  
      2390       2391       2402       2401       2511       2512       2523       2522  
      2391       2392       2403       2402       2512       2513       2524       2523  
      2392       2393       2404       2403       2513       2514       2525       2524  
      2393       2394       2405       2404       2514       2515       2526       2525  
      2394       2395       2406       2405       2515       2516       2527       2526  
      2395       2396       2407       2406       2516       2517       2528       2527  
      2396       2397       2408       2407       2517       2518       2529       2528  
      2397       2398       2409       2408       2518       2519       2530       2529  
      2399       2400       2411       2410       2520       2521       2532       2531  
      2400       2401       2412       2411       2521       2522       2533       2532  
      2401       2402       2413       2412       2522       2523       2534       2533  
      2402       2403       2414       2413       2523       2524       2535       2534  
      2403       2404       2415       2414       2524       2525       2536       2535  
      2404       2405       2416       2415       2525       2526       2537       2536  
      2405       2406       2417       2416       2526       2527       2538       2537  
      2406       2407       2418       2417       2527       2528       2539       2538  
      2407       2408       2419       2418       2528       2529       2540       2539  
      2408       2409       2420       2419       2529       2530       2541       2540  
      2421       2422       2433       2432       2542       2543       2554       2553  
      2422       2423       2434       2433       2543       2544       2555       2554  
      2423       2424       2435       2434       2544       2545       2556       2555  
      2424       2425       2436       2435       2545       2546       2557       2556  
      2425       2426       2437       2436       2546       2547       2558       2557  
      2426       2427       2438       2437       2547       2548       2559       2558  
      2427       2428       2439       2438       2548       2549       2560       2559  
      2428       2429       2440       2439       2549       2550       2561       2560  
      2429       2430       2441       2440       2550       2551       2562       2561  
      2430       2431       2442       2441       2551       2552       2563       2562  
      2432       2433       2444       2443       2553       2554       2565       2564  
      2433       2434       2445       2444       2554       2555       2566       2565  
      2434       2435       2446       2445       2555       2556       2567       2566  
      2435       2436       2447       2446       2556       2557       2568       2567  
      2436       2437       2448       2447       2557       2558       2569       2568  
      2437       2438       2449       2448       2558       2559       2570       2569  
      2438       2439       2450       2449       2559       2560       2571       2570  
      2439       2440       2451       2450       2560       2561       2572       2571  
      2440       2441       2452       2451       2561       2562       2573       2572  
      2441       2442       2453       2452       2562       2563       2574       2573  
      2443       2444       2455       2454       2564       2565       2576       2575  
      2444       2445       2456       2455       2565       2566       2577       2576  
      2445       2446       2457       2456       2566       2567       2578       2577  
      2446       2447       2458       2457       2567       2568       2579       2578  
      2447       2448       2459       2458       2568       2569       2580       2579  
      2448       2449       2460       2459       2569       2570       2581       2580  
      2449       2450       2461       2460       2570       2571       2582       2581  
      2450       2451       2462       2461       2571       2572       2583       2582  
      2451       2452       2463       2462       2572       2573       2584       2583  
      2452       2453       2464       2463       2573       2574       2585       2584  
      2454       2455       2466       2465       2575       2576       2587       2586  
      2455       2456       2467       2466       2576       2577       2588       2587  
      2456       2457       2468       2467       2577       2578       2589       2588  
      2457       2458       2469       2468       2578       2579       2590       2589  
      2458       2459       2470       2469       2579       2580       2591       2590  
      2459       2460       2471       2470       2580       2581       2592       2591  
      2460       2461       2472       2471       2581       2582       2593       2592  
      2461       2462       2473       2472       2582       2583       2594       2593  
      2462       2463       2474       2473       2583       2584       2595       2594  
      2463       2464       2475       2474       2584       2585       2596       2595  
      2465       2466       2477       2476       2586       2587       2598       2597  
      2466       2467       2478       2477       2587       2588       2599       2598  
      2467       2468       2479       2478       2588       2589       2600       2599  
      2468       2469       2480       2479       2589       2590       2601       2600  
      2469       2470       2481       2480       2590       2591       2602       2601  
      2470       2471       2482       2481       2591       2592       2603       2602  
      2471       2472       2483       2482       2592       2593       2604       2603  
      2472       2473       2484       2483       2593       2594       2605       2604  
      2473       2474       2485       2484       2594       2595       2606       2605  
      2474       2475       2486       2485       2595       2596       2607       2606  
      2476       2477       2488       2487       2597       2598       2609       2608  
      2477       2478       2489       2488       2598       2599       2610       2609  
      2478       2479       2490       2489       2599       2600       2611       2610  
      2479       2480       2491       2490       2600       2601       2612       2611  
      2480       2481       2492       2491       2601       2602       2613       2612  
      2481       2482       2493       2492       2602       2603       2614       2613  
      2482       2483       2494       2493       2603       2604       2615       2614  
      2483       2484       2495       2494       2604       2605       2616       2615  
      2484       2485       2496       2495       2605       2606       2617       2616  
      2485       2486       2497       2496       2606       2607       2618       2617  
      2487       2488       2499       2498       2608       2609       2620       2619  
      2488       2489       2500       2499       2609       2610       2621       2620  
      2489       2490       2501       2500       2610       2611       2622       2621  
      2490       2491       2502       2501       2611       2612       2623       2622  
      2491       2492       2503       2502       2612       2613       2624       2623  
      2492       2493       2504       2503       2613       2614       2625       2624  
      2493       2494       2505       2504       2614       2615       2626       2625  
      2494       2495       2506       2505       2615       2616       2627       2626  
      2495       2496       2507       2506       2616       2617       2628       2627  
      2496       2497       2508       2507       2617       2618       2629       2628  
      2498       2499       2510       2509       2619       2620       2631       2630  
      2499       2500       2511       2510       2620       2621       2632       2631  
      2500       2501       2512       2511       2621       2622       2633       2632  
      2501       2502       2513       2512       2622       2623       2634       2633  
      2502       2503       2514       2513       2623       2624       2635       2634  
      2503       2504       2515       2514       2624       2625       2636       2635  
      2504       2505       2516       2515       2625       2626       2637       2636  
      2505       2506       2517       2516       2626       2627       2638       2637  
      2506       2507       2518       2517       2627       2628       2639       2638  
      2507       2508       2519       2518       2628       2629       2640       2639  
      2509       2510       2521       2520       2630       2631       2642       2641  
      2510       2511       2522       2521       2631       2632       2643       2642  
      2511       2512       2523       2522       2632       2633       2644       2643  
      2512       2513       2524       2523       2633       2634       2645       2644  
      2513       2514       2525       2524       2634       2635       2646       2645  
      2514       2515       2526       2525       2635       2636       2647       2646  
      2515       2516       2527       2526       2636       2637       2648       2647  
      2516       2517       2528       2527       2637       2638       2649       2648  
      2517       2518       2529       2528       2638       2639       2650       2649  
      2518       2519       2530       2529       2639       2640       2651       2650  
      2520       2521       2532       2531       2641       2642       2653       2652  
      2521       2522       2533       2532       2642       2643       2654       2653  
      2522       2523       2534       2533       2643       2644       2655       2654  
      2523       2524       2535       2534       2644       2645       2656       2655  
      2524       2525       2536       2535       2645       2646       2657       2656  
      2525       2526       2537       2536       2646       2647       2658       2657  
      2526       2527       2538       2537       2647       2648       2659       2658  
      2527       2528       2539       2538       2648       2649       2660       2659  
      2528       2529       2540       2539       2649       2650       2661       2660  
      2529       2530       2541       2540       2650       2651       2662       2661  
      2542       2543       2554       2553       2663       2664       2675       2674  
      2543       2544       2555       2554       2664       2665       2676       2675  
      2544       2545       2556       2555       2665       2666       2677       2676  
      2545       2546       2557       2556       2666       2667       2678       2677  
      2546       2547       2558       2557       2667       2668       2679       2678  
      2547       2548       2559       2558       2668       2669       2680       2679  
      2548       2549       2560       2559       2669       2670       2681       2680  
      2549       2550       2561       2560       2670       2671       2682       2681  
      2550       2551       2562       2561       2671       2672       2683       2682  
      2551       2552       2563       2562       2672       2673       2684       2683  
      2553       2554       2565       2564       2674       2675       2686       2685  
      2554       2555       2566       2565       2675       2676       2687       2686  
      2555       2556       2567       2566       2676       2677       2688       2687  
      2556       2557       2568       2567       2677       2678       2689       2688  
      2557       2558       2569       2568       2678       2679       2690       2689  
      2558       2559       2570       2569       2679       2680       2691       2690  
      2559       2560       2571       2570       2680       2681       2692       2691  
      2560       2561       2572       2571       2681       2682       2693       2692  
      2561       2562       2573       2572       2682       2683       2694       2693  
      2562       2563       2574       2573       2683       2684       2695       2694  
      2564       2565       2576       2575       2685       2686       2697       2696  
      2565       2566       2577       2576       2686       2687       2698       2697  
      2566       2567       2578       2577       2687       2688       2699       2698  
      2567       2568       2579       2578       2688       2689       2700       2699  
      2568       2569       2580       2579       2689       2690       2701       2700  
      2569       2570       2581       2580       2690       2691       2702       2701  
      2570       2571       2582       2581       2691       2692       2703       2702  
      2571       2572       2583       2582       2692       2693       2704       2703  
      2572       2573       2584       2583       2693       2694       2705       2704  
      2573       2574       2585       2584       2694       2695       2706       2705  
      2575       2576       2587       2586       2696       2697       2708       2707  
      2576       2577       2588       2587       2697       2698       2709       2708  
      2577       2578       2589       2588       2698       2699       2710       2709  
      2578       2579       2590       2589       2699       2700       2711       2710  
      2579       2580       2591       2590       2700       2701       2712       2711  
      2580       2581       2592       2591       2701       2702       2713       2712  
      2581       2582       2593       2592       2702       2703       2714       2713  
      2582       2583       2594       2593       2703       2704       2715       2714  
      2583       2584       2595       2594       2704       2705       2716       2715  
      2584       2585       2596       2595       2705       2706       2717       2716  
      2586       2587       2598       2597       2707       2708       2719       2718  
      2587       2588       2599       2598       2708       2709       2720       2719  
      2588       2589       2600       2599       2709       2710       2721       2720  
      2589       2590       2601       2600       2710       2711       2722       2721  
      2590       2591       2602       2601       2711       2712       2723       2722  
      2591       2592       2603       2602       2712       2713       2724       2723  
      2592       2593       2604       2603       2713       2714       2725       2724  
      2593       2594       2605       2604       2714       2715       2726       2725  
      2594       2595       2606       2605       2715       2716       2727       2726  
      2595       2596       2607       2606       2716       2717       2728       2727  
      2597       2598       2609       2608       2718       2719       2730       2729  
      2598       2599       2610       2609       2719       2720       2731       2730  
      2599       2600       2611       2610       2720       2721       2732       2731  
      2600       2601       2612       2611       2721       2722       2733       2732  
      2601       2602       2613       2612       2722       2723       2734       2733  
      2602       2603       2614       2613       2723       2724       2735       2734  
      2603       2604       2615       2614       2724       2725       2736       2735  
      2604       2605       2616       2615       2725       2726       2737       2736  
      2605       2606       2617       2616       2726       2727       2738       2737  
      2606       2607       2618       2617       2727       2728       2739       2738  
      2608       2609       2620       2619       2729       2730       2741       2740  
      2609       2610       2621       2620       2730       2731       2742       2741  
      2610       2611       2622       2621       2731       2732       2743       2742  
      2611       2612       2623       2622       2732       2733       2744       2743  
      2612       2613       2624       2623       2733       2734       2745       2744  
      2613       2614       2625       2624       2734       2735       2746       2745  
      2614       2615       2626       2625       2735       2736       2747       2746  
      2615       2616       2627       2626       2736       2737       2748       2747  
      2616       2617       2628       2627       2737       2738       2749       2748  
      2617       2618       2629       2628       2738       2739       2750       2749  
      2619       2620       2631       2630       2740       2741       2752       2751  
      2620       2621       2632       2631       2741       2742       2753       2752  
      2621       2622       2633       2632       2742       2743       2754       2753  
      2622       2623       2634       2633       2743       2744       2755       2754  
      2623       2624       2635       2634       2744       2745       2756       2755  
      2624       2625       2636       2635       2745       2746       2757       2756  
      2625       2626       2637       2636       2746       2747       2758       2757  
      2626       2627       2638       2637       2747       2748       2759       2758  
      2627       2628       2639       2638       2748       2749       2760       2759  
      2628       2629       2640       2639       2749       2750       2761       2760  
      2630       2631       2642       2641       2751       2752       2763       2762  
      2631       2632       2643       2642       2752       2753       2764       2763  
      2632       2633       2644       2643       2753       2754       2765       2764  
      2633       2634       2645       2644       2754       2755       2766       2765  
      2634       2635       2646       2645       2755       2756       2767       2766  
      2635       2636       2647       2646       2756       2757       2768       2767  
      2636       2637       2648       2647       2757       2758       2769       2768  
      2637       2638       2649       2648       2758       2759       2770       2769  
      2638       2639       2650       2649       2759       2760       2771       2770  
      2639       2640       2651       2650       2760       2761       2772       2771  
      2641       2642       2653       2652       2762       2763       2774       2773  
      2642       2643       2654       2653       2763       2764       2775       2774  
      2643       2644       2655       2654       2764       2765       2776       2775  
      2644       2645       2656       2655       2765       2766       2777       2776  
      2645       2646       2657       2656       2766       2767       2778       2777  
      2646       2647       2658       2657       2767       2768       2779       2778  
      2647       2648       2659       2658       2768       2769       2780       2779  
      2648       2649       2660       2659       2769       2770       2781       2780  
      2649       2650       2661       2660       2770       2771       2782       2781  
      2650       2651       2662       2661       2771       2772       2783       2782  
      2663       2664       2675       2674       2784       2785       2796       2795  
      2664       2665       2676       2675       2785       2786       2797       2796  
      2665       2666       2677       2676       2786       2787       2798       2797  
      2666       2667       2678       2677       2787       2788       2799       2798  
      2667       2668       2679       2678       2788       2789       2800       2799  
      2668       2669       2680       2679       2789       2790       2801       2800  
      2669       2670       2681       2680       2790       2791       2802       2801  
      2670       2671       2682       2681       2791       2792       2803       2802  
      2671       2672       2683       2682       2792       2793       2804       2803  
      2672       2673       2684       2683       2793       2794       2805       2804  
      2674       2675       2686       2685       2795       2796       2807       2806  
      2675       2676       2687       2686       2796       2797       2808       2807  
      2676       2677       2688       2687       2797       2798       2809       2808  
      2677       2678       2689       2688       2798       2799       2810       2809  
      2678       2679       2690       2689       2799       2800       2811       2810  
      2679       2680       2691       2690       2800       2801       2812       2811  
      2680       2681       2692       2691       2801       2802       2813       2812  
      2681       2682       2693       2692       2802       2803       2814       2813  
      2682       2683       2694       2693       2803       2804       2815       2814  
      2683       2684       2695       2694       2804       2805       2816       2815  
      2685       2686       2697       2696       2806       2807       2818       2817  
      2686       2687       2698       2697       2807       2808       2819       2818  
      2687       2688       2699       2698       2808       2809       2820       2819  
      2688       2689       2700       2699       2809       2810       2821       2820  
      2689       2690       2701       2700       2810       2811       2822       2821  
      2690       2691       2702       2701       2811       2812       2823       2822  
      2691       2692       2703       2702       2812       2813       2824       2823  
      2692       2693       2704       2703       2813       2814       2825       2824  
      2693       2694       2705       2704       2814       2815       2826       2825  
      2694       2695       2706       2705       2815       2816       2827       2826  
      2696       2697       2708       2707       2817       2818       2829       2828  
      2697       2698       2709       2708       2818       2819       2830       2829  
      2698       2699       2710       2709       2819       2820       2831       2830  
      2699       2700       2711       2710       2820       2821       2832       2831  
      2700       2701       2712       2711       2821       2822       2833       2832  
      2701       2702       2713       2712       2822       2823       2834       2833  
      2702       2703       2714       2713       2823       2824       2835       2834  
      2703       2704       2715       2714       2824       2825       2836       2835  
      2704       2705       2716       2715       2825       2826       2837       2836  
      2705       2706       2717       2716       2826       2827       2838       2837  
      2707       2708       2719       2718       2828       2829       2840       2839  
      2708       2709       2720       2719       2829       2830       2841       2840  
      2709       2710       2721       2720       2830       2831       2842       2841  
      2710       2711       2722       2721       2831       2832       2843       2842  
      2711       2712       2723       2722       2832       2833       2844       2843  
      2712       2713       2724       2723       2833       2834       2845       2844  
      2713       2714       2725       2724       2834       2835       2846       2845  
      2714       2715       2726       2725       2835       2836       2847       2846  
      2715       2716       2727       2726       2836       2837       2848       2847  
      2716       2717       2728       2727       2837       2838       2849       2848  
      2718       2719       2730       2729       2839       2840       2851       2850  
      2719       2720       2731       2730       2840       2841       2852       2851  
      2720       2721       2732       2731       2841       2842       2853       2852  
      2721       2722       2733       2732       2842       2843       2854       2853  
      2722       2723       2734       2733       2843       2844       2855       2854  
      2723       2724       2735       2734       2844       2845       2856       2855  
      2724       2725       2736       2735       2845       2846       2857       2856  
      2725       2726       2737       2736       2846       2847       2858       2857  
      2726       2727       2738       2737       2847       2848       2859       2858  
      2727       2728       2739       2738       2848       2849       2860       2859  
      2729       2730       2741       2740       2850       2851       2862       2861  
      2730       2731       2742       2741       2851       2852       2863       2862  
      2731       2732       2743       2742       2852       2853       2864       2863  
      2732       2733       2744       2743       2853       2854       2865       2864  
      2733       2734       2745       2744       2854       2855       2866       2865  
      2734       2735       2746       2745       2855       2856       2867       2866  
      2735       2736       2747       2746       2856       2857       2868       2867  
      2736       2737       2748       2747       2857       2858       2869       2868  
      2737       2738       2749       2748       2858       2859       2870       2869  
      2738       2739       2750       2749       2859       2860       2871       2870  
      2740       2741       2752       2751       2861       2862       2873       2872  
      2741       2742       2753       2752       2862       2863       2874       2873  
      2742       2743       2754       2753       2863       2864       2875       2874  
      2743       2744       2755       2754       2864       2865       2876       2875  
      2744       2745       2756       2755       2865       2866       2877       2876  
      2745       2746       2757       2756       2866       2867       2878       2877  
      2746       2747       2758       2757       2867       2868       2879       2878  
      2747       2748       2759       2758       2868       2869       2880       2879  
      2748       2749       2760       2759       2869       2870       2881       2880  
      2749       2750       2761       2760       2870       2871       2882       2881  
      2751       2752       2763       2762       2872       2873       2884       2883  
      2752       2753       2764       2763       2873       2874       2885       2884  
      2753       2754       2765       2764       2874       2875       2886       2885  
      2754       2755       2766       2765       2875       2876       2887       2886  
      2755       2756       2767       2766       2876       2877       2888       2887  
      2756       2757       2768       2767       2877       2878       2889       2888  
      2757       2758       2769       2768       2878       2879       2890       2889  
      2758       2759       2770       2769       2879       2880       2891       2890  
      2759       2760       2771       2770       2880       2881       2892       2891  
      2760       2761       2772       2771       2881       2882       2893       2892  
      2762       2763       2774       2773       2883       2884       2895       2894  
      2763       2764       2775       2774       2884       2885       2896       2895  
      2764       2765       2776       2775       2885       2886       2897       2896  
      2765       2766       2777       2776       2886       2887       2898       2897  
      2766       2767       2778       2777       2887       2888       2899       2898  
      2767       2768       2779       2778       2888       2889       2900       2899  
      2768       2769       2780       2779       2889       2890       2901       2900  
      2769       2770       2781       2780       2890       2891       2902       2901  
      2770       2771       2782       2781       2891       2892       2903       2902  
      2771       2772       2783       2782       2892       2893       2904       2903  
      2784       2785       2796       2795       2905       2906       2917       2916  
      2785       2786       2797       2796       2906       2907       2918       2917  
      2786       2787       2798       2797       2907       2908       2919       2918  
      2787       2788       2799       2798       2908       2909       2920       2919  
      2788       2789       2800       2799       2909       2910       2921       2920  
      2789       2790       2801       2800       2910       2911       2922       2921  
      2790       2791       2802       2801       2911       2912       2923       2922  
      2791       2792       2803       2802       2912       2913       2924       2923  
      2792       2793       2804       2803       2913       2914       2925       2924  
      2793       2794       2805       2804       2914       2915       2926       2925  
      2795       2796       2807       2806       2916       2917       2928       2927  
      2796       2797       2808       2807       2917       2918       2929       2928  
      2797       2798       2809       2808       2918       2919       2930       2929  
      2798       2799       2810       2809       2919       2920       2931       2930  
      2799       2800       2811       2810       2920       2921       2932       2931  
      2800       2801       2812       2811       2921       2922       2933       2932  
      2801       2802       2813       2812       2922       2923       2934       2933  
      2802       2803       2814       2813       2923       2924       2935       2934  
      2803       2804       2815       2814       2924       2925       2936       2935  
      2804       2805       2816       2815       2925       2926       2937       2936  
      2806       2807       2818       2817       2927       2928       2939       2938  
      2807       2808       2819       2818       2928       2929       2940       2939  
      2808       2809       2820       2819       2929       2930       2941       2940  
      2809       2810       2821       2820       2930       2931       2942       2941  
      2810       2811       2822       2821       2931       2932       2943       2942  
      2811       2812       2823       2822       2932       2933       2944       2943  
      2812       2813       2824       2823       2933       2934       2945       2944  
      2813       2814       2825       2824       2934       2935       2946       2945  
      2814       2815       2826       2825       2935       2936       2947       2946  
      2815       2816       2827       2826       2936       2937       2948       2947  
      2817       2818       2829       2828       2938       2939       2950       2949  
      2818       2819       2830       2829       2939       2940       2951       2950  
      2819       2820       2831       2830       2940       2941       2952       2951  
      2820       2821       2832       2831       2941       2942       2953       2952  
      2821       2822       2833       2832       2942       2943       2954       2953  
      2822       2823       2834       2833       2943       2944       2955       2954  
      2823       2824       2835       2834       2944       2945       2956       2955  
      2824       2825       2836       2835       2945       2946       2957       2956  
      2825       2826       2837       2836       2946       2947       2958       2957  
      2826       2827       2838       2837       2947       2948       2959       2958  
      2828       2829       2840       2839       2949       2950       2961       2960  
      2829       2830       2841       2840       2950       2951       2962       2961  
      2830       2831       2842       2841       2951       2952       2963       2962  
      2831       2832       2843       2842       2952       2953       2964       2963  
      2832       2833       2844       2843       2953       2954       2965       2964  
      2833       2834       2845       2844       2954       2955       2966       2965  
      2834       2835       2846       2845       2955       2956       2967       2966  
      2835       2836       2847       2846       2956       2957       2968       2967  
      2836       2837       2848       2847       2957       2958       2969       2968  
      2837       2838       2849       2848       2958       2959       2970       2969  
      2839       2840       2851       2850       2960       2961       2972       2971  
      2840       2841       2852       2851       2961       2962       2973       2972  
      2841       2842       2853       2852       2962       2963       2974       2973  
      2842       2843       2854       2853       2963       2964       2975       2974  
      2843       2844       2855       2854       2964       2965       2976       2975  
      2844       2845       2856       2855       2965       2966       2977       2976  
      2845       2846       2857       2856       2966       2967       2978       2977  
      2846       2847       2858       2857       2967       2968       2979       2978  
      2847       2848       2859       2858       2968       2969       2980       2979  
      2848       2849       2860       2859       2969       2970       2981       2980  
      2850       2851       2862       2861       2971       2972       2983       2982  
      2851       2852       2863       2862       2972       2973       2984       2983  
      2852       2853       2864       2863       2973       2974       2985       2984  
      2853       2854       2865       2864       2974       2975       2986       2985  
      2854       2855       2866       2865       2975       2976       2987       2986  
      2855       2856       2867       2866       2976       2977       2988       2987  
      2856       2857       2868       2867       2977       2978       2989       2988  
      2857       2858       2869       2868       2978       2979       2990       2989  
      2858       2859       2870       2869       2979       2980       2991       2990  
      2859       2860       2871       2870       2980       2981       2992       2991  
      2861       2862       2873       2872       2982       2983       2994       2993  
      2862       2863       2874       2873       2983       2984       2995       2994  
      2863       2864       2875       2874       2984       2985       2996       2995  
      2864       2865       2876       2875       2985       2986       2997       2996  
      2865       2866       2877       2876       2986       2987       2998       2997  
      2866       2867       2878       2877       2987       2988       2999       2998  
      2867       2868       2879       2878       2988       2989       3000       2999  
      2868       2869       2880       2879       2989       2990       3001       3000  
      2869       2870       2881       2880       2990       2991       3002       3001  
      2870       2871       2882       2881       2991       2992       3003       3002  
      2872       2873       2884       2883       2993       2994       3005       3004  
      2873       2874       2885       2884       2994       2995       3006       3005  
      2874       2875       2886       2885       2995       2996       3007       3006  
      2875       2876       2887       2886       2996       2997       3008       3007  
      2876       2877       2888       2887       2997       2998       3009       3008  
      2877       2878       2889       2888       2998       2999       3010       3009  
      2878       2879       2890       2889       2999       3000       3011       3010  
      2879       2880       2891       2890       3000       3001       3012       3011  
      2880       2881       2892       2891       3001       3002       3013       3012  
      2881       2882       2893       2892       3002       3003       3014       3013  
      2883       2884       2895       2894       3004       3005       3016       3015  
      2884       2885       2896       2895       3005       3006       3017       3016  
      2885       2886       2897       2896       3006       3007       3018       3017  
      2886       2887       2898       2897       3007       3008       3019       3018  
      2887       2888       2899       2898       3008       3009       3020       3019  
      2888       2889       2900       2899       3009       3010       3021       3020  
      2889       2890       2901       2900       3010       3011       3022       3021  
      2890       2891       2902       2901       3011       3012       3023       3022  
      2891       2892       2903       2902       3012       3013       3024       3023  
      2892       2893       2904       2903       3013       3014       3025       3024  
      2905       2906       2917       2916       3026       3027       3038       3037  
      2906       2907       2918       2917       3027       3028       3039       3038  
      2907       2908       2919       2918       3028       3029       3040       3039  
      2908       2909       2920       2919       3029       3030       3041       3040  
      2909       2910       2921       2920       3030       3031       3042       3041  
      2910       2911       2922       2921       3031       3032       3043       3042  
      2911       2912       2923       2922       3032       3033       3044       3043  
      2912       2913       2924       2923       3033       3034       3045       3044  
      2913       2914       2925       2924       3034       3035       3046       3045  
      2914       2915       2926       2925       3035       3036       3047       3046  
      2916       2917       2928       2927       3037       3038       3049       3048  
      2917       2918       2929       2928       3038       3039       3050       3049  
      2918       2919       2930       2929       3039       3040       3051       3050  
      2919       2920       2931       2930       3040       3041       3052       3051  
      2920       2921       2932       2931       3041       3042       3053       3052  
      2921       2922       2933       2932       3042       3043       3054       3053  
      2922       2923       2934       2933       3043       3044       3055       3054  
      2923       2924       2935       2934       3044       3045       3056       3055  
      2924       2925       2936       2935       3045       3046       3057       3056  
      2925       2926       2937       2936       3046       3047       3058       3057  
      2927       2928       2939       2938       3048       3049       3060       3059  
      2928       2929       2940       2939       3049       3050       3061       3060  
      2929       2930       2941       2940       3050       3051       3062       3061  
      2930       2931       2942       2941       3051       3052       3063       3062  
      2931       2932       2943       2942       3052       3053       3064       3063  
      2932       2933       2944       2943       3053       3054       3065       3064  
      2933       2934       2945       2944       3054       3055       3066       3065  
      2934       2935       2946       2945       3055       3056       3067       3066  
      2935       2936       2947       2946       3056       3057       3068       3067  
      2936       2937       2948       2947       3057       3058       3069       3068  
      2938       2939       2950       2949       3059       3060       3071       3070  
      2939       2940       2951       2950       3060       3061       3072       3071  
      2940       2941       2952       2951       3061       3062       3073       3072  
      2941       2942       2953       2952       3062       3063       3074       3073  
      2942       2943       2954       2953       3063       3064       3075       3074  
      2943       2944       2955       2954       3064       3065       3076       3075  
      2944       2945       2956       2955       3065       3066       3077       3076  
      2945       2946       2957       2956       3066       3067       3078       3077  
      2946       2947       2958       2957       3067       3068       3079       3078  
      2947       2948       2959       2958       3068       3069       3080       3079  
      2949       2950       2961       2960       3070       3071       3082       3081  
      2950       2951       2962       2961       3071       3072       3083       3082  
      2951       2952       2963       2962       3072       3073       3084       3083  
      2952       2953       2964       2963       3073       3074       3085       3084  
      2953       2954       2965       2964       3074       3075       3086       3085  
      2954       2955       2966       2965       3075       3076       3087       3086  
      2955       2956       2967       2966       3076       3077       3088       3087  
      2956       2957       2968       2967       3077       3078       3089       3088  
      2957       2958       2969       2968       3078       3079       3090       3089  
      2958       2959       2970       2969       3079       3080       3091       3090  
      2960       2961       2972       2971       3081       3082       3093       3092  
      2961       2962       2973       2972       3082       3083       3094       3093  
      2962       2963       2974       2973       3083       3084       3095       3094  
      2963       2964       2975       2974       3084       3085       3096       3095  
      2964       2965       2976       2975       3085       3086       3097       3096  
      2965       2966       2977       2976       3086       3087       3098       3097  
      2966       2967       2978       2977       3087       3088       3099       3098  
      2967       2968       2979       2978       3088       3089       3100       3099  
      2968       2969       2980       2979       3089       3090       3101       3100  
      2969       2970       2981       2980       3090       3091       3102       3101  
      2971       2972       2983       2982       3092       3093       3104       3103  
      2972       2973       2984       2983       3093       3094       3105       3104  
      2973       2974       2985       2984       3094       3095       3106       3105  
      2974       2975       2986       2985       3095       3096       3107       3106  
      2975       2976       2987       2986       3096       3097       3108       3107  
      2976       2977       2988       2987       3097       3098       3109       3108  
      2977       2978       2989       2988       3098       3099       3110       3109  
      2978       2979       2990       2989       3099       3100       3111       3110  
      2979       2980       2991       2990       3100       3101       3112       3111  
      2980       2981       2992       2991       3101       3102       3113       3112  
      2982       2983       2994       2993       3103       3104       3115       3114  
      2983       2984       2995       2994       3104       3105       3116       3115  
      2984       2985       2996       2995       3105       3106       3117       3116  
      2985       2986       2997       2996       3106       3107       3118       3117  
      2986       2987       2998       2997       3107       3108       3119       3118  
      2987       2988       2999       2998       3108       3109       3120       3119  
      2988       2989       3000       2999       3109       3110       3121       3120  
      2989       2990       3001       3000       3110       3111       3122       3121  
      2990       2991       3002       3001       3111       3112       3123       3122  
      2991       2992       3003       3002       3112       3113       3124       3123  
      2993       2994       3005       3004       3114       3115       3126       3125  
      2994       2995       3006       3005       3115       3116       3127       3126  
      2995       2996       3007       3006       3116       3117       3128       3127  
      2996       2997       3008       3007       3117       3118       3129       3128  
      2997       2998       3009       3008       3118       3119       3130       3129  
      2998       2999       3010       3009       3119       3120       3131       3130  
      2999       3000       3011       3010       3120       3121       3132       3131  
      3000       3001       3012       3011       3121       3122       3133       3132  
      3001       3002       3013       3012       3122       3123       3134       3133  
      3002       3003       3014       3013       3123       3124       3135       3134  
      3004       3005       3016       3015       3125       3126       3137       3136  
      3005       3006       3017       3016       3126       3127       3138       3137  
      3006       3007       3018       3017       3127       3128       3139       3138  
      3007       3008       3019       3018       3128       3129       3140       3139  
      3008       3009       3020       3019       3129       3130       3141       3140  
      3009       3010       3021       3020       3130       3131       3142       3141  
      3010       3011       3022       3021       3131       3132       3143       3142  
      3011       3012       3023       3022       3132       3133       3144       3143  
      3012       3013       3024       3023       3133       3134       3145       3144  
      3013       3014       3025       3024       3134       3135       3146       3145  
      3026       3027       3038       3037       3147       3148       3159       3158  
      3027       3028       3039       3038       3148       3149       3160       3159  
      3028       3029       3040       3039       3149       3150       3161       3160  
      3029       3030       3041       3040       3150       3151       3162       3161  
      3030       3031       3042       3041       3151       3152       3163       3162  
      3031       3032       3043       3042       3152       3153       3164       3163  
      3032       3033       3044       3043       3153       3154       3165       3164  
      3033       3034       3045       3044       3154       3155       3166       3165  
      3034       3035       3046       3045       3155       3156       3167       3166  
      3035       3036       3047       3046       3156       3157       3168       3167  
      3037       3038       3049       3048       3158       3159       3170       3169  
      3038       3039       3050       3049       3159       3160       3171       3170  
      3039       3040       3051       3050       3160       3161       3172       3171  
      3040       3041       3052       3051       3161       3162       3173       3172  
      3041       3042       3053       3052       3162       3163       3174       3173  
      3042       3043       3054       3053       3163       3164       3175       3174  
      3043       3044       3055       3054       3164       3165       3176       3175  
      3044       3045       3056       3055       3165       3166       3177       3176  
      3045       3046       3057       3056       3166       3167       3178       3177  
      3046       3047       3058       3057       3167       3168       3179       3178  
      3048       3049       3060       3059       3169       3170       3181       3180  
      3049       3050       3061       3060       3170       3171       3182       3181  
      3050       3051       3062       3061       3171       3172       3183       3182  
      3051       3052       3063       3062       3172       3173       3184       3183  
      3052       3053       3064       3063       3173       3174       3185       3184  
      3053       3054       3065       3064       3174       3175       3186       3185  
      3054       3055       3066       3065       3175       3176       3187       3186  
      3055       3056       3067       3066       3176       3177       3188       3187  
      3056       3057       3068       3067       3177       3178       3189       3188  
      3057       3058       3069       3068       3178       3179       3190       3189  
      3059       3060       3071       3070       3180       3181       3192       3191  
      3060       3061       3072       3071       3181       3182       3193       3192  
      3061       3062       3073       3072       3182       3183       3194       3193  
      3062       3063       3074       3073       3183       3184       3195       3194  
      3063       3064       3075       3074       3184       3185       3196       3195  
      3064       3065       3076       3075       3185       3186       3197       3196  
      3065       3066       3077       3076       3186       3187       3198       3197  
      3066       3067       3078       3077       3187       3188       3199       3198  
      3067       3068       3079       3078       3188       3189       3200       3199  
      3068       3069       3080       3079       3189       3190       3201       3200  
      3070       3071       3082       3081       3191       3192       3203       3202  
      3071       3072       3083       3082       3192       3193       3204       3203  
      3072       3073       3084       3083       3193       3194       3205       3204  
      3073       3074       3085       3084       3194       3195       3206       3205  
      3074       3075       3086       3085       3195       3196       3207       3206  
      3075       3076       3087       3086       3196       3197       3208       3207  
      3076       3077       3088       3087       3197       3198       3209       3208  
      3077       3078       3089       3088       3198       3199       3210       3209  
      3078       3079       3090       3089       3199       3200       3211       3210  
      3079       3080       3091       3090       3200       3201       3212       3211  
      3081       3082       3093       3092       3202       3203       3214       3213  
      3082       3083       3094       3093       3203       3204       3215       3214  
      3083       3084       3095       3094       3204       3205       3216       3215  
      3084       3085       3096       3095       3205       3206       3217       3216  
      3085       3086       3097       3096       3206       3207       3218       3217  
      3086       3087       3098       3097       3207       3208       3219       3218  
      3087       3088       3099       3098       3208       3209       3220       3219  
      3088       3089       3100       3099       3209       3210       3221       3220  
      3089       3090       3101       3100       3210       3211       3222       3221  
      3090       3091       3102       3101       3211       3212       3223       3222  
      3092       3093       3104       3103       3213       3214       3225       3224  
      3093       3094       3105       3104       3214       3215       3226       3225  
      3094       3095       3106       3105       3215       3216       3227       3226  
      3095       3096       3107       3106       3216       3217       3228       3227  
      3096       3097       3108       3107       3217       3218       3229       3228  
      3097       3098       3109       3108       3218       3219       3230       3229  
      3098       3099       3110       3109       3219       3220       3231       3230  
      3099       3100       3111       3110       3220       3221       3232       3231  
      3100       3101       3112       3111       3221       3222       3233       3232  
      3101       3102       3113       3112       3222       3223       3234       3233  
      3103       3104       3115       3114       3224       3225       3236       3235  
      3104       3105       3116       3115       3225       3226       3237       3236  
      3105       3106       3117       3116       3226       3227       3238       3237  
      3106       3107       3118       3117       3227       3228       3239       3238  
      3107       3108       3119       3118       3228       3229       3240       3239  
      3108       3109       3120       3119       3229       3230       3241       3240  
      3109       3110       3121       3120       3230       3231       3242       3241  
      3110       3111       3122       3121       3231       3232       3243       3242  
      3111       3112       3123       3122       3232       3233       3244       3243  
      3112       3113       3124       3123       3233       3234       3245       3244  
      3114       3115       3126       3125       3235       3236       3247       3246  
      3115       3116       3127       3126       3236       3237       3248       3247  
      3116       3117       3128       3127       3237       3238       3249       3248  
      3117       3118       3129       3128       3238       3239       3250       3249  
      3118       3119       3130       3129       3239       3240       3251       3250  
      3119       3120       3131       3130       3240       3241       3252       3251  
      3120       3121       3132       3131       3241       3242       3253       3252  
      3121       3122       3133       3132       3242       3243       3254       3253  
      3122       3123       3134       3133       3243       3244       3255       3254  
      3123       3124       3135       3134       3244       3245       3256       3255  
      3125       3126       3137       3136       3246       3247       3258       3257  
      3126       3127       3138       3137       3247       3248       3259       3258  
      3127       3128       3139       3138       3248       3249       3260       3259  
      3128       3129       3140       3139       3249       3250       3261       3260  
      3129       3130       3141       3140       3250       3251       3262       3261  
      3130       3131       3142       3141       3251       3252       3263       3262  
      3131       3132       3143       3142       3252       3253       3264       3263  
      3132       3133       3144       3143       3253       3254       3265       3264  
      3133       3134       3145       3144       3254       3255       3266       3265  
      3134       3135       3146       3145       3255       3256       3267       3266  
      3147       3148       3159       3158       3268       3269       3280       3279  
      3148       3149       3160       3159       3269       3270       3281       3280  
      3149       3150       3161       3160       3270       3271       3282       3281  
      3150       3151       3162       3161       3271       3272       3283       3282  
      3151       3152       3163       3162       3272       3273       3284       3283  
      3152       3153       3164       3163       3273       3274       3285       3284  
      3153       3154       3165       3164       3274       3275       3286       3285  
      3154       3155       3166       3165       3275       3276       3287       3286  
      3155       3156       3167       3166       3276       3277       3288       3287  
      3156       3157       3168       3167       3277       3278       3289       3288  
      3158       3159       3170       3169       3279       3280       3291       3290  
      3159       3160       3171       3170       3280       3281       3292       3291  
      3160       3161       3172       3171       3281       3282       3293       3292  
      3161       3162       3173       3172       3282       3283       3294       3293  
      3162       3163       3174       3173       3283       3284       3295       3294  
      3163       3164       3175       3174       3284       3285       3296       3295  
      3164       3165       3176       3175       3285       3286       3297       3296  
      3165       3166       3177       3176       3286       3287       3298       3297  
      3166       3167       3178       3177       3287       3288       3299       3298  
      3167       3168       3179       3178       3288       3289       3300       3299  
      3169       3170       3181       3180       3290       3291       3302       3301  
      3170       3171       3182       3181       3291       3292       3303       3302  
      3171       3172       3183       3182       3292       3293       3304       3303  
      3172       3173       3184       3183       3293       3294       3305       3304  
      3173       3174       3185       3184       3294       3295       3306       3305  
      3174       3175       3186       3185       3295       3296       3307       3306  
      3175       3176       3187       3186       3296       3297       3308       3307  
      3176       3177       3188       3187       3297       3298       3309       3308  
      3177       3178       3189       3188       3298       3299       3310       3309  
      3178       3179       3190       3189       3299       3300       3311       3310  
      3180       3181       3192       3191       3301       3302       3313       3312  
      3181       3182       3193       3192       3302       3303       3314       3313  
      3182       3183       3194       3193       3303       3304       3315       3314  
      3183       3184       3195       3194       3304       3305       3316       3315  
      3184       3185       3196       3195       3305       3306       3317       3316  
      3185       3186       3197       3196       3306       3307       3318       3317  
      3186       3187       3198       3197       3307       3308       3319       3318  
      3187       3188       3199       3198       3308       3309       3320       3319  
      3188       3189       3200       3199       3309       3310       3321       3320  
      3189       3190       3201       3200       3310       3311       3322       3321  
      3191       3192       3203       3202       3312       3313       3324       3323  
      3192       3193       3204       3203       3313       3314       3325       3324  
      3193       3194       3205       3204       3314       3315       3326       3325  
      3194       3195       3206       3205       3315       3316       3327       3326  
      3195       3196       3207       3206       3316       3317       3328       3327  
      3196       3197       3208       3207       3317       3318       3329       3328  
      3197       3198       3209       3208       3318       3319       3330       3329  
      3198       3199       3210       3209       3319       3320       3331       3330  
      3199       3200       3211       3210       3320       3321       3332       3331  
      3200       3201       3212       3211       3321       3322       3333       3332  
      3202       3203       3214       3213       3323       3324       3335       3334  
      3203       3204       3215       3214       3324       3325       3336       3335  
      3204       3205       3216       3215       3325       3326       3337       3336  
      3205       3206       3217       3216       3326       3327       3338       3337  
      3206       3207       3218       3217       3327       3328       3339       3338  
      3207       3208       3219       3218       3328       3329       3340       3339  
      3208       3209       3220       3219       3329       3330       3341       3340  
      3209       3210       3221       3220       3330       3331       3342       3341  
      3210       3211       3222       3221       3331       3332       3343       3342  
      3211       3212       3223       3222       3332       3333       3344       3343  
      3213       3214       3225       3224       3334       3335       3346       3345  
      3214       3215       3226       3225       3335       3336       3347       3346  
      3215       3216       3227       3226       3336       3337       3348       3347  
      3216       3217       3228       3227       3337       3338       3349       3348  
      3217       3218       3229       3228       3338       3339       3350       3349  
      3218       3219       3230       3229       3339       3340       3351       3350  
      3219       3220       3231       3230       3340       3341       3352       3351  
      3220       3221       3232       3231       3341       3342       3353       3352  
      3221       3222       3233       3232       3342       3343       3354       3353  
      3222       3223       3234       3233       3343       3344       3355       3354  
      3224       3225       3236       3235       3345       3346       3357       3356  
      3225       3226       3237       3236       3346       3347       3358       3357  
      3226       3227       3238       3237       3347       3348       3359       3358  
      3227       3228       3239       3238       3348       3349       3360       3359  
      3228       3229       3240       3239       3349       3350       3361       3360  
      3229       3230       3241       3240       3350       3351       3362       3361  
      3230       3231       3242       3241       3351       3352       3363       3362  
      3231       3232       3243       3242       3352       3353       3364       3363  
      3232       3233       3244       3243       3353       3354       3365       3364  
      3233       3234       3245       3244       3354       3355       3366       3365  
      3235       3236       3247       3246       3356       3357       3368       3367  
      3236       3237       3248       3247       3357       3358       3369       3368  
      3237       3238       3249       3248       3358       3359       3370       3369  
      3238       3239       3250       3249       3359       3360       3371       3370  
      3239       3240       3251       3250       3360       3361       3372       3371  
      3240       3241       3252       3251       3361       3362       3373       3372  
      3241       3242       3253       3252       3362       3363       3374       3373  
      3242       3243       3254       3253       3363       3364       3375       3374  
      3243       3244       3255       3254       3364       3365       3376       3375  
      3244       3245       3256       3255       3365       3366       3377       3376  
      3246       3247       3258       3257       3367       3368       3379       3378  
      3247       3248       3259       3258       3368       3369       3380       3379  
      3248       3249       3260       3259       3369       3370       3381       3380  
      3249       3250       3261       3260       3370       3371       3382       3381  
      3250       3251       3262       3261       3371       3372       3383       3382  
      3251       3252       3263       3262       3372       3373       3384       3383  
      3252       3253       3264       3263       3373       3374       3385       3384  
      3253       3254       3265       3264       3374       3375       3386       3385  
      3254       3255       3266       3265       3375       3376       3387       3386  
      3255       3256       3267       3266       3376       3377       3388       3387  
      3268       3269       3280       3279       3389       3390       3401       3400  
      3269       3270       3281       3280       3390       3391       3402       3401  
      3270       3271       3282       3281       3391       3392       3403       3402  
      3271       3272       3283       3282       3392       3393       3404       3403  
      3272       3273       3284       3283       3393       3394       3405       3404  
      3273       3274       3285       3284       3394       3395       3406       3405  
      3274       3275       3286       3285       3395       3396       3407       3406  
      3275       3276       3287       3286       3396       3397       3408       3407  
      3276       3277       3288       3287       3397       3398       3409       3408  
      3277       3278       3289       3288       3398       3399       3410       3409  
      3279       3280       3291       3290       3400       3401       3412       3411  
      3280       3281       3292       3291       3401       3402       3413       3412  
      3281       3282       3293       3292       3402       3403       3414       3413  
      3282       3283       3294       3293       3403       3404       3415       3414  
      3283       3284       3295       3294       3404       3405       3416       3415  
      3284       3285       3296       3295       3405       3406       3417       3416  
      3285       3286       3297       3296       3406       3407       3418       3417  
      3286       3287       3298       3297       3407       3408       3419       3418  
      3287       3288       3299       3298       3408       3409       3420       3419  
      3288       3289       3300       3299       3409       3410       3421       3420  
      3290       3291       3302       3301       3411       3412       3423       3422  
      3291       3292       3303       3302       3412       3413       3424       3423  
      3292       3293       3304       3303       3413       3414       3425       3424  
      3293       3294       3305       3304       3414       3415       3426       3425  
      3294       3295       3306       3305       3415       3416       3427       3426  
      3295       3296       3307       3306       3416       3417       3428       3427  
      3296       3297       3308       3307       3417       3418       3429       3428  
      3297       3298       3309       3308       3418       3419       3430       3429  
      3298       3299       3310       3309       3419       3420       3431       3430  
      3299       3300       3311       3310       3420       3421       3432       3431  
      3301       3302       3313       3312       3422       3423       3434       3433  
      3302       3303       3314       3313       3423       3424       3435       3434  
      3303       3304       3315       3314       3424       3425       3436       3435  
      3304       3305       3316       3315       3425       3426       3437       3436  
      3305       3306       3317       3316       3426       3427       3438       3437  
      3306       3307       3318       3317       3427       3428       3439       3438  
      3307       3308       3319       3318       3428       3429       3440       3439  
      3308       3309       3320       3319       3429       3430       3441       3440  
      3309       3310       3321       3320       3430       3431       3442       3441  
      3310       3311       3322       3321       3431       3432       3443       3442  
      3312       3313       3324       3323       3433       3434       3445       3444  
      3313       3314       3325       3324       3434       3435       3446       3445  
      3314       3315       3326       3325       3435       3436       3447       3446  
      3315       3316       3327       3326       3436       3437       3448       3447  
      3316       3317       3328       3327       3437       3438       3449       3448  
      3317       3318       3329       3328       3438       3439       3450       3449  
      3318       3319       3330       3329       3439       3440       3451       3450  
      3319       3320       3331       3330       3440       3441       3452       3451  
      3320       3321       3332       3331       3441       3442       3453       3452  
      3321       3322       3333       3332       3442       3443       3454       3453  
      3323       3324       3335       3334       3444       3445       3456       3455  
      3324       3325       3336       3335       3445       3446       3457       3456  
      3325       3326       3337       3336       3446       3447       3458       3457  
      3326       3327       3338       3337       3447       3448       3459       3458  
      3327       3328       3339       3338       3448       3449       3460       3459  
      3328       3329       3340       3339       3449       3450       3461       3460  
      3329       3330       3341       3340       3450       3451       3462       3461  
      3330       3331       3342       3341       3451       3452       3463       3462  
      3331       3332       3343       3342       3452       3453       3464       3463  
      3332       3333       3344       3343       3453       3454       3465       3464  
      3334       3335       3346       3345       3455       3456       3467       3466  
      3335       3336       3347       3346       3456       3457       3468       3467  
      3336       3337       3348       3347       3457       3458       3469       3468  
      3337       3338       3349       3348       3458       3459       3470       3469  
      3338       3339       3350       3349       3459       3460       3471       3470  
      3339       3340       3351       3350       3460       3461       3472       3471  
      3340       3341       3352       3351       3461       3462       3473       3472  
      3341       3342       3353       3352       3462       3463       3474       3473  
      3342       3343       3354       3353       3463       3464       3475       3474  
      3343       3344       3355       3354       3464       3465       3476       3475  
      3345       3346       3357       3356       3466       3467       3478       3477  
      3346       3347       3358       3357       3467       3468       3479       3478  
      3347       3348       3359       3358       3468       3469       3480       3479  
      3348       3349       3360       3359       3469       3470       3481       3480  
      3349       3350       3361       3360       3470       3471       3482       3481  
      3350       3351       3362       3361       3471       3472       3483       3482  
      3351       3352       3363       3362       3472       3473       3484       3483  
      3352       3353       3364       3363       3473       3474       3485       3484  
      3353       3354       3365       3364       3474       3475       3486       3485  
      3354       3355       3366       3365       3475       3476       3487       3486  
      3356       3357       3368       3367       3477       3478       3489       3488  
      3357       3358       3369       3368       3478       3479       3490       3489  
      3358       3359       3370       3369       3479       3480       3491       3490  
      3359       3360       3371       3370       3480       3481       3492       3491  
      3360       3361       3372       3371       3481       3482       3493       3492  
      3361       3362       3373       3372       3482       3483       3494       3493  
      3362       3363       3374       3373       3483       3484       3495       3494  
      3363       3364       3375       3374       3484       3485       3496       3495  
      3364       3365       3376       3375       3485       3486       3497       3496  
      3365       3366       3377       3376       3486       3487       3498       3497  
      3367       3368       3379       3378       3488       3489       3500       3499  
      3368       3369       3380       3379       3489       3490       3501       3500  
      3369       3370       3381       3380       3490       3491       3502       3501  
      3370       3371       3382       3381       3491       3492       3503       3502  
      3371       3372       3383       3382       3492       3493       3504       3503  
      3372       3373       3384       3383       3493       3494       3505       3504  
      3373       3374       3385       3384       3494       3495       3506       3505  
      3374       3375       3386       3385       3495       3496       3507       3506  
      3375       3376       3387       3386       3496       3497       3508       3507  
      3376       3377       3388       3387       3497       3498       3509       3508  
      3389       3390       3401       3400       3510       3511       3522       3521  
      3390       3391       3402       3401       3511       3512       3523       3522  
      3391       3392       3403       3402       3512       3513       3524       3523  
      3392       3393       3404       3403       3513       3514       3525       3524  
      3393       3394       3405       3404       3514       3515       3526       3525  
      3394       3395       3406       3405       3515       3516       3527       3526  
      3395       3396       3407       3406       3516       3517       3528       3527  
      3396       3397       3408       3407       3517       3518       3529       3528  
      3397       3398       3409       3408       3518       3519       3530       3529  
      3398       3399       3410       3409       3519       3520       3531       3530  
      3400       3401       3412       3411       3521       3522       3533       3532  
      3401       3402       3413       3412       3522       3523       3534       3533  
      3402       3403       3414       3413       3523       3524       3535       3534  
      3403       3404       3415       3414       3524       3525       3536       3535  
      3404       3405       3416       3415       3525       3526       3537       3536  
      3405       3406       3417       3416       3526       3527       3538       3537  
      3406       3407       3418       3417       3527       3528       3539       3538  
      3407       3408       3419       3418       3528       3529       3540       3539  
      3408       3409       3420       3419       3529       3530       3541       3540  
      3409       3410       3421       3420       3530       3531       3542       3541  
      3411       3412       3423       3422       3532       3533       3544       3543  
      3412       3413       3424       3423       3533       3534       3545       3544  
      3413       3414       3425       3424       3534       3535       3546       3545  
      3414       3415       3426       3425       3535       3536       3547       3546  
      3415       3416       3427       3426       3536       3537       3548       3547  
      3416       3417       3428       3427       3537       3538       3549       3548  
      3417       3418       3429       3428       3538       3539       3550       3549  
      3418       3419       3430       3429       3539       3540       3551       3550  
      3419       3420       3431       3430       3540       3541       3552       3551  
      3420       3421       3432       3431       3541       3542       3553       3552  
      3422       3423       3434       3433       3543       3544       3555       3554  
      3423       3424       3435       3434       3544       3545       3556       3555  
      3424       3425       3436       3435       3545       3546       3557       3556  
      3425       3426       3437       3436       3546       3547       3558       3557  
      3426       3427       3438       3437       3547       3548       3559       3558  
      3427       3428       3439       3438       3548       3549       3560       3559  
      3428       3429       3440       3439       3549       3550       3561       3560  
      3429       3430       3441       3440       3550       3551       3562       3561  
      3430       3431       3442       3441       3551       3552       3563       3562  
      3431       3432       3443       3442       3552       3553       3564       3563  
      3433       3434       3445       3444       3554       3555       3566       3565  
      3434       3435       3446       3445       3555       3556       3567       3566  
      3435       3436       3447       3446       3556       3557       3568       3567  
      3436       3437       3448       3447       3557       3558       3569       3568  
      3437       3438       3449       3448       3558       3559       3570       3569  
      3438       3439       3450       3449       3559       3560       3571       3570  
      3439       3440       3451       3450       3560       3561       3572       3571  
      3440       3441       3452       3451       3561       3562       3573       3572  
      3441       3442       3453       3452       3562       3563       3574       3573  
      3442       3443       3454       3453       3563       3564       3575       3574  
      3444       3445       3456       3455       3565       3566       3577       3576  
      3445       3446       3457       3456       3566       3567       3578       3577  
      3446       3447       3458       3457       3567       3568       3579       3578  
      3447       3448       3459       3458       3568       3569       3580       3579  
      3448       3449       3460       3459       3569       3570       3581       3580  
      3449       3450       3461       3460       3570       3571       3582       3581  
      3450       3451       3462       3461       3571       3572       3583       3582  
      3451       3452       3463       3462       3572       3573       3584       3583  
      3452       3453       3464       3463       3573       3574       3585       3584  
      3453       3454       3465       3464       3574       3575       3586       3585  
      3455       3456       3467       3466       3576       3577       3588       3587  
      3456       3457       3468       3467       3577       3578       3589       3588  
      3457       3458       3469       3468       3578       3579       3590       3589  
      3458       3459       3470       3469       3579       3580       3591       3590  
      3459       3460       3471       3470       3580       3581       3592       3591  
      3460       3461       3472       3471       3581       3582       3593       3592  
      3461       3462       3473       3472       3582       3583       3594       3593  
      3462       3463       3474       3473       3583       3584       3595       3594  
      3463       3464       3475       3474       3584       3585       3596       3595  
      3464       3465       3476       3475       3585       3586       3597       3596  
      3466       3467       3478       3477       3587       3588       3599       3598  
      3467       3468       3479       3478       3588       3589       3600       3599  
      3468       3469       3480       3479       3589       3590       3601       3600  
      3469       3470       3481       3480       3590       3591       3602       3601  
      3470       3471       3482       3481       3591       3592       3603       3602  
      3471       3472       3483       3482       3592       3593       3604       3603  
      3472       3473       3484       3483       3593       3594       3605       3604  
      3473       3474       3485       3484       3594       3595       3606       3605  
      3474       3475       3486       3485       3595       3596       3607       3606  
      3475       3476       3487       3486       3596       3597       3608       3607  
      3477       3478       3489       3488       3598       3599       3610       3609  
      3478       3479       3490       3489       3599       3600       3611       3610  
      3479       3480       3491       3490       3600       3601       3612       3611  
      3480       3481       3492       3491       3601       3602       3613       3612  
      3481       3482       3493       3492       3602       3603       3614       3613  
      3482       3483       3494       3493       3603       3604       3615       3614  
      3483       3484       3495       3494       3604       3605       3616       3615  
      3484       3485       3496       3495       3605       3606       3617       3616  
      3485       3486       3497       3496       3606       3607       3618       3617  
      3486       3487       3498       3497       3607       3608       3619       3618  
      3488       3489       3500       3499       3609       3610       3621       3620  
      3489       3490       3501       3500       3610       3611       3622       3621  
      3490       3491       3502       3501       3611       3612       3623       3622  
      3491       3492       3503       3502       3612       3613       3624       3623  
      3492       3493       3504       3503       3613       3614       3625       3624  
      3493       3494       3505       3504       3614       3615       3626       3625  
      3494       3495       3506       3505       3615       3616       3627       3626  
      3495       3496       3507       3506       3616       3617       3628       3627  
      3496       3497       3508       3507       3617       3618       3629       3628  
      3497       3498       3509       3508       3618       3619       3630       3629  
      3510       3511       3522       3521       3631       3632       3643       3642  
      3511       3512       3523       3522       3632       3633       3644       3643  
      3512       3513       3524       3523       3633       3634       3645       3644  
      3513       3514       3525       3524       3634       3635       3646       3645  
      3514       3515       3526       3525       3635       3636       3647       3646  
      3515       3516       3527       3526       3636       3637       3648       3647  
      3516       3517       3528       3527       3637       3638       3649       3648  
      3517       3518       3529       3528       3638       3639       3650       3649  
      3518       3519       3530       3529       3639       3640       3651       3650  
      3519       3520       3531       3530       3640       3641       3652       3651  
      3521       3522       3533       3532       3642       3643       3654       3653  
      3522       3523       3534       3533       3643       3644       3655       3654  
      3523       3524       3535       3534       3644       3645       3656       3655  
      3524       3525       3536       3535       3645       3646       3657       3656  
      3525       3526       3537       3536       3646       3647       3658       3657  
      3526       3527       3538       3537       3647       3648       3659       3658  
      3527       3528       3539       3538       3648       3649       3660       3659  
      3528       3529       3540       3539       3649       3650       3661       3660  
      3529       3530       3541       3540       3650       3651       3662       3661  
      3530       3531       3542       3541       3651       3652       3663       3662  
      3532       3533       3544       3543       3653       3654       3665       3664  
      3533       3534       3545       3544       3654       3655       3666       3665  
      3534       3535       3546       3545       3655       3656       3667       3666  
      3535       3536       3547       3546       3656       3657       3668       3667  
      3536       3537       3548       3547       3657       3658       3669       3668  
      3537       3538       3549       3548       3658       3659       3670       3669  
      3538       3539       3550       3549       3659       3660       3671       3670  
      3539       3540       3551       3550       3660       3661       3672       3671  
      3540       3541       3552       3551       3661       3662       3673       3672  
      3541       3542       3553       3552       3662       3663       3674       3673  
      3543       3544       3555       3554       3664       3665       3676       3675  
      3544       3545       3556       3555       3665       3666       3677       3676  
      3545       3546       3557       3556       3666       3667       3678       3677  
      3546       3547       3558       3557       3667       3668       3679       3678  
      3547       3548       3559       3558       3668       3669       3680       3679  
      3548       3549       3560       3559       3669       3670       3681       3680  
      3549       3550       3561       3560       3670       3671       3682       3681  
      3550       3551       3562       3561       3671       3672       3683       3682  
      3551       3552       3563       3562       3672       3673       3684       3683  
      3552       3553       3564       3563       3673       3674       3685       3684  
      3554       3555       3566       3565       3675       3676       3687       3686  
      3555       3556       3567       3566       3676       3677       3688       3687  
      3556       3557       3568       3567       3677       3678       3689       3688  
      3557       3558       3569       3568       3678       3679       3690       3689  
      3558       3559       3570       3569       3679       3680       3691       3690  
      3559       3560       3571       3570       3680       3681       3692       3691  
      3560       3561       3572       3571       3681       3682       3693       3692  
      3561       3562       3573       3572       3682       3683       3694       3693  
      3562       3563       3574       3573       3683       3684       3695       3694  
      3563       3564       3575       3574       3684       3685       3696       3695  
      3565       3566       3577       3576       3686       3687       3698       3697  
      3566       3567       3578       3577       3687       3688       3699       3698  
      3567       3568       3579       3578       3688       3689       3700       3699  
      3568       3569       3580       3579       3689       3690       3701       3700  
      3569       3570       3581       3580       3690       3691       3702       3701  
      3570       3571       3582       3581       3691       3692       3703       3702  
      3571       3572       3583       3582       3692       3693       3704       3703  
      3572       3573       3584       3583       3693       3694       3705       3704  
      3573       3574       3585       3584       3694       3695       3706       3705  
      3574       3575       3586       3585       3695       3696       3707       3706  
      3576       3577       3588       3587       3697       3698       3709       3708  
      3577       3578       3589       3588       3698       3699       3710       3709  
      3578       3579       3590       3589       3699       3700       3711       3710  
      3579       3580       3591       3590       3700       3701       3712       3711  
      3580       3581       3592       3591       3701       3702       3713       3712  
      3581       3582       3593       3592       3702       3703       3714       3713  
      3582       3583       3594       3593       3703       3704       3715       3714  
      3583       3584       3595       3594       3704       3705       3716       3715  
      3584       3585       3596       3595       3705       3706       3717       3716  
      3585       3586       3597       3596       3706       3707       3718       3717  
      3587       3588       3599       3598       3708       3709       3720       3719  
      3588       3589       3600       3599       3709       3710       3721       3720  
      3589       3590       3601       3600       3710       3711       3722       3721  
      3590       3591       3602       3601       3711       3712       3723       3722  
      3591       3592       3603       3602       3712       3713       3724       3723  
      3592       3593       3604       3603       3713       3714       3725       3724  
      3593       3594       3605       3604       3714       3715       3726       3725  
      3594       3595       3606       3605       3715       3716       3727       3726  
      3595       3596       3607       3606       3716       3717       3728       3727  
      3596       3597       3608       3607       3717       3718       3729       3728  
      3598       3599       3610       3609       3719       3720       3731       3730  
      3599       3600       3611       3610       3720       3721       3732       3731  
      3600       3601       3612       3611       3721       3722       3733       3732  
      3601       3602       3613       3612       3722       3723       3734       3733  
      3602       3603       3614       3613       3723       3724       3735       3734  
      3603       3604       3615       3614       3724       3725       3736       3735  
      3604       3605       3616       3615       3725       3726       3737       3736  
      3605       3606       3617       3616       3726       3727       3738       3737  
      3606       3607       3618       3617       3727       3728       3739       3738  
      3607       3608       3619       3618       3728       3729       3740       3739  
      3609       3610       3621       3620       3730       3731       3742       3741  
      3610       3611       3622       3621       3731       3732       3743       3742  
      3611       3612       3623       3622       3732       3733       3744       3743  
      3612       3613       3624       3623       3733       3734       3745       3744  
      3613       3614       3625       3624       3734       3735       3746       3745  
      3614       3615       3626       3625       3735       3736       3747       3746  
      3615       3616       3627       3626       3736       3737       3748       3747  
      3616       3617       3628       3627       3737       3738       3749       3748  
      3617       3618       3629       3628       3738       3739       3750       3749  
      3618       3619       3630       3629       3739       3740       3751       3750  
      3631       3632       3643       3642       3752       3753       3764       3763  
      3632       3633       3644       3643       3753       3754       3765       3764  
      3633       3634       3645       3644       3754       3755       3766       3765  
      3634       3635       3646       3645       3755       3756       3767       3766  
      3635       3636       3647       3646       3756       3757       3768       3767  
      3636       3637       3648       3647       3757       3758       3769       3768  
      3637       3638       3649       3648       3758       3759       3770       3769  
      3638       3639       3650       3649       3759       3760       3771       3770  
      3639       3640       3651       3650       3760       3761       3772       3771  
      3640       3641       3652       3651       3761       3762       3773       3772  
      3642       3643       3654       3653       3763       3764       3775       3774  
      3643       3644       3655       3654       3764       3765       3776       3775  
      3644       3645       3656       3655       3765       3766       3777       3776  
      3645       3646       3657       3656       3766       3767       3778       3777  
      3646       3647       3658       3657       3767       3768       3779       3778  
      3647       3648       3659       3658       3768       3769       3780       3779  
      3648       3649       3660       3659       3769       3770       3781       3780  
      3649       3650       3661       3660       3770       3771       3782       3781  
      3650       3651       3662       3661       3771       3772       3783       3782  
      3651       3652       3663       3662       3772       3773       3784       3783  
      3653       3654       3665       3664       3774       3775       3786       3785  
      3654       3655       3666       3665       3775       3776       3787       3786  
      3655       3656       3667       3666       3776       3777       3788       3787  
      3656       3657       3668       3667       3777       3778       3789       3788  
      3657       3658       3669       3668       3778       3779       3790       3789  
      3658       3659       3670       3669       3779       3780       3791       3790  
      3659       3660       3671       3670       3780       3781       3792       3791  
      3660       3661       3672       3671       3781       3782       3793       3792  
      3661       3662       3673       3672       3782       3783       3794       3793  
      3662       3663       3674       3673       3783       3784       3795       3794  
      3664       3665       3676       3675       3785       3786       3797       3796  
      3665       3666       3677       3676       3786       3787       3798       3797  
      3666       3667       3678       3677       3787       3788       3799       3798  
      3667       3668       3679       3678       3788       3789       3800       3799  
      3668       3669       3680       3679       3789       3790       3801       3800  
      3669       3670       3681       3680       3790       3791       3802       3801  
      3670       3671       3682       3681       3791       3792       3803       3802  
      3671       3672       3683       3682       3792       3793       3804       3803  
      3672       3673       3684       3683       3793       3794       3805       3804  
      3673       3674       3685       3684       3794       3795       3806       3805  
      3675       3676       3687       3686       3796       3797       3808       3807  
      3676       3677       3688       3687       3797       3798       3809       3808  
      3677       3678       3689       3688       3798       3799       3810       3809  
      3678       3679       3690       3689       3799       3800       3811       3810  
      3679       3680       3691       3690       3800       3801       3812       3811  
      3680       3681       3692       3691       3801       3802       3813       3812  
      3681       3682       3693       3692       3802       3803       3814       3813  
      3682       3683       3694       3693       3803       3804       3815       3814  
      3683       3684       3695       3694       3804       3805       3816       3815  
      3684       3685       3696       3695       3805       3806       3817       3816  
      3686       3687       3698       3697       3807       3808       3819       3818  
      3687       3688       3699       3698       3808       3809       3820       3819  
      3688       3689       3700       3699       3809       3810       3821       3820  
      3689       3690       3701       3700       3810       3811       3822       3821  
      3690       3691       3702       3701       3811       3812       3823       3822  
      3691       3692       3703       3702       3812       3813       3824       3823  
      3692       3693       3704       3703       3813       3814       3825       3824  
      3693       3694       3705       3704       3814       3815       3826       3825  
      3694       3695       3706       3705       3815       3816       3827       3826  
      3695       3696       3707       3706       3816       3817       3828       3827  
      3697       3698       3709       3708       3818       3819       3830       3829  
      3698       3699       3710       3709       3819       3820       3831       3830  
      3699       3700       3711       3710       3820       3821       3832       3831  
      3700       3701       3712       3711       3821       3822       3833       3832  
      3701       3702       3713       3712       3822       3823       3834       3833  
      3702       3703       3714       3713       3823       3824       3835       3834  
      3703       3704       3715       3714       3824       3825       3836       3835  
      3704       3705       3716       3715       3825       3826       3837       3836  
      3705       3706       3717       3716       3826       3827       3838       3837  
      3706       3707       3718       3717       3827       3828       3839       3838  
      3708       3709       3720       3719       3829       3830       3841       3840  
      3709       3710       3721       3720       3830       3831       3842       3841  
      3710       3711       3722       3721       3831       3832       3843       3842  
      3711       3712       3723       3722       3832       3833       3844       3843  
      3712       3713       3724       3723       3833       3834       3845       3844  
      3713       3714       3725       3724       3834       3835       3846       3845  
      3714       3715       3726       3725       3835       3836       3847       3846  
      3715       3716       3727       3726       3836       3837       3848       3847  
      3716       3717       3728       3727       3837       3838       3849       3848  
      3717       3718       3729       3728       3838       3839       3850       3849  
      3719       3720       3731       3730       3840       3841       3852       3851  
      3720       3721       3732       3731       3841       3842       3853       3852  
      3721       3722       3733       3732       3842       3843       3854       3853  
      3722       3723       3734       3733       3843       3844       3855       3854  
      3723       3724       3735       3734       3844       3845       3856       3855  
      3724       3725       3736       3735       3845       3846       3857       3856  
      3725       3726       3737       3736       3846       3847       3858       3857  
      3726       3727       3738       3737       3847       3848       3859       3858  
      3727       3728       3739       3738       3848       3849       3860       3859  
      3728       3729       3740       3739       3849       3850       3861       3860  
      3730       3731       3742       3741       3851       3852       3863       3862  
      3731       3732       3743       3742       3852       3853       3864       3863  
      3732       3733       3744       3743       3853       3854       3865       3864  
      3733       3734       3745       3744       3854       3855       3866       3865  
      3734       3735       3746       3745       3855       3856       3867       3866  
      3735       3736       3747       3746       3856       3857       3868       3867  
      3736       3737       3748       3747       3857       3858       3869       3868  
      3737       3738       3749       3748       3858       3859       3870       3869  
      3738       3739       3750       3749       3859       3860       3871       3870  
      3739       3740       3751       3750       3860       3861       3872       3871  
      3752       3753       3764       3763       3873       3874       3885       3884  
      3753       3754       3765       3764       3874       3875       3886       3885  
      3754       3755       3766       3765       3875       3876       3887       3886  
      3755       3756       3767       3766       3876       3877       3888       3887  
      3756       3757       3768       3767       3877       3878       3889       3888  
      3757       3758       3769       3768       3878       3879       3890       3889  
      3758       3759       3770       3769       3879       3880       3891       3890  
      3759       3760       3771       3770       3880       3881       3892       3891  
      3760       3761       3772       3771       3881       3882       3893       3892  
      3761       3762       3773       3772       3882       3883       3894       3893  
      3763       3764       3775       3774       3884       3885       3896       3895  
      3764       3765       3776       3775       3885       3886       3897       3896  
      3765       3766       3777       3776       3886       3887       3898       3897  
      3766       3767       3778       3777       3887       3888       3899       3898  
      3767       3768       3779       3778       3888       3889       3900       3899  
      3768       3769       3780       3779       3889       3890       3901       3900  
      3769       3770       3781       3780       3890       3891       3902       3901  
      3770       3771       3782       3781       3891       3892       3903       3902  
      3771       3772       3783       3782       3892       3893       3904       3903  
      3772       3773       3784       3783       3893       3894       3905       3904  
      3774       3775       3786       3785       3895       3896       3907       3906  
      3775       3776       3787       3786       3896       3897       3908       3907  
      3776       3777       3788       3787       3897       3898       3909       3908  
      3777       3778       3789       3788       3898       3899       3910       3909  
      3778       3779       3790       3789       3899       3900       3911       3910  
      3779       3780       3791       3790       3900       3901       3912       3911  
      3780       3781       3792       3791       3901       3902       3913       3912  
      3781       3782       3793       3792       3902       3903       3914       3913  
      3782       3783       3794       3793       3903       3904       3915       3914  
      3783       3784       3795       3794       3904       3905       3916       3915  
      3785       3786       3797       3796       3906       3907       3918       3917  
      3786       3787       3798       3797       3907       3908       3919       3918  
      3787       3788       3799       3798       3908       3909       3920       3919  
      3788       3789       3800       3799       3909       3910       3921       3920  
      3789       3790       3801       3800       3910       3911       3922       3921  
      3790       3791       3802       3801       3911       3912       3923       3922  
      3791       3792       3803       3802       3912       3913       3924       3923  
      3792       3793       3804       3803       3913       3914       3925       3924  
      3793       3794       3805       3804       3914       3915       3926       3925  
      3794       3795       3806       3805       3915       3916       3927       3926  
      3796       3797       3808       3807       3917       3918       3929       3928  
      3797       3798       3809       3808       3918       3919       3930       3929  
      3798       3799       3810       3809       3919       3920       3931       3930  
      3799       3800       3811       3810       3920       3921       3932       3931  
      3800       3801       3812       3811       3921       3922       3933       3932  
      3801       3802       3813       3812       3922       3923       3934       3933  
      3802       3803       3814       3813       3923       3924       3935       3934  
      3803       3804       3815       3814       3924       3925       3936       3935  
      3804       3805       3816       3815       3925       3926       3937       3936  
      3805       3806       3817       3816       3926       3927       3938       3937  
      3807       3808       3819       3818       3928       3929       3940       3939  
      3808       3809       3820       3819       3929       3930       3941       3940  
      3809       3810       3821       3820       3930       3931       3942       3941  
      3810       3811       3822       3821       3931       3932       3943       3942  
      3811       3812       3823       3822       3932       3933       3944       3943  
      3812       3813       3824       3823       3933       3934       3945       3944  
      3813       3814       3825       3824       3934       3935       3946       3945  
      3814       3815       3826       3825       3935       3936       3947       3946  
      3815       3816       3827       3826       3936       3937       3948       3947  
      3816       3817       3828       3827       3937       3938       3949       3948  
      3818       3819       3830       3829       3939       3940       3951       3950  
      3819       3820       3831       3830       3940       3941       3952       3951  
      3820       3821       3832       3831       3941       3942       3953       3952  
      3821       3822       3833       3832       3942       3943       3954       3953  
      3822       3823       3834       3833       3943       3944       3955       3954  
      3823       3824       3835       3834       3944       3945       3956       3955  
      3824       3825       3836       3835       3945       3946       3957       3956  
      3825       3826       3837       3836       3946       3947       3958       3957  
      3826       3827       3838       3837       3947       3948       3959       3958  
      3827       3828       3839       3838       3948       3949       3960       3959  
      3829       3830       3841       3840       3950       3951       3962       3961  
      3830       3831       3842       3841       3951       3952       3963       3962  
      3831       3832       3843       3842       3952       3953       3964       3963  
      3832       3833       3844       3843       3953       3954       3965       3964  
      3833       3834       3845       3844       3954       3955       3966       3965  
      3834       3835       3846       3845       3955       3956       3967       3966  
      3835       3836       3847       3846       3956       3957       3968       3967  
      3836       3837       3848       3847       3957       3958       3969       3968  
      3837       3838       3849       3848       3958       3959       3970       3969  
      3838       3839       3850       3849       3959       3960       3971       3970  
      3840       3841       3852       3851       3961       3962       3973       3972  
      3841       3842       3853       3852       3962       3963       3974       3973  
      3842       3843       3854       3853       3963       3964       3975       3974  
      3843       3844       3855       3854       3964       3965       3976       3975  
      3844       3845       3856       3855       3965       3966       3977       3976  
      3845       3846       3857       3856       3966       3967       3978       3977  
      3846       3847       3858       3857       3967       3968       3979       3978  
      3847       3848       3859       3858       3968       3969       3980       3979  
      3848       3849       3860       3859       3969       3970       3981       3980  
      3849       3850       3861       3860       3970       3971       3982       3981  
      3851       3852       3863       3862       3972       3973       3984       3983  
      3852       3853       3864       3863       3973       3974       3985       3984  
      3853       3854       3865       3864       3974       3975       3986       3985  
      3854       3855       3866       3865       3975       3976       3987       3986  
      3855       3856       3867       3866       3976       3977       3988       3987  
      3856       3857       3868       3867       3977       3978       3989       3988  
      3857       3858       3869       3868       3978       3979       3990       3989  
      3858       3859       3870       3869       3979       3980       3991       3990  
      3859       3860       3871       3870       3980       3981       3992       3991  
      3860       3861       3872       3871       3981       3982       3993       3992  
      3873       3874       3885       3884       3994       3995       4006       4005  
      3874       3875       3886       3885       3995       3996       4007       4006  
      3875       3876       3887       3886       3996       3997       4008       4007  
      3876       3877       3888       3887       3997       3998       4009       4008  
      3877       3878       3889       3888       3998       3999       4010       4009  
      3878       3879       3890       3889       3999       4000       4011       4010  
      3879       3880       3891       3890       4000       4001       4012       4011  
      3880       3881       3892       3891       4001       4002       4013       4012  
      3881       3882       3893       3892       4002       4003       4014       4013  
      3882       3883       3894       3893       4003       4004       4015       4014  
      3884       3885       3896       3895       4005       4006       4017       4016  
      3885       3886       3897       3896       4006       4007       4018       4017  
      3886       3887       3898       3897       4007       4008       4019       4018  
      3887       3888       3899       3898       4008       4009       4020       4019  
      3888       3889       3900       3899       4009       4010       4021       4020  
      3889       3890       3901       3900       4010       4011       4022       4021  
      3890       3891       3902       3901       4011       4012       4023       4022  
      3891       3892       3903       3902       4012       4013       4024       4023  
      3892       3893       3904       3903       4013       4014       4025       4024  
      3893       3894       3905       3904       4014       4015       4026       4025  
      3895       3896       3907       3906       4016       4017       4028       4027  
      3896       3897       3908       3907       4017       4018       4029       4028  
      3897       3898       3909       3908       4018       4019       4030       4029  
      3898       3899       3910       3909       4019       4020       4031       4030  
      3899       3900       3911       3910       4020       4021       4032       4031  
      3900       3901       3912       3911       4021       4022       4033       4032  
      3901       3902       3913       3912       4022       4023       4034       4033  
      3902       3903       3914       3913       4023       4024       4035       4034  
      3903       3904       3915       3914       4024       4025       4036       4035  
      3904       3905       3916       3915       4025       4026       4037       4036  
      3906       3907       3918       3917       4027       4028       4039       4038  
      3907       3908       3919       3918       4028       4029       4040       4039  
      3908       3909       3920       3919       4029       4030       4041       4040  
      3909       3910       3921       3920       4030       4031       4042       4041  
      3910       3911       3922       3921       4031       4032       4043       4042  
      3911       3912       3923       3922       4032       4033       4044       4043  
      3912       3913       3924       3923       4033       4034       4045       4044  
      3913       3914       3925       3924       4034       4035       4046       4045  
      3914       3915       3926       3925       4035       4036       4047       4046  
      3915       3916       3927       3926       4036       4037       4048       4047  
      3917       3918       3929       3928       4038       4039       4050       4049  
      3918       3919       3930       3929       4039       4040       4051       4050  
      3919       3920       3931       3930       4040       4041       4052       4051  
      3920       3921       3932       3931       4041       4042       4053       4052  
      3921       3922       3933       3932       4042       4043       4054       4053  
      3922       3923       3934       3933       4043       4044       4055       4054  
      3923       3924       3935       3934       4044       4045       4056       4055  
      3924       3925       3936       3935       4045       4046       4057       4056  
      3925       3926       3937       3936       4046       4047       4058       4057  
      3926       3927       3938       3937       4047       4048       4059       4058  
      3928       3929       3940       3939       4049       4050       4061       4060  
      3929       3930       3941       3940       4050       4051       4062       4061  
      3930       3931       3942       3941       4051       4052       4063       4062  
      3931       3932       3943       3942       4052       4053       4064       4063  
      3932       3933       3944       3943       4053       4054       4065       4064  
      3933       3934       3945       3944       4054       4055       4066       4065  
      3934       3935       3946       3945       4055       4056       4067       4066  
      3935       3936       3947       3946       4056       4057       4068       4067  
      3936       3937       3948       3947       4057       4058       4069       4068  
      3937       3938       3949       3948       4058       4059       4070       4069  
      3939       3940       3951       3950       4060       4061       4072       4071  
      3940       3941       3952       3951       4061       4062       4073       4072  
      3941       3942       3953       3952       4062       4063       4074       4073  
      3942       3943       3954       3953       4063       4064       4075       4074  
      3943       3944       3955       3954       4064       4065       4076       4075  
      3944       3945       3956       3955       4065       4066       4077       4076  
      3945       3946       3957       3956       4066       4067       4078       4077  
      3946       3947       3958       3957       4067       4068       4079       4078  
      3947       3948       3959       3958       4068       4069       4080       4079  
      3948       3949       3960       3959       4069       4070       4081       4080  
      3950       3951       3962       3961       4071       4072       4083       4082  
      3951       3952       3963       3962       4072       4073       4084       4083  
      3952       3953       3964       3963       4073       4074       4085       4084  
      3953       3954       3965       3964       4074       4075       4086       4085  
      3954       3955       3966       3965       4075       4076       4087       4086  
      3955       3956       3967       3966       4076       4077       4088       4087  
      3956       3957       3968       3967       4077       4078       4089       4088  
      3957       3958       3969       3968       4078       4079       4090       4089  
      3958       3959       3970       3969       4079       4080       4091       4090  
      3959       3960       3971       3970       4080       4081       4092       4091  
      3961       3962       3973       3972       4082       4083       4094       4093  
      3962       3963       3974       3973       4083       4084       4095       4094  
      3963       3964       3975       3974       4084       4085       4096       4095  
      3964       3965       3976       3975       4085       4086       4097       4096  
      3965       3966       3977       3976       4086       4087       4098       4097  
      3966       3967       3978       3977       4087       4088       4099       4098  
      3967       3968       3979       3978       4088       4089       4100       4099  
      3968       3969       3980       3979       4089       4090       4101       4100  
      3969       3970       3981       3980       4090       4091       4102       4101  
      3970       3971       3982       3981       4091       4092       4103       4102  
      3972       3973       3984       3983       4093       4094       4105       4104  
      3973       3974       3985       3984       4094       4095       4106       4105  
      3974       3975       3986       3985       4095       4096       4107       4106  
      3975       3976       3987       3986       4096       4097       4108       4107  
      3976       3977       3988       3987       4097       4098       4109       4108  
      3977       3978       3989       3988       4098       4099       4110       4109  
      3978       3979       3990       3989       4099       4100       4111       4110  
      3979       3980       3991       3990       4100       4101       4112       4111  
      3980       3981       3992       3991       4101       4102       4113       4112  
      3981       3982       3993       3992       4102       4103       4114       4113  
      3994       3995       4006       4005       4115       4116       4127       4126  
      3995       3996       4007       4006       4116       4117       4128       4127  
      3996       3997       4008       4007       4117       4118       4129       4128  
      3997       3998       4009       4008       4118       4119       4130       4129  
      3998       3999       4010       4009       4119       4120       4131       4130  
      3999       4000       4011       4010       4120       4121       4132       4131  
      4000       4001       4012       4011       4121       4122       4133       4132  
      4001       4002       4013       4012       4122       4123       4134       4133  
      4002       4003       4014       4013       4123       4124       4135       4134  
      4003       4004       4015       4014       4124       4125       4136       4135  
      4005       4006       4017       4016       4126       4127       4138       4137  
      4006       4007       4018       4017       4127       4128       4139       4138  
      4007       4008       4019       4018       4128       4129       4140       4139  
      4008       4009       4020       4019       4129       4130       4141       4140  
      4009       4010       4021       4020       4130       4131       4142       4141  
      4010       4011       4022       4021       4131       4132       4143       4142  
      4011       4012       4023       4022       4132       4133       4144       4143  
      4012       4013       4024       4023       4133       4134       4145       4144  
      4013       4014       4025       4024       4134       4135       4146       4145  
      4014       4015       4026       4025       4135       4136       4147       4146  
      4016       4017       4028       4027       4137       4138       4149       4148  
      4017       4018       4029       4028       4138       4139       4150       4149  
      4018       4019       4030       4029       4139       4140       4151       4150  
      4019       4020       4031       4030       4140       4141       4152       4151  
      4020       4021       4032       4031       4141       4142       4153       4152  
      4021       4022       4033       4032       4142       4143       4154       4153  
      4022       4023       4034       4033       4143       4144       4155       4154  
      4023       4024       4035       4034       4144       4145       4156       4155  
      4024       4025       4036       4035       4145       4146       4157       4156  
      4025       4026       4037       4036       4146       4147       4158       4157  
      4027       4028       4039       4038       4148       4149       4160       4159  
      4028       4029       4040       4039       4149       4150       4161       4160  
      4029       4030       4041       4040       4150       4151       4162       4161  
      4030       4031       4042       4041       4151       4152       4163       4162  
      4031       4032       4043       4042       4152       4153       4164       4163  
      4032       4033       4044       4043       4153       4154       4165       4164  
      4033       4034       4045       4044       4154       4155       4166       4165  
      4034       4035       4046       4045       4155       4156       4167       4166  
      4035       4036       4047       4046       4156       4157       4168       4167  
      4036       4037       4048       4047       4157       4158       4169       4168  
      4038       4039       4050       4049       4159       4160       4171       4170  
      4039       4040       4051       4050       4160       4161       4172       4171  
      4040       4041       4052       4051       4161       4162       4173       4172  
      4041       4042       4053       4052       4162       4163       4174       4173  
      4042       4043       4054       4053       4163       4164       4175       4174  
      4043       4044       4055       4054       4164       4165       4176       4175  
      4044       4045       4056       4055       4165       4166       4177       4176  
      4045       4046       4057       4056       4166       4167       4178       4177  
      4046       4047       4058       4057       4167       4168       4179       4178  
      4047       4048       4059       4058       4168       4169       4180       4179  
      4049       4050       4061       4060       4170       4171       4182       4181  
      4050       4051       4062       4061       4171       4172       4183       4182  
      4051       4052       4063       4062       4172       4173       4184       4183  
      4052       4053       4064       4063       4173       4174       4185       4184  
      4053       4054       4065       4064       4174       4175       4186       4185  
      4054       4055       4066       4065       4175       4176       4187       4186  
      4055       4056       4067       4066       4176       4177       4188       4187  
      4056       4057       4068       4067       4177       4178       4189       4188  
      4057       4058       4069       4068       4178       4179       4190       4189  
      4058       4059       4070       4069       4179       4180       4191       4190  
      4060       4061       4072       4071       4181       4182       4193       4192  
      4061       4062       4073       4072       4182       4183       4194       4193  
      4062       4063       4074       4073       4183       4184       4195       4194  
      4063       4064       4075       4074       4184       4185       4196       4195  
      4064       4065       4076       4075       4185       4186       4197       4196  
      4065       4066       4077       4076       4186       4187       4198       4197  
      4066       4067       4078       4077       4187       4188       4199       4198  
      4067       4068       4079       4078       4188       4189       4200       4199  
      4068       4069       4080       4079       4189       4190       4201       4200  
      4069       4070       4081       4080       4190       4191       4202       4201  
      4071       4072       4083       4082       4192       4193       4204       4203  
      4072       4073       4084       4083       4193       4194       4205       4204  
      4073       4074       4085       4084       4194       4195       4206       4205  
      4074       4075       4086       4085       4195       4196       4207       4206  
      4075       4076       4087       4086       4196       4197       4208       4207  
      4076       4077       4088       4087       4197       4198       4209       4208  
      4077       4078       4089       4088       4198       4199       4210       4209  
      4078       4079       4090       4089       4199       4200       4211       4210  
      4079       4080       4091       4090       4200       4201       4212       4211  
      4080       4081       4092       4091       4201       4202       4213       4212  
      4082       4083       4094       4093       4203       4204       4215       4214  
      4083       4084       4095       4094       4204       4205       4216       4215  
      4084       4085       4096       4095       4205       4206       4217       4216  
      4085       4086       4097       4096       4206       4207       4218       4217  
      4086       4087       4098       4097       4207       4208       4219       4218  
      4087       4088       4099       4098       4208       4209       4220       4219  
      4088       4089       4100       4099       4209       4210       4221       4220  
      4089       4090       4101       4100       4210       4211       4222       4221  
      4090       4091       4102       4101       4211       4212       4223       4222  
      4091       4092       4103       4102       4212       4213       4224       4223  
      4093       4094       4105       4104       4214       4215       4226       4225  
      4094       4095       4106       4105       4215       4216       4227       4226  
      4095       4096       4107       4106       4216       4217       4228       4227  
      4096       4097       4108       4107       4217       4218       4229       4228  
      4097       4098       4109       4108       4218       4219       4230       4229  
      4098       4099       4110       4109       4219       4220       4231       4230  
      4099       4100       4111       4110       4220       4221       4232       4231  
      4100       4101       4112       4111       4221       4222       4233       4232  
      4101       4102       4113       4112       4222       4223       4234       4233  
      4102       4103       4114       4113       4223       4224       4235       4234  
      4115       4116       4127       4126       4236       4237       4248       4247  
      4116       4117       4128       4127       4237       4238       4249       4248  
      4117       4118       4129       4128       4238       4239       4250       4249  
      4118       4119       4130       4129       4239       4240       4251       4250  
      4119       4120       4131       4130       4240       4241       4252       4251  
      4120       4121       4132       4131       4241       4242       4253       4252  
      4121       4122       4133       4132       4242       4243       4254       4253  
      4122       4123       4134       4133       4243       4244       4255       4254  
      4123       4124       4135       4134       4244       4245       4256       4255  
      4124       4125       4136       4135       4245       4246       4257       4256  
      4126       4127       4138       4137       4247       4248       4259       4258  
      4127       4128       4139       4138       4248       4249       4260       4259  
      4128       4129       4140       4139       4249       4250       4261       4260  
      4129       4130       4141       4140       4250       4251       4262       4261  
      4130       4131       4142       4141       4251       4252       4263       4262  
      4131       4132       4143       4142       4252       4253       4264       4263  
      4132       4133       4144       4143       4253       4254       4265       4264  
      4133       4134       4145       4144       4254       4255       4266       4265  
      4134       4135       4146       4145       4255       4256       4267       4266  
      4135       4136       4147       4146       4256       4257       4268       4267  
      4137       4138       4149       4148       4258       4259       4270       4269  
      4138       4139       4150       4149       4259       4260       4271       4270  
      4139       4140       4151       4150       4260       4261       4272       4271  
      4140       4141       4152       4151       4261       4262       4273       4272  
      4141       4142       4153       4152       4262       4263       4274       4273  
      4142       4143       4154       4153       4263       4264       4275       4274  
      4143       4144       4155       4154       4264       4265       4276       4275  
      4144       4145       4156       4155       4265       4266       4277       4276  
      4145       4146       4157       4156       4266       4267       4278       4277  
      4146       4147       4158       4157       4267       4268       4279       4278  
      4148       4149       4160       4159       4269       4270       4281       4280  
      4149       4150       4161       4160       4270       4271       4282       4281  
      4150       4151       4162       4161       4271       4272       4283       4282  
      4151       4152       4163       4162       4272       4273       4284       4283  
      4152       4153       4164       4163       4273       4274       4285       4284  
      4153       4154       4165       4164       4274       4275       4286       4285  
      4154       4155       4166       4165       4275       4276       4287       4286  
      4155       4156       4167       4166       4276       4277       4288       4287  
      4156       4157       4168       4167       4277       4278       4289       4288  
      4157       4158       4169       4168       4278       4279       4290       4289  
      4159       4160       4171       4170       4280       4281       4292       4291  
      4160       4161       4172       4171       4281       4282       4293       4292  
      4161       4162       4173       4172       4282       4283       4294       4293  
      4162       4163       4174       4173       4283       4284       4295       4294  
      4163       4164       4175       4174       4284       4285       4296       4295  
      4164       4165       4176       4175       4285       4286       4297       4296  
      4165       4166       4177       4176       4286       4287       4298       4297  
      4166       4167       4178       4177       4287       4288       4299       4298  
      4167       4168       4179       4178       4288       4289       4300       4299  
      4168       4169       4180       4179       4289       4290       4301       4300  
      4170       4171       4182       4181       4291       4292       4303       4302  
      4171       4172       4183       4182       4292       4293       4304       4303  
      4172       4173       4184       4183       4293       4294       4305       4304  
      4173       4174       4185       4184       4294       4295       4306       4305  
      4174       4175       4186       4185       4295       4296       4307       4306  
      4175       4176       4187       4186       4296       4297       4308       4307  
      4176       4177       4188       4187       4297       4298       4309       4308  
      4177       4178       4189       4188       4298       4299       4310       4309  
      4178       4179       4190       4189       4299       4300       4311       4310  
      4179       4180       4191       4190       4300       4301       4312       4311  
      4181       4182       4193       4192       4302       4303       4314       4313  
      4182       4183       4194       4193       4303       4304       4315       4314  
      4183       4184       4195       4194       4304       4305       4316       4315  
      4184       4185       4196       4195       4305       4306       4317       4316  
      4185       4186       4197       4196       4306       4307       4318       4317  
      4186       4187       4198       4197       4307       4308       4319       4318  
      4187       4188       4199       4198       4308       4309       4320       4319  
      4188       4189       4200       4199       4309       4310       4321       4320  
      4189       4190       4201       4200       4310       4311       4322       4321  
      4190       4191       4202       4201       4311       4312       4323       4322  
      4192       4193       4204       4203       4313       4314       4325       4324  
      4193       4194       4205       4204       4314       4315       4326       4325  
      4194       4195       4206       4205       4315       4316       4327       4326  
      4195       4196       4207       4206       4316       4317       4328       4327  
      4196       4197       4208       4207       4317       4318       4329       4328  
      4197       4198       4209       4208       4318       4319       4330       4329  
      4198       4199       4210       4209       4319       4320       4331       4330  
      4199       4200       4211       4210       4320       4321       4332       4331  
      4200       4201       4212       4211       4321       4322       4333       4332  
      4201       4202       4213       4212       4322       4323       4334       4333  
      4203       4204       4215       4214       4324       4325       4336       4335  
      4204       4205       4216       4215       4325       4326       4337       4336  
      4205       4206       4217       4216       4326       4327       4338       4337  
      4206       4207       4218       4217       4327       4328       4339       4338  
      4207       4208       4219       4218       4328       4329       4340       4339  
      4208       4209       4220       4219       4329       4330       4341       4340  
      4209       4210       4221       4220       4330       4331       4342       4341  
      4210       4211       4222       4221       4331       4332       4343       4342  
      4211       4212       4223       4222       4332       4333       4344       4343  
      4212       4213       4224       4223       4333       4334       4345       4344  
      4214       4215       4226       4225       4335       4336       4347       4346  
      4215       4216       4227       4226       4336       4337       4348       4347  
      4216       4217       4228       4227       4337       4338       4349       4348  
      4217       4218       4229       4228       4338       4339       4350       4349  
      4218       4219       4230       4229       4339       4340       4351       4350  
      4219       4220       4231       4230       4340       4341       4352       4351  
      4220       4221       4232       4231       4341       4342       4353       4352  
      4221       4222       4233       4232       4342       4343       4354       4353  
      4222       4223       4234       4233       4343       4344       4355       4354  
      4223       4224       4235       4234       4344       4345       4356       4355  
      4236       4237       4248       4247       4357       4358       4369       4368  
      4237       4238       4249       4248       4358       4359       4370       4369  
      4238       4239       4250       4249       4359       4360       4371       4370  
      4239       4240       4251       4250       4360       4361       4372       4371  
      4240       4241       4252       4251       4361       4362       4373       4372  
      4241       4242       4253       4252       4362       4363       4374       4373  
      4242       4243       4254       4253       4363       4364       4375       4374  
      4243       4244       4255       4254       4364       4365       4376       4375  
      4244       4245       4256       4255       4365       4366       4377       4376  
      4245       4246       4257       4256       4366       4367       4378       4377  
      4247       4248       4259       4258       4368       4369       4380       4379  
      4248       4249       4260       4259       4369       4370       4381       4380  
      4249       4250       4261       4260       4370       4371       4382       4381  
      4250       4251       4262       4261       4371       4372       4383       4382  
      4251       4252       4263       4262       4372       4373       4384       4383  
      4252       4253       4264       4263       4373       4374       4385       4384  
      4253       4254       4265       4264       4374       4375       4386       4385  
      4254       4255       4266       4265       4375       4376       4387       4386  
      4255       4256       4267       4266       4376       4377       4388       4387  
      4256       4257       4268       4267       4377       4378       4389       4388  
      4258       4259       4270       4269       4379       4380       4391       4390  
      4259       4260       4271       4270       4380       4381       4392       4391  
      4260       4261       4272       4271       4381       4382       4393       4392  
      4261       4262       4273       4272       4382       4383       4394       4393  
      4262       4263       4274       4273       4383       4384       4395       4394  
      4263       4264       4275       4274       4384       4385       4396       4395  
      4264       4265       4276       4275       4385       4386       4397       4396  
      4265       4266       4277       4276       4386       4387       4398       4397  
      4266       4267       4278       4277       4387       4388       4399       4398  
      4267       4268       4279       4278       4388       4389       4400       4399  
      4269       4270       4281       4280       4390       4391       4402       4401  
      4270       4271       4282       4281       4391       4392       4403       4402  
      4271       4272       4283       4282       4392       4393       4404       4403  
      4272       4273       4284       4283       4393       4394       4405       4404  
      4273       4274       4285       4284       4394       4395       4406       4405  
      4274       4275       4286       4285       4395       4396       4407       4406  
      4275       4276       4287       4286       4396       4397       4408       4407  
      4276       4277       4288       4287       4397       4398       4409       4408  
      4277       4278       4289       4288       4398       4399       4410       4409  
      4278       4279       4290       4289       4399       4400       4411       4410  
      4280       4281       4292       4291       4401       4402       4413       4412  
      4281       4282       4293       4292       4402       4403       4414       4413  
      4282       4283       4294       4293       4403       4404       4415       4414  
      4283       4284       4295       4294       4404       4405       4416       4415  
      4284       4285       4296       4295       4405       4406       4417       4416  
      4285       4286       4297       4296       4406       4407       4418       4417  
      4286       4287       4298       4297       4407       4408       4419       4418  
      4287       4288       4299       4298       4408       4409       4420       4419  
      4288       4289       4300       4299       4409       4410       4421       4420  
      4289       4290       4301       4300       4410       4411       4422       4421  
      4291       4292       4303       4302       4412       4413       4424       4423  
      4292       4293       4304       4303       4413       4414       4425       4424  
      4293       4294       4305       4304       4414       4415       4426       4425  
      4294       4295       4306       4305       4415       4416       4427       4426  
      4295       4296       4307       4306       4416       4417       4428       4427  
      4296       4297       4308       4307       4417       4418       4429       4428  
      4297       4298       4309       4308       4418       4419       4430       4429  
      4298       4299       4310       4309       4419       4420       4431       4430  
      4299       4300       4311       4310       4420       4421       4432       4431  
      4300       4301       4312       4311       4421       4422       4433       4432  
      4302       4303       4314       4313       4423       4424       4435       4434  
      4303       4304       4315       4314       4424       4425       4436       4435  
      4304       4305       4316       4315       4425       4426       4437       4436  
      4305       4306       4317       4316       4426       4427       4438       4437  
      4306       4307       4318       4317       4427       4428       4439       4438  
      4307       4308       4319       4318       4428       4429       4440       4439  
      4308       4309       4320       4319       4429       4430       4441       4440  
      4309       4310       4321       4320       4430       4431       4442       4441  
      4310       4311       4322       4321       4431       4432       4443       4442  
      4311       4312       4323       4322       4432       4433       4444       4443  
      4313       4314       4325       4324       4434       4435       4446       4445  
      4314       4315       4326       4325       4435       4436       4447       4446  
      4315       4316       4327       4326       4436       4437       4448       4447  
      4316       4317       4328       4327       4437       4438       4449       4448  
      4317       4318       4329       4328       4438       4439       4450       4449  
      4318       4319       4330       4329       4439       4440       4451       4450  
      4319       4320       4331       4330       4440       4441       4452       4451  
      4320       4321       4332       4331       4441       4442       4453       4452  
      4321       4322       4333       4332       4442       4443       4454       4453  
      4322       4323       4334       4333       4443       4444       4455       4454  
      4324       4325       4336       4335       4445       4446       4457       4456  
      4325       4326       4337       4336       4446       4447       4458       4457  
      4326       4327       4338       4337       4447       4448       4459       4458  
      4327       4328       4339       4338       4448       4449       4460       4459  
      4328       4329       4340       4339       4449       4450       4461       4460  
      4329       4330       4341       4340       4450       4451       4462       4461  
      4330       4331       4342       4341       4451       4452       4463       4462  
      4331       4332       4343       4342       4452       4453       4464       4463  
      4332       4333       4344       4343       4453       4454       4465       4464  
      4333       4334       4345       4344       4454       4455       4466       4465  
      4335       4336       4347       4346       4456       4457       4468       4467  
      4336       4337       4348       4347       4457       4458       4469       4468  
      4337       4338       4349       4348       4458       4459       4470       4469  
      4338       4339       4350       4349       4459       4460       4471       4470  
      4339       4340       4351       4350       4460       4461       4472       4471  
      4340       4341       4352       4351       4461       4462       4473       4472  
      4341       4342       4353       4352       4462       4463       4474       4473  
      4342       4343       4354       4353       4463       4464       4475       4474  
      4343       4344       4355       4354       4464       4465       4476       4475  
      4344       4345       4356       4355       4465       4466       4477       4476  
      4357       4358       4369       4368       4478       4479       4490       4489  
      4358       4359       4370       4369       4479       4480       4491       4490  
      4359       4360       4371       4370       4480       4481       4492       4491  
      4360       4361       4372       4371       4481       4482       4493       4492  
      4361       4362       4373       4372       4482       4483       4494       4493  
      4362       4363       4374       4373       4483       4484       4495       4494  
      4363       4364       4375       4374       4484       4485       4496       4495  
      4364       4365       4376       4375       4485       4486       4497       4496  
      4365       4366       4377       4376       4486       4487       4498       4497  
      4366       4367       4378       4377       4487       4488       4499       4498  
      4368       4369       4380       4379       4489       4490       4501       4500  
      4369       4370       4381       4380       4490       4491       4502       4501  
      4370       4371       4382       4381       4491       4492       4503       4502  
      4371       4372       4383       4382       4492       4493       4504       4503  
      4372       4373       4384       4383       4493       4494       4505       4504  
      4373       4374       4385       4384       4494       4495       4506       4505  
      4374       4375       4386       4385       4495       4496       4507       4506  
      4375       4376       4387       4386       4496       4497       4508       4507  
      4376       4377       4388       4387       4497       4498       4509       4508  
      4377       4378       4389       4388       4498       4499       4510       4509  
      4379       4380       4391       4390       4500       4501       4512       4511  
      4380       4381       4392       4391       4501       4502       4513       4512  
      4381       4382       4393       4392       4502       4503       4514       4513  
      4382       4383       4394       4393       4503       4504       4515       4514  
      4383       4384       4395       4394       4504       4505       4516       4515  
      4384       4385       4396       4395       4505       4506       4517       4516  
      4385       4386       4397       4396       4506       4507       4518       4517  
      4386       4387       4398       4397       4507       4508       4519       4518  
      4387       4388       4399       4398       4508       4509       4520       4519  
      4388       4389       4400       4399       4509       4510       4521       4520  
      4390       4391       4402       4401       4511       4512       4523       4522  
      4391       4392       4403       4402       4512       4513       4524       4523  
      4392       4393       4404       4403       4513       4514       4525       4524  
      4393       4394       4405       4404       4514       4515       4526       4525  
      4394       4395       4406       4405       4515       4516       4527       4526  
      4395       4396       4407       4406       4516       4517       4528       4527  
      4396       4397       4408       4407       4517       4518       4529       4528  
      4397       4398       4409       4408       4518       4519       4530       4529  
      4398       4399       4410       4409       4519       4520       4531       4530  
      4399       4400       4411       4410       4520       4521       4532       4531  
      4401       4402       4413       4412       4522       4523       4534       4533  
      4402       4403       4414       4413       4523       4524       4535       4534  
      4403       4404       4415       4414       4524       4525       4536       4535  
      4404       4405       4416       4415       4525       4526       4537       4536  
      4405       4406       4417       4416       4526       4527       4538       4537  
      4406       4407       4418       4417       4527       4528       4539       4538  
      4407       4408       4419       4418       4528       4529       4540       4539  
      4408       4409       4420       4419       4529       4530       4541       4540  
      4409       4410       4421       4420       4530       4531       4542       4541  
      4410       4411       4422       4421       4531       4532       4543       4542  
      4412       4413       4424       4423       4533       4534       4545       4544  
      4413       4414       4425       4424       4534       4535       4546       4545  
      4414       4415       4426       4425       4535       4536       4547       4546  
      4415       4416       4427       4426       4536       4537       4548       4547  
      4416       4417       4428       4427       4537       4538       4549       4548  
      4417       4418       4429       4428       4538       4539       4550       4549  
      4418       4419       4430       4429       4539       4540       4551       4550  
      4419       4420       4431       4430       4540       4541       4552       4551  
      4420       4421       4432       4431       4541       4542       4553       4552  
      4421       4422       4433       4432       4542       4543       4554       4553  
      4423       4424       4435       4434       4544       4545       4556       4555  
      4424       4425       4436       4435       4545       4546       4557       4556  
      4425       4426       4437       4436       4546       4547       4558       4557  
      4426       4427       4438       4437       4547       4548       4559       4558  
      4427       4428       4439       4438       4548       4549       4560       4559  
      4428       4429       4440       4439       4549       4550       4561       4560  
      4429       4430       4441       4440       4550       4551       4562       4561  
      4430       4431       4442       4441       4551       4552       4563       4562  
      4431       4432       4443       4442       4552       4553       4564       4563  
      4432       4433       4444       4443       4553       4554       4565       4564  
      4434       4435       4446       4445       4555       4556       4567       4566  
      4435       4436       4447       4446       4556       4557       4568       4567  
      4436       4437       4448       4447       4557       4558       4569       4568  
      4437       4438       4449       4448       4558       4559       4570       4569  
      4438       4439       4450       4449       4559       4560       4571       4570  
      4439       4440       4451       4450       4560       4561       4572       4571  
      4440       4441       4452       4451       4561       4562       4573       4572  
      4441       4442       4453       4452       4562       4563       4574       4573  
      4442       4443       4454       4453       4563       4564       4575       4574  
      4443       4444       4455       4454       4564       4565       4576       4575  
      4445       4446       4457       4456       4566       4567       4578       4577  
      4446       4447       4458       4457       4567       4568       4579       4578  
      4447       4448       4459       4458       4568       4569       4580       4579  
      4448       4449       4460       4459       4569       4570       4581       4580  
      4449       4450       4461       4460       4570       4571       4582       4581  
      4450       4451       4462       4461       4571       4572       4583       4582  
      4451       4452       4463       4462       4572       4573       4584       4583  
      4452       4453       4464       4463       4573       4574       4585       4584  
      4453       4454       4465       4464       4574       4575       4586       4585  
      4454       4455       4466       4465       4575       4576       4587       4586  
      4456       4457       4468       4467       4577       4578       4589       4588  
      4457       4458       4469       4468       4578       4579       4590       4589  
      4458       4459       4470       4469       4579       4580       4591       4590  
      4459       4460       4471       4470       4580       4581       4592       4591  
      4460       4461       4472       4471       4581       4582       4593       4592  
      4461       4462       4473       4472       4582       4583       4594       4593  
      4462       4463       4474       4473       4583       4584       4595       4594  
      4463       4464       4475       4474       4584       4585       4596       4595  
      4464       4465       4476       4475       4585       4586       4597       4596  
      4465       4466       4477       4476       4586       4587       4598       4597  
      4478       4479       4490       4489       4599       4600       4611       4610  
      4479       4480       4491       4490       4600       4601       4612       4611  
      4480       4481       4492       4491       4601       4602       4613       4612  
      4481       4482       4493       4492       4602       4603       4614       4613  
      4482       4483       4494       4493       4603       4604       4615       4614  
      4483       4484       4495       4494       4604       4605       4616       4615  
      4484       4485       4496       4495       4605       4606       4617       4616  
      4485       4486       4497       4496       4606       4607       4618       4617  
      4486       4487       4498       4497       4607       4608       4619       4618  
      4487       4488       4499       4498       4608       4609       4620       4619  
      4489       4490       4501       4500       4610       4611       4622       4621  
      4490       4491       4502       4501       4611       4612       4623       4622  
      4491       4492       4503       4502       4612       4613       4624       4623  
      4492       4493       4504       4503       4613       4614       4625       4624  
      4493       4494       4505       4504       4614       4615       4626       4625  
      4494       4495       4506       4505       4615       4616       4627       4626  
      4495       4496       4507       4506       4616       4617       4628       4627  
      4496       4497       4508       4507       4617       4618       4629       4628  
      4497       4498       4509       4508       4618       4619       4630       4629  
      4498       4499       4510       4509       4619       4620       4631       4630  
      4500       4501       4512       4511       4621       4622       4633       4632  
      4501       4502       4513       4512       4622       4623       4634       4633  
      4502       4503       4514       4513       4623       4624       4635       4634  
      4503       4504       4515       4514       4624       4625       4636       4635  
      4504       4505       4516       4515       4625       4626       4637       4636  
      4505       4506       4517       4516       4626       4627       4638       4637  
      4506       4507       4518       4517       4627       4628       4639       4638  
      4507       4508       4519       4518       4628       4629       4640       4639  
      4508       4509       4520       4519       4629       4630       4641       4640  
      4509       4510       4521       4520       4630       4631       4642       4641  
      4511       4512       4523       4522       4632       4633       4644       4643  
      4512       4513       4524       4523       4633       4634       4645       4644  
      4513       4514       4525       4524       4634       4635       4646       4645  
      4514       4515       4526       4525       4635       4636       4647       4646  
      4515       4516       4527       4526       4636       4637       4648       4647  
      4516       4517       4528       4527       4637       4638       4649       4648  
      4517       4518       4529       4528       4638       4639       4650       4649  
      4518       4519       4530       4529       4639       4640       4651       4650  
      4519       4520       4531       4530       4640       4641       4652       4651  
      4520       4521       4532       4531       4641       4642       4653       4652  
      4522       4523       4534       4533       4643       4644       4655       4654  
      4523       4524       4535       4534       4644       4645       4656       4655  
      4524       4525       4536       4535       4645       4646       4657       4656  
      4525       4526       4537       4536       4646       4647       4658       4657  
      4526       4527       4538       4537       4647       4648       4659       4658  
      4527       4528       4539       4538       4648       4649       4660       4659  
      4528       4529       4540       4539       4649       4650       4661       4660  
      4529       4530       4541       4540       4650       4651       4662       4661  
      4530       4531       4542       4541       4651       4652       4663       4662  
      4531       4532       4543       4542       4652       4653       4664       4663  
      4533       4534       4545       4544       4654       4655       4666       4665  
      4534       4535       4546       4545       4655       4656       4667       4666  
      4535       4536       4547       4546       4656       4657       4668       4667  
      4536       4537       4548       4547       4657       4658       4669       4668  
      4537       4538       4549       4548       4658       4659       4670       4669  
      4538       4539       4550       4549       4659       4660       4671       4670  
      4539       4540       4551       4550       4660       4661       4672       4671  
      4540       4541       4552       4551       4661       4662       4673       4672  
      4541       4542       4553       4552       4662       4663       4674       4673  
      4542       4543       4554       4553       4663       4664       4675       4674  
      4544       4545       4556       4555       4665       4666       4677       4676  
      4545       4546       4557       4556       4666       4667       4678       4677  
      4546       4547       4558       4557       4667       4668       4679       4678  
      4547       4548       4559       4558       4668       4669       4680       4679  
      4548       4549       4560       4559       4669       4670       4681       4680  
      4549       4550       4561       4560       4670       4671       4682       4681  
      4550       4551       4562       4561       4671       4672       4683       4682  
      4551       4552       4563       4562       4672       4673       4684       4683  
      4552       4553       4564       4563       4673       4674       4685       4684  
      4553       4554       4565       4564       4674       4675       4686       4685  
      4555       4556       4567       4566       4676       4677       4688       4687  
      4556       4557       4568       4567       4677       4678       4689       4688  
      4557       4558       4569       4568       4678       4679       4690       4689  
      4558       4559       4570       4569       4679       4680       4691       4690  
      4559       4560       4571       4570       4680       4681       4692       4691  
      4560       4561       4572       4571       4681       4682       4693       4692  
      4561       4562       4573       4572       4682       4683       4694       4693  
      4562       4563       4574       4573       4683       4684       4695       4694  
      4563       4564       4575       4574       4684       4685       4696       4695  
      4564       4565       4576       4575       4685       4686       4697       4696  
      4566       4567       4578       4577       4687       4688       4699       4698  
      4567       4568       4579       4578       4688       4689       4700       4699  
      4568       4569       4580       4579       4689       4690       4701       4700  
      4569       4570       4581       4580       4690       4691       4702       4701  
      4570       4571       4582       4581       4691       4692       4703       4702  
      4571       4572       4583       4582       4692       4693       4704       4703  
      4572       4573       4584       4583       4693       4694       4705       4704  
      4573       4574       4585       4584       4694       4695       4706       4705  
      4574       4575       4586       4585       4695       4696       4707       4706  
      4575       4576       4587       4586       4696       4697       4708       4707  
      4577       4578       4589       4588       4698       4699       4710       4709  
      4578       4579       4590       4589       4699       4700       4711       4710  
      4579       4580       4591       4590       4700       4701       4712       4711  
      4580       4581       4592       4591       4701       4702       4713       4712  
      4581       4582       4593       4592       4702       4703       4714       4713  
      4582       4583       4594       4593       4703       4704       4715       4714  
      4583       4584       4595       4594       4704       4705       4716       4715  
      4584       4585       4596       4595       4705       4706       4717       4716  
      4585       4586       4597       4596       4706       4707       4718       4717  
      4586       4587       4598       4597       4707       4708       4719       4718  
      4599       4600       4611       4610       4720       4721       4732       4731  
      4600       4601       4612       4611       4721       4722       4733       4732  
      4601       4602       4613       4612       4722       4723       4734       4733  
      4602       4603       4614       4613       4723       4724       4735       4734  
      4603       4604       4615       4614       4724       4725       4736       4735  
      4604       4605       4616       4615       4725       4726       4737       4736  
      4605       4606       4617       4616       4726       4727       4738       4737  
      4606       4607       4618       4617       4727       4728       4739       4738  
      4607       4608       4619       4618       4728       4729       4740       4739  
      4608       4609       4620       4619       4729       4730       4741       4740  
      4610       4611       4622       4621       4731       4732       4743       4742  
      4611       4612       4623       4622       4732       4733       4744       4743  
      4612       4613       4624       4623       4733       4734       4745       4744  
      4613       4614       4625       4624       4734       4735       4746       4745  
      4614       4615       4626       4625       4735       4736       4747       4746  
      4615       4616       4627       4626       4736       4737       4748       4747  
      4616       4617       4628       4627       4737       4738       4749       4748  
      4617       4618       4629       4628       4738       4739       4750       4749  
      4618       4619       4630       4629       4739       4740       4751       4750  
      4619       4620       4631       4630       4740       4741       4752       4751  
      4621       4622       4633       4632       4742       4743       4754       4753  
      4622       4623       4634       4633       4743       4744       4755       4754  
      4623       4624       4635       4634       4744       4745       4756       4755  
      4624       4625       4636       4635       4745       4746       4757       4756  
      4625       4626       4637       4636       4746       4747       4758       4757  
      4626       4627       4638       4637       4747       4748       4759       4758  
      4627       4628       4639       4638       4748       4749       4760       4759  
      4628       4629       4640       4639       4749       4750       4761       4760  
      4629       4630       4641       4640       4750       4751       4762       4761  
      4630       4631       4642       4641       4751       4752       4763       4762  
      4632       4633       4644       4643       4753       4754       4765       4764  
      4633       4634       4645       4644       4754       4755       4766       4765  
      4634       4635       4646       4645       4755       4756       4767       4766  
      4635       4636       4647       4646       4756       4757       4768       4767  
      4636       4637       4648       4647       4757       4758       4769       4768  
      4637       4638       4649       4648       4758       4759       4770       4769  
      4638       4639       4650       4649       4759       4760       4771       4770  
      4639       4640       4651       4650       4760       4761       4772       4771  
      4640       4641       4652       4651       4761       4762       4773       4772  
      4641       4642       4653       4652       4762       4763       4774       4773  
      4643       4644       4655       4654       4764       4765       4776       4775  
      4644       4645       4656       4655       4765       4766       4777       4776  
      4645       4646       4657       4656       4766       4767       4778       4777  
      4646       4647       4658       4657       4767       4768       4779       4778  
      4647       4648       4659       4658       4768       4769       4780       4779  
      4648       4649       4660       4659       4769       4770       4781       4780  
      4649       4650       4661       4660       4770       4771       4782       4781  
      4650       4651       4662       4661       4771       4772       4783       4782  
      4651       4652       4663       4662       4772       4773       4784       4783  
      4652       4653       4664       4663       4773       4774       4785       4784  
      4654       4655       4666       4665       4775       4776       4787       4786  
      4655       4656       4667       4666       4776       4777       4788       4787  
      4656       4657       4668       4667       4777       4778       4789       4788  
      4657       4658       4669       4668       4778       4779       4790       4789  
      4658       4659       4670       4669       4779       4780       4791       4790  
      4659       4660       4671       4670       4780       4781       4792       4791  
      4660       4661       4672       4671       4781       4782       4793       4792  
      4661       4662       4673       4672       4782       4783       4794       4793  
      4662       4663       4674       4673       4783       4784       4795       4794  
      4663       4664       4675       4674       4784       4785       4796       4795  
      4665       4666       4677       4676       4786       4787       4798       4797  
      4666       4667       4678       4677       4787       4788       4799       4798  
      4667       4668       4679       4678       4788       4789       4800       4799  
      4668       4669       4680       4679       4789       4790       4801       4800  
      4669       4670       4681       4680       4790       4791       4802       4801  
      4670       4671       4682       4681       4791       4792       4803       4802  
      4671       4672       4683       4682       4792       4793       4804       4803  
      4672       4673       4684       4683       4793       4794       4805       4804  
      4673       4674       4685       4684       4794       4795       4806       4805  
      4674       4675       4686       4685       4795       4796       4807       4806  
      4676       4677       4688       4687       4797       4798       4809       4808  
      4677       4678       4689       4688       4798       4799       4810       4809  
      4678       4679       4690       4689       4799       4800       4811       4810  
      4679       4680       4691       4690       4800       4801       4812       4811  
      4680       4681       4692       4691       4801       4802       4813       4812  
      4681       4682       4693       4692       4802       4803       4814       4813  
      4682       4683       4694       4693       4803       4804       4815       4814  
      4683       4684       4695       4694       4804       4805       4816       4815  
      4684       4685       4696       4695       4805       4806       4817       4816  
      4685       4686       4697       4696       4806       4807       4818       4817  
      4687       4688       4699       4698       4808       4809       4820       4819  
      4688       4689       4700       4699       4809       4810       4821       4820  
      4689       4690       4701       4700       4810       4811       4822       4821  
      4690       4691       4702       4701       4811       4812       4823       4822  
      4691       4692       4703       4702       4812       4813       4824       4823  
      4692       4693       4704       4703       4813       4814       4825       4824  
      4693       4694       4705       4704       4814       4815       4826       4825  
      4694       4695       4706       4705       4815       4816       4827       4826  
      4695       4696       4707       4706       4816       4817       4828       4827  
      4696       4697       4708       4707       4817       4818       4829       4828  
      4698       4699       4710       4709       4819       4820       4831       4830  
      4699       4700       4711       4710       4820       4821       4832       4831  
      4700       4701       4712       4711       4821       4822       4833       4832  
      4701       4702       4713       4712       4822       4823       4834       4833  
      4702       4703       4714       4713       4823       4824       4835       4834  
      4703       4704       4715       4714       4824       4825       4836       4835  
      4704       4705       4716       4715       4825       4826       4837       4836  
      4705       4706       4717       4716       4826       4827       4838       4837  
      4706       4707       4718       4717       4827       4828       4839       4838  
      4707       4708       4719       4718       4828       4829       4840       4839  
      4720       4721       4732       4731       4841       4842       4853       4852  
      4721       4722       4733       4732       4842       4843       4854       4853  
      4722       4723       4734       4733       4843       4844       4855       4854  
      4723       4724       4735       4734       4844       4845       4856       4855  
      4724       4725       4736       4735       4845       4846       4857       4856  
      4725       4726       4737       4736       4846       4847       4858       4857  
      4726       4727       4738       4737       4847       4848       4859       4858  
      4727       4728       4739       4738       4848       4849       4860       4859  
      4728       4729       4740       4739       4849       4850       4861       4860  
      4729       4730       4741       4740       4850       4851       4862       4861  
      4731       4732       4743       4742       4852       4853       4864       4863  
      4732       4733       4744       4743       4853       4854       4865       4864  
      4733       4734       4745       4744       4854       4855       4866       4865  
      4734       4735       4746       4745       4855       4856       4867       4866  
      4735       4736       4747       4746       4856       4857       4868       4867  
      4736       4737       4748       4747       4857       4858       4869       4868  
      4737       4738       4749       4748       4858       4859       4870       4869  
      4738       4739       4750       4749       4859       4860       4871       4870  
      4739       4740       4751       4750       4860       4861       4872       4871  
      4740       4741       4752       4751       4861       4862       4873       4872  
      4742       4743       4754       4753       4863       4864       4875       4874  
      4743       4744       4755       4754       4864       4865       4876       4875  
      4744       4745       4756       4755       4865       4866       4877       4876  
      4745       4746       4757       4756       4866       4867       4878       4877  
      4746       4747       4758       4757       4867       4868       4879       4878  
      4747       4748       4759       4758       4868       4869       4880       4879  
      4748       4749       4760       4759       4869       4870       4881       4880  
      4749       4750       4761       4760       4870       4871       4882       4881  
      4750       4751       4762       4761       4871       4872       4883       4882  
      4751       4752       4763       4762       4872       4873       4884       4883  
      4753       4754       4765       4764       4874       4875       4886       4885  
      4754       4755       4766       4765       4875       4876       4887       4886  
      4755       4756       4767       4766       4876       4877       4888       4887  
      4756       4757       4768       4767       4877       4878       4889       4888  
      4757       4758       4769       4768       4878       4879       4890       4889  
      4758       4759       4770       4769       4879       4880       4891       4890  
      4759       4760       4771       4770       4880       4881       4892       4891  
      4760       4761       4772       4771       4881       4882       4893       4892  
      4761       4762       4773       4772       4882       4883       4894       4893  
      4762       4763       4774       4773       4883       4884       4895       4894  
      4764       4765       4776       4775       4885       4886       4897       4896  
      4765       4766       4777       4776       4886       4887       4898       4897  
      4766       4767       4778       4777       4887       4888       4899       4898  
      4767       4768       4779       4778       4888       4889       4900       4899  
      4768       4769       4780       4779       4889       4890       4901       4900  
      4769       4770       4781       4780       4890       4891       4902       4901  
      4770       4771       4782       4781       4891       4892       4903       4902  
      4771       4772       4783       4782       4892       4893       4904       4903  
      4772       4773       4784       4783       4893       4894       4905       4904  
      4773       4774       4785       4784       4894       4895       4906       4905  
      4775       4776       4787       4786       4896       4897       4908       4907  
      4776       4777       4788       4787       4897       4898       4909       4908  
      4777       4778       4789       4788       4898       4899       4910       4909  
      4778       4779       4790       4789       4899       4900       4911       4910  
      4779       4780       4791       4790       4900       4901       4912       4911  
      4780       4781       4792       4791       4901       4902       4913       4912  
      4781       4782       4793       4792       4902       4903       4914       4913  
      4782       4783       4794       4793       4903       4904       4915       4914  
      4783       4784       4795       4794       4904       4905       4916       4915  
      4784       4785       4796       4795       4905       4906       4917       4916  
      4786       4787       4798       4797       4907       4908       4919       4918  
      4787       4788       4799       4798       4908       4909       4920       4919  
      4788       4789       4800       4799       4909       4910       4921       4920  
      4789       4790       4801       4800       4910       4911       4922       4921  
      4790       4791       4802       4801       4911       4912       4923       4922  
      4791       4792       4803       4802       4912       4913       4924       4923  
      4792       4793       4804       4803       4913       4914       4925       4924  
      4793       4794       4805       4804       4914       4915       4926       4925  
      4794       4795       4806       4805       4915       4916       4927       4926  
      4795       4796       4807       4806       4916       4917       4928       4927  
      4797       4798       4809       4808       4918       4919       4930       4929  
      4798       4799       4810       4809       4919       4920       4931       4930  
      4799       4800       4811       4810       4920       4921       4932       4931  
      4800       4801       4812       4811       4921       4922       4933       4932  
      4801       4802       4813       4812       4922       4923       4934       4933  
      4802       4803       4814       4813       4923       4924       4935       4934  
      4803       4804       4815       4814       4924       4925       4936       4935  
      4804       4805       4816       4815       4925       4926       4937       4936  
      4805       4806       4817       4816       4926       4927       4938       4937  
      4806       4807       4818       4817       4927       4928       4939       4938  
      4808       4809       4820       4819       4929       4930       4941       4940  
      4809       4810       4821       4820       4930       4931       4942       4941  
      4810       4811       4822       4821       4931       4932       4943       4942  
      4811       4812       4823       4822       4932       4933       4944       4943  
      4812       4813       4824       4823       4933       4934       4945       4944  
      4813       4814       4825       4824       4934       4935       4946       4945  
      4814       4815       4826       4825       4935       4936       4947       4946  
      4815       4816       4827       4826       4936       4937       4948       4947  
      4816       4817       4828       4827       4937       4938       4949       4948  
      4817       4818       4829       4828       4938       4939       4950       4949  
      4819       4820       4831       4830       4940       4941       4952       4951  
      4820       4821       4832       4831       4941       4942       4953       4952  
      4821       4822       4833       4832       4942       4943       4954       4953  
      4822       4823       4834       4833       4943       4944       4955       4954  
      4823       4824       4835       4834       4944       4945       4956       4955  
      4824       4825       4836       4835       4945       4946       4957       4956  
      4825       4826       4837       4836       4946       4947       4958       4957  
      4826       4827       4838       4837       4947       4948       4959       4958  
      4827       4828       4839       4838       4948       4949       4960       4959  
      4828       4829       4840       4839       4949       4950       4961       4960  
      4841       4842       4853       4852       4962       4963       4974       4973  
      4842       4843       4854       4853       4963       4964       4975       4974  
      4843       4844       4855       4854       4964       4965       4976       4975  
      4844       4845       4856       4855       4965       4966       4977       4976  
      4845       4846       4857       4856       4966       4967       4978       4977  
      4846       4847       4858       4857       4967       4968       4979       4978  
      4847       4848       4859       4858       4968       4969       4980       4979  
      4848       4849       4860       4859       4969       4970       4981       4980  
      4849       4850       4861       4860       4970       4971       4982       4981  
      4850       4851       4862       4861       4971       4972       4983       4982  
      4852       4853       4864       4863       4973       4974       4985       4984  
      4853       4854       4865       4864       4974       4975       4986       4985  
      4854       4855       4866       4865       4975       4976       4987       4986  
      4855       4856       4867       4866       4976       4977       4988       4987  
      4856       4857       4868       4867       4977       4978       4989       4988  
      4857       4858       4869       4868       4978       4979       4990       4989  
      4858       4859       4870       4869       4979       4980       4991       4990  
      4859       4860       4871       4870       4980       4981       4992       4991  
      4860       4861       4872       4871       4981       4982       4993       4992  
      4861       4862       4873       4872       4982       4983       4994       4993  
      4863       4864       4875       4874       4984       4985       4996       4995  
      4864       4865       4876       4875       4985       4986       4997       4996  
      4865       4866       4877       4876       4986       4987       4998       4997  
      4866       4867       4878       4877       4987       4988       4999       4998  
      4867       4868       4879       4878       4988       4989       5000       4999  
      4868       4869       4880       4879       4989       4990       5001       5000  
      4869       4870       4881       4880       4990       4991       5002       5001  
      4870       4871       4882       4881       4991       4992       5003       5002  
      4871       4872       4883       4882       4992       4993       5004       5003  
      4872       4873       4884       4883       4993       4994       5005       5004  
      4874       4875       4886       4885       4995       4996       5007       5006  
      4875       4876       4887       4886       4996       4997       5008       5007  
      4876       4877       4888       4887       4997       4998       5009       5008  
      4877       4878       4889       4888       4998       4999       5010       5009  
      4878       4879       4890       4889       4999       5000       5011       5010  
      4879       4880       4891       4890       5000       5001       5012       5011  
      4880       4881       4892       4891       5001       5002       5013       5012  
      4881       4882       4893       4892       5002       5003       5014       5013  
      4882       4883       4894       4893       5003       5004       5015       5014  
      4883       4884       4895       4894       5004       5005       5016       5015  
      4885       4886       4897       4896       5006       5007       5018       5017  
      4886       4887       4898       4897       5007       5008       5019       5018  
      4887       4888       4899       4898       5008       5009       5020       5019  
      4888       4889       4900       4899       5009       5010       5021       5020  
      4889       4890       4901       4900       5010       5011       5022       5021  
      4890       4891       4902       4901       5011       5012       5023       5022  
      4891       4892       4903       4902       5012       5013       5024       5023  
      4892       4893       4904       4903       5013       5014       5025       5024  
      4893       4894       4905       4904       5014       5015       5026       5025  
      4894       4895       4906       4905       5015       5016       5027       5026  
      4896       4897       4908       4907       5017       5018       5029       5028  
      4897       4898       4909       4908       5018       5019       5030       5029  
      4898       4899       4910       4909       5019       5020       5031       5030  
      4899       4900       4911       4910       5020       5021       5032       5031  
      4900       4901       4912       4911       5021       5022       5033       5032  
      4901       4902       4913       4912       5022       5023       5034       5033  
      4902       4903       4914       4913       5023       5024       5035       5034  
      4903       4904       4915       4914       5024       5025       5036       5035  
      4904       4905       4916       4915       5025       5026       5037       5036  
      4905       4906       4917       4916       5026       5027       5038       5037  
      4907       4908       4919       4918       5028       5029       5040       5039  
      4908       4909       4920       4919       5029       5030       5041       5040  
      4909       4910       4921       4920       5030       5031       5042       5041  
      4910       4911       4922       4921       5031       5032       5043       5042  
      4911       4912       4923       4922       5032       5033       5044       5043  
      4912       4913       4924       4923       5033       5034       5045       5044  
      4913       4914       4925       4924       5034       5035       5046       5045  
      4914       4915       4926       4925       5035       5036       5047       5046  
      4915       4916       4927       4926       5036       5037       5048       5047  
      4916       4917       4928       4927       5037       5038       5049       5048  
      4918       4919       4930       4929       5039       5040       5051       5050  
      4919       4920       4931       4930       5040       5041       5052       5051  
      4920       4921       4932       4931       5041       5042       5053       5052  
      4921       4922       4933       4932       5042       5043       5054       5053  
      4922       4923       4934       4933       5043       5044       5055       5054  
      4923       4924       4935       4934       5044       5045       5056       5055  
      4924       4925       4936       4935       5045       5046       5057       5056  
      4925       4926       4937       4936       5046       5047       5058       5057  
      4926       4927       4938       4937       5047       5048       5059       5058  
      4927       4928       4939       4938       5048       5049       5060       5059  
      4929       4930       4941       4940       5050       5051       5062       5061  
      4930       4931       4942       4941       5051       5052       5063       5062  
      4931       4932       4943       4942       5052       5053       5064       5063  
      4932       4933       4944       4943       5053       5054       5065       5064  
      4933       4934       4945       4944       5054       5055       5066       5065  
      4934       4935       4946       4945       5055       5056       5067       5066  
      4935       4936       4947       4946       5056       5057       5068       5067  
      4936       4937       4948       4947       5057       5058       5069       5068  
      4937       4938       4949       4948       5058       5059       5070       5069  
      4938       4939       4950       4949       5059       5060       5071       5070  
      4940       4941       4952       4951       5061       5062       5073       5072  
      4941       4942       4953       4952       5062       5063       5074       5073  
      4942       4943       4954       4953       5063       5064       5075       5074  
      4943       4944       4955       4954       5064       5065       5076       5075  
      4944       4945       4956       4955       5065       5066       5077       5076  
      4945       4946       4957       4956       5066       5067       5078       5077  
      4946       4947       4958       4957       5067       5068       5079       5078  
      4947       4948       4959       4958       5068       5069       5080       5079  
      4948       4949       4960       4959       5069       5070       5081       5080  
      4949       4950       4961       4960       5070       5071       5082       5081  
      4962       4963       4974       4973       5083       5084       5095       5094  
      4963       4964       4975       4974       5084       5085       5096       5095  
      4964       4965       4976       4975       5085       5086       5097       5096  
      4965       4966       4977       4976       5086       5087       5098       5097  
      4966       4967       4978       4977       5087       5088       5099       5098  
      4967       4968       4979       4978       5088       5089       5100       5099  
      4968       4969       4980       4979       5089       5090       5101       5100  
      4969       4970       4981       4980       5090       5091       5102       5101  
      4970       4971       4982       4981       5091       5092       5103       5102  
      4971       4972       4983       4982       5092       5093       5104       5103  
      4973       4974       4985       4984       5094       5095       5106       5105  
      4974       4975       4986       4985       5095       5096       5107       5106  
      4975       4976       4987       4986       5096       5097       5108       5107  
      4976       4977       4988       4987       5097       5098       5109       5108  
      4977       4978       4989       4988       5098       5099       5110       5109  
      4978       4979       4990       4989       5099       5100       5111       5110  
      4979       4980       4991       4990       5100       5101       5112       5111  
      4980       4981       4992       4991       5101       5102       5113       5112  
      4981       4982       4993       4992       5102       5103       5114       5113  
      4982       4983       4994       4993       5103       5104       5115       5114  
      4984       4985       4996       4995       5105       5106       5117       5116  
      4985       4986       4997       4996       5106       5107       5118       5117  
      4986       4987       4998       4997       5107       5108       5119       5118  
      4987       4988       4999       4998       5108       5109       5120       5119  
      4988       4989       5000       4999       5109       5110       5121       5120  
      4989       4990       5001       5000       5110       5111       5122       5121  
      4990       4991       5002       5001       5111       5112       5123       5122  
      4991       4992       5003       5002       5112       5113       5124       5123  
      4992       4993       5004       5003       5113       5114       5125       5124  
      4993       4994       5005       5004       5114       5115       5126       5125  
      4995       4996       5007       5006       5116       5117       5128       5127  
      4996       4997       5008       5007       5117       5118       5129       5128  
      4997       4998       5009       5008       5118       5119       5130       5129  
      4998       4999       5010       5009       5119       5120       5131       5130  
      4999       5000       5011       5010       5120       5121       5132       5131  
      5000       5001       5012       5011       5121       5122       5133       5132  
      5001       5002       5013       5012       5122       5123       5134       5133  
      5002       5003       5014       5013       5123       5124       5135       5134  
      5003       5004       5015       5014       5124       5125       5136       5135  
      5004       5005       5016       5015       5125       5126       5137       5136  
      5006       5007       5018       5017       5127       5128       5139       5138  
      5007       5008       5019       5018       5128       5129       5140       5139  
      5008       5009       5020       5019       5129       5130       5141       5140  
      5009       5010       5021       5020       5130       5131       5142       5141  
      5010       5011       5022       5021       5131       5132       5143       5142  
      5011       5012       5023       5022       5132       5133       5144       5143  
      5012       5013       5024       5023       5133       5134       5145       5144  
      5013       5014       5025       5024       5134       5135       5146       5145  
      5014       5015       5026       5025       5135       5136       5147       5146  
      5015       5016       5027       5026       5136       5137       5148       5147  
      5017       5018       5029       5028       5138       5139       5150       5149  
      5018       5019       5030       5029       5139       5140       5151       5150  
      5019       5020       5031       5030       5140       5141       5152       5151  
      5020       5021       5032       5031       5141       5142       5153       5152  
      5021       5022       5033       5032       5142       5143       5154       5153  
      5022       5023       5034       5033       5143       5144       5155       5154  
      5023       5024       5035       5034       5144       5145       5156       5155  
      5024       5025       5036       5035       5145       5146       5157       5156  
      5025       5026       5037       5036       5146       5147       5158       5157  
      5026       5027       5038       5037       5147       5148       5159       5158  
      5028       5029       5040       5039       5149       5150       5161       5160  
      5029       5030       5041       5040       5150       5151       5162       5161  
      5030       5031       5042       5041       5151       5152       5163       5162  
      5031       5032       5043       5042       5152       5153       5164       5163  
      5032       5033       5044       5043       5153       5154       5165       5164  
      5033       5034       5045       5044       5154       5155       5166       5165  
      5034       5035       5046       5045       5155       5156       5167       5166  
      5035       5036       5047       5046       5156       5157       5168       5167  
      5036       5037       5048       5047       5157       5158       5169       5168  
      5037       5038       5049       5048       5158       5159       5170       5169  
      5039       5040       5051       5050       5160       5161       5172       5171  
      5040       5041       5052       5051       5161       5162       5173       5172  
      5041       5042       5053       5052       5162       5163       5174       5173  
      5042       5043       5054       5053       5163       5164       5175       5174  
      5043       5044       5055       5054       5164       5165       5176       5175  
      5044       5045       5056       5055       5165       5166       5177       5176  
      5045       5046       5057       5056       5166       5167       5178       5177  
      5046       5047       5058       5057       5167       5168       5179       5178  
      5047       5048       5059       5058       5168       5169       5180       5179  
      5048       5049       5060       5059       5169       5170       5181       5180  
      5050       5051       5062       5061       5171       5172       5183       5182  
      5051       5052       5063       5062       5172       5173       5184       5183  
      5052       5053       5064       5063       5173       5174       5185       5184  
      5053       5054       5065       5064       5174       5175       5186       5185  
      5054       5055       5066       5065       5175       5176       5187       5186  
      5055       5056       5067       5066       5176       5177       5188       5187  
      5056       5057       5068       5067       5177       5178       5189       5188  
      5057       5058       5069       5068       5178       5179       5190       5189  
      5058       5059       5070       5069       5179       5180       5191       5190  
      5059       5060       5071       5070       5180       5181       5192       5191  
      5061       5062       5073       5072       5182       5183       5194       5193  
      5062       5063       5074       5073       5183       5184       5195       5194  
      5063       5064       5075       5074       5184       5185       5196       5195  
      5064       5065       5076       5075       5185       5186       5197       5196  
      5065       5066       5077       5076       5186       5187       5198       5197  
      5066       5067       5078       5077       5187       5188       5199       5198  
      5067       5068       5079       5078       5188       5189       5200       5199  
      5068       5069       5080       5079       5189       5190       5201       5200  
      5069       5070       5081       5080       5190       5191       5202       5201  
      5070       5071       5082       5081       5191       5192       5203       5202  
      5083       5084       5095       5094       5204       5205       5216       5215  
      5084       5085       5096       5095       5205       5206       5217       5216  
      5085       5086       5097       5096       5206       5207       5218       5217  
      5086       5087       5098       5097       5207       5208       5219       5218  
      5087       5088       5099       5098       5208       5209       5220       5219  
      5088       5089       5100       5099       5209       5210       5221       5220  
      5089       5090       5101       5100       5210       5211       5222       5221  
      5090       5091       5102       5101       5211       5212       5223       5222  
      5091       5092       5103       5102       5212       5213       5224       5223  
      5092       5093       5104       5103       5213       5214       5225       5224  
      5094       5095       5106       5105       5215       5216       5227       5226  
      5095       5096       5107       5106       5216       5217       5228       5227  
      5096       5097       5108       5107       5217       5218       5229       5228  
      5097       5098       5109       5108       5218       5219       5230       5229  
      5098       5099       5110       5109       5219       5220       5231       5230  
      5099       5100       5111       5110       5220       5221       5232       5231  
      5100       5101       5112       5111       5221       5222       5233       5232  
      5101       5102       5113       5112       5222       5223       5234       5233  
      5102       5103       5114       5113       5223       5224       5235       5234  
      5103       5104       5115       5114       5224       5225       5236       5235  
      5105       5106       5117       5116       5226       5227       5238       5237  
      5106       5107       5118       5117       5227       5228       5239       5238  
      5107       5108       5119       5118       5228       5229       5240       5239  
      5108       5109       5120       5119       5229       5230       5241       5240  
      5109       5110       5121       5120       5230       5231       5242       5241  
      5110       5111       5122       5121       5231       5232       5243       5242  
      5111       5112       5123       5122       5232       5233       5244       5243  
      5112       5113       5124       5123       5233       5234       5245       5244  
      5113       5114       5125       5124       5234       5235       5246       5245  
      5114       5115       5126       5125       5235       5236       5247       5246  
      5116       5117       5128       5127       5237       5238       5249       5248  
      5117       5118       5129       5128       5238       5239       5250       5249  
      5118       5119       5130       5129       5239       5240       5251       5250  
      5119       5120       5131       5130       5240       5241       5252       5251  
      5120       5121       5132       5131       5241       5242       5253       5252  
      5121       5122       5133       5132       5242       5243       5254       5253  
      5122       5123       5134       5133       5243       5244       5255       5254  
      5123       5124       5135       5134       5244       5245       5256       5255  
      5124       5125       5136       5135       5245       5246       5257       5256  
      5125       5126       5137       5136       5246       5247       5258       5257  
      5127       5128       5139       5138       5248       5249       5260       5259  
      5128       5129       5140       5139       5249       5250       5261       5260  
      5129       5130       5141       5140       5250       5251       5262       5261  
      5130       5131       5142       5141       5251       5252       5263       5262  
      5131       5132       5143       5142       5252       5253       5264       5263  
      5132       5133       5144       5143       5253       5254       5265       5264  
      5133       5134       5145       5144       5254       5255       5266       5265  
      5134       5135       5146       5145       5255       5256       5267       5266  
      5135       5136       5147       5146       5256       5257       5268       5267  
      5136       5137       5148       5147       5257       5258       5269       5268  
      5138       5139       5150       5149       5259       5260       5271       5270  
      5139       5140       5151       5150       5260       5261       5272       5271  
      5140       5141       5152       5151       5261       5262       5273       5272  
      5141       5142       5153       5152       5262       5263       5274       5273  
      5142       5143       5154       5153       5263       5264       5275       5274  
      5143       5144       5155       5154       5264       5265       5276       5275  
      5144       5145       5156       5155       5265       5266       5277       5276  
      5145       5146       5157       5156       5266       5267       5278       5277  
      5146       5147       5158       5157       5267       5268       5279       5278  
      5147       5148       5159       5158       5268       5269       5280       5279  
      5149       5150       5161       5160       5270       5271       5282       5281  
      5150       5151       5162       5161       5271       5272       5283       5282  
      5151       5152       5163       5162       5272       5273       5284       5283  
      5152       5153       5164       5163       5273       5274       5285       5284  
      5153       5154       5165       5164       5274       5275       5286       5285  
      5154       5155       5166       5165       5275       5276       5287       5286  
      5155       5156       5167       5166       5276       5277       5288       5287  
      5156       5157       5168       5167       5277       5278       5289       5288  
      5157       5158       5169       5168       5278       5279       5290       5289  
      5158       5159       5170       5169       5279       5280       5291       5290  
      5160       5161       5172       5171       5281       5282       5293       5292  
      5161       5162       5173       5172       5282       5283       5294       5293  
      5162       5163       5174       5173       5283       5284       5295       5294  
      5163       5164       5175       5174       5284       5285       5296       5295  
      5164       5165       5176       5175       5285       5286       5297       5296  
      5165       5166       5177       5176       5286       5287       5298       5297  
      5166       5167       5178       5177       5287       5288       5299       5298  
      5167       5168       5179       5178       5288       5289       5300       5299  
      5168       5169       5180       5179       5289       5290       5301       5300  
      5169       5170       5181       5180       5290       5291       5302       5301  
      5171       5172       5183       5182       5292       5293       5304       5303  
      5172       5173       5184       5183       5293       5294       5305       5304  
      5173       5174       5185       5184       5294       5295       5306       5305  
      5174       5175       5186       5185       5295       5296       5307       5306  
      5175       5176       5187       5186       5296       5297       5308       5307  
      5176       5177       5188       5187       5297       5298       5309       5308  
      5177       5178       5189       5188       5298       5299       5310       5309  
      5178       5179       5190       5189       5299       5300       5311       5310  
      5179       5180       5191       5190       5300       5301       5312       5311  
      5180       5181       5192       5191       5301       5302       5313       5312  
      5182       5183       5194       5193       5303       5304       5315       5314  
      5183       5184       5195       5194       5304       5305       5316       5315  
      5184       5185       5196       5195       5305       5306       5317       5316  
      5185       5186       5197       5196       5306       5307       5318       5317  
      5186       5187       5198       5197       5307       5308       5319       5318  
      5187       5188       5199       5198       5308       5309       5320       5319  
      5188       5189       5200       5199       5309       5310       5321       5320  
      5189       5190       5201       5200       5310       5311       5322       5321  
      5190       5191       5202       5201       5311       5312       5323       5322  
      5191       5192       5203       5202       5312       5313       5324       5323  
      5204       5205       5216       5215       5325       5326       5337       5336  
      5205       5206       5217       5216       5326       5327       5338       5337  
      5206       5207       5218       5217       5327       5328       5339       5338  
      5207       5208       5219       5218       5328       5329       5340       5339  
      5208       5209       5220       5219       5329       5330       5341       5340  
      5209       5210       5221       5220       5330       5331       5342       5341  
      5210       5211       5222       5221       5331       5332       5343       5342  
      5211       5212       5223       5222       5332       5333       5344       5343  
      5212       5213       5224       5223       5333       5334       5345       5344  
      5213       5214       5225       5224       5334       5335       5346       5345  
      5215       5216       5227       5226       5336       5337       5348       5347  
      5216       5217       5228       5227       5337       5338       5349       5348  
      5217       5218       5229       5228       5338       5339       5350       5349  
      5218       5219       5230       5229       5339       5340       5351       5350  
      5219       5220       5231       5230       5340       5341       5352       5351  
      5220       5221       5232       5231       5341       5342       5353       5352  
      5221       5222       5233       5232       5342       5343       5354       5353  
      5222       5223       5234       5233       5343       5344       5355       5354  
      5223       5224       5235       5234       5344       5345       5356       5355  
      5224       5225       5236       5235       5345       5346       5357       5356  
      5226       5227       5238       5237       5347       5348       5359       5358  
      5227       5228       5239       5238       5348       5349       5360       5359  
      5228       5229       5240       5239       5349       5350       5361       5360  
      5229       5230       5241       5240       5350       5351       5362       5361  
      5230       5231       5242       5241       5351       5352       5363       5362  
      5231       5232       5243       5242       5352       5353       5364       5363  
      5232       5233       5244       5243       5353       5354       5365       5364  
      5233       5234       5245       5244       5354       5355       5366       5365  
      5234       5235       5246       5245       5355       5356       5367       5366  
      5235       5236       5247       5246       5356       5357       5368       5367  
      5237       5238       5249       5248       5358       5359       5370       5369  
      5238       5239       5250       5249       5359       5360       5371       5370  
      5239       5240       5251       5250       5360       5361       5372       5371  
      5240       5241       5252       5251       5361       5362       5373       5372  
      5241       5242       5253       5252       5362       5363       5374       5373  
      5242       5243       5254       5253       5363       5364       5375       5374  
      5243       5244       5255       5254       5364       5365       5376       5375  
      5244       5245       5256       5255       5365       5366       5377       5376  
      5245       5246       5257       5256       5366       5367       5378       5377  
      5246       5247       5258       5257       5367       5368       5379       5378  
      5248       5249       5260       5259       5369       5370       5381       5380  
      5249       5250       5261       5260       5370       5371       5382       5381  
      5250       5251       5262       5261       5371       5372       5383       5382  
      5251       5252       5263       5262       5372       5373       5384       5383  
      5252       5253       5264       5263       5373       5374       5385       5384  
      5253       5254       5265       5264       5374       5375       5386       5385  
      5254       5255       5266       5265       5375       5376       5387       5386  
      5255       5256       5267       5266       5376       5377       5388       5387  
      5256       5257       5268       5267       5377       5378       5389       5388  
      5257       5258       5269       5268       5378       5379       5390       5389  
      5259       5260       5271       5270       5380       5381       5392       5391  
      5260       5261       5272       5271       5381       5382       5393       5392  
      5261       5262       5273       5272       5382       5383       5394       5393  
      5262       5263       5274       5273       5383       5384       5395       5394  
      5263       5264       5275       5274       5384       5385       5396       5395  
      5264       5265       5276       5275       5385       5386       5397       5396  
      5265       5266       5277       5276       5386       5387       5398       5397  
      5266       5267       5278       5277       5387       5388       5399       5398  
      5267       5268       5279       5278       5388       5389       5400       5399  
      5268       5269       5280       5279       5389       5390       5401       5400  
      5270       5271       5282       5281       5391       5392       5403       5402  
      5271       5272       5283       5282       5392       5393       5404       5403  
      5272       5273       5284       5283       5393       5394       5405       5404  
      5273       5274       5285       5284       5394       5395       5406       5405  
      5274       5275       5286       5285       5395       5396       5407       5406  
      5275       5276       5287       5286       5396       5397       5408       5407  
      5276       5277       5288       5287       5397       5398       5409       5408  
      5277       5278       5289       5288       5398       5399       5410       5409  
      5278       5279       5290       5289       5399       5400       5411       5410  
      5279       5280       5291       5290       5400       5401       5412       5411  
      5281       5282       5293       5292       5402       5403       5414       5413  
      5282       5283       5294       5293       5403       5404       5415       5414  
      5283       5284       5295       5294       5404       5405       5416       5415  
      5284       5285       5296       5295       5405       5406       5417       5416  
      5285       5286       5297       5296       5406       5407       5418       5417  
      5286       5287       5298       5297       5407       5408       5419       5418  
      5287       5288       5299       5298       5408       5409       5420       5419  
      5288       5289       5300       5299       5409       5410       5421       5420  
      5289       5290       5301       5300       5410       5411       5422       5421  
      5290       5291       5302       5301       5411       5412       5423       5422  
      5292       5293       5304       5303       5413       5414       5425       5424  
      5293       5294       5305       5304       5414       5415       5426       5425  
      5294       5295       5306       5305       5415       5416       5427       5426  
      5295       5296       5307       5306       5416       5417       5428       5427  
      5296       5297       5308       5307       5417       5418       5429       5428  
      5297       5298       5309       5308       5418       5419       5430       5429  
      5298       5299       5310       5309       5419       5420       5431       5430  
      5299       5300       5311       5310       5420       5421       5432       5431  
      5300       5301       5312       5311       5421       5422       5433       5432  
      5301       5302       5313       5312       5422       5423       5434       5433  
      5303       5304       5315       5314       5424       5425       5436       5435  
      5304       5305       5316       5315       5425       5426       5437       5436  
      5305       5306       5317       5316       5426       5427       5438       5437  
      5306       5307       5318       5317       5427       5428       5439       5438  
      5307       5308       5319       5318       5428       5429       5440       5439  
      5308       5309       5320       5319       5429       5430       5441       5440  
      5309       5310       5321       5320       5430       5431       5442       5441  
      5310       5311       5322       5321       5431       5432       5443       5442  
      5311       5312       5323       5322       5432       5433       5444       5443  
      5312       5313       5324       5323       5433       5434       5445       5444  
      5325       5326       5337       5336       5446       5447       5458       5457  
      5326       5327       5338       5337       5447       5448       5459       5458  
      5327       5328       5339       5338       5448       5449       5460       5459  
      5328       5329       5340       5339       5449       5450       5461       5460  
      5329       5330       5341       5340       5450       5451       5462       5461  
      5330       5331       5342       5341       5451       5452       5463       5462  
      5331       5332       5343       5342       5452       5453       5464       5463  
      5332       5333       5344       5343       5453       5454       5465       5464  
      5333       5334       5345       5344       5454       5455       5466       5465  
      5334       5335       5346       5345       5455       5456       5467       5466  
      5336       5337       5348       5347       5457       5458       5469       5468  
      5337       5338       5349       5348       5458       5459       5470       5469  
      5338       5339       5350       5349       5459       5460       5471       5470  
      5339       5340       5351       5350       5460       5461       5472       5471  
      5340       5341       5352       5351       5461       5462       5473       5472  
      5341       5342       5353       5352       5462       5463       5474       5473  
      5342       5343       5354       5353       5463       5464       5475       5474  
      5343       5344       5355       5354       5464       5465       5476       5475  
      5344       5345       5356       5355       5465       5466       5477       5476  
      5345       5346       5357       5356       5466       5467       5478       5477  
      5347       5348       5359       5358       5468       5469       5480       5479  
      5348       5349       5360       5359       5469       5470       5481       5480  
      5349       5350       5361       5360       5470       5471       5482       5481  
      5350       5351       5362       5361       5471       5472       5483       5482  
      5351       5352       5363       5362       5472       5473       5484       5483  
      5352       5353       5364       5363       5473       5474       5485       5484  
      5353       5354       5365       5364       5474       5475       5486       5485  
      5354       5355       5366       5365       5475       5476       5487       5486  
      5355       5356       5367       5366       5476       5477       5488       5487  
      5356       5357       5368       5367       5477       5478       5489       5488  
      5358       5359       5370       5369       5479       5480       5491       5490  
      5359       5360       5371       5370       5480       5481       5492       5491  
      5360       5361       5372       5371       5481       5482       5493       5492  
      5361       5362       5373       5372       5482       5483       5494       5493  
      5362       5363       5374       5373       5483       5484       5495       5494  
      5363       5364       5375       5374       5484       5485       5496       5495  
      5364       5365       5376       5375       5485       5486       5497       5496  
      5365       5366       5377       5376       5486       5487       5498       5497  
      5366       5367       5378       5377       5487       5488       5499       5498  
      5367       5368       5379       5378       5488       5489       5500       5499  
      5369       5370       5381       5380       5490       5491       5502       5501  
      5370       5371       5382       5381       5491       5492       5503       5502  
      5371       5372       5383       5382       5492       5493       5504       5503  
      5372       5373       5384       5383       5493       5494       5505       5504  
      5373       5374       5385       5384       5494       5495       5506       5505  
      5374       5375       5386       5385       5495       5496       5507       5506  
      5375       5376       5387       5386       5496       5497       5508       5507  
      5376       5377       5388       5387       5497       5498       5509       5508  
      5377       5378       5389       5388       5498       5499       5510       5509  
      5378       5379       5390       5389       5499       5500       5511       5510  
      5380       5381       5392       5391       5501       5502       5513       5512  
      5381       5382       5393       5392       5502       5503       5514       5513  
      5382       5383       5394       5393       5503       5504       5515       5514  
      5383       5384       5395       5394       5504       5505       5516       5515  
      5384       5385       5396       5395       5505       5506       5517       5516  
      5385       5386       5397       5396       5506       5507       5518       5517  
      5386       5387       5398       5397       5507       5508       5519       5518  
      5387       5388       5399       5398       5508       5509       5520       5519  
      5388       5389       5400       5399       5509       5510       5521       5520  
      5389       5390       5401       5400       5510       5511       5522       5521  
      5391       5392       5403       5402       5512       5513       5524       5523  
      5392       5393       5404       5403       5513       5514       5525       5524  
      5393       5394       5405       5404       5514       5515       5526       5525  
      5394       5395       5406       5405       5515       5516       5527       5526  
      5395       5396       5407       5406       5516       5517       5528       5527  
      5396       5397       5408       5407       5517       5518       5529       5528  
      5397       5398       5409       5408       5518       5519       5530       5529  
      5398       5399       5410       5409       5519       5520       5531       5530  
      5399       5400       5411       5410       5520       5521       5532       5531  
      5400       5401       5412       5411       5521       5522       5533       5532  
      5402       5403       5414       5413       5523       5524       5535       5534  
      5403       5404       5415       5414       5524       5525       5536       5535  
      5404       5405       5416       5415       5525       5526       5537       5536  
      5405       5406       5417       5416       5526       5527       5538       5537  
      5406       5407       5418       5417       5527       5528       5539       5538  
      5407       5408       5419       5418       5528       5529       5540       5539  
      5408       5409       5420       5419       5529       5530       5541       5540  
      5409       5410       5421       5420       5530       5531       5542       5541  
      5410       5411       5422       5421       5531       5532       5543       5542  
      5411       5412       5423       5422       5532       5533       5544       5543  
      5413       5414       5425       5424       5534       5535       5546       5545  
      5414       5415       5426       5425       5535       5536       5547       5546  
      5415       5416       5427       5426       5536       5537       5548       5547  
      5416       5417       5428       5427       5537       5538       5549       5548  
      5417       5418       5429       5428       5538       5539       5550       5549  
      5418       5419       5430       5429       5539       5540       5551       5550  
      5419       5420       5431       5430       5540       5541       5552       5551  
      5420       5421       5432       5431       5541       5542       5553       5552  
      5421       5422       5433       5432       5542       5543       5554       5553  
      5422       5423       5434       5433       5543       5544       5555       5554  
      5424       5425       5436       5435       5545       5546       5557       5556  
      5425       5426       5437       5436       5546       5547       5558       5557  
      5426       5427       5438       5437       5547       5548       5559       5558  
      5427       5428       5439       5438       5548       5549       5560       5559  
      5428       5429       5440       5439       5549       5550       5561       5560  
      5429       5430       5441       5440       5550       5551       5562       5561  
      5430       5431       5442       5441       5551       5552       5563       5562  
      5431       5432       5443       5442       5552       5553       5564       5563  
      5432       5433       5444       5443       5553       5554       5565       5564  
      5433       5434       5445       5444       5554       5555       5566       5565  
      5446       5447       5458       5457       5567       5568       5579       5578  
      5447       5448       5459       5458       5568       5569       5580       5579  
      5448       5449       5460       5459       5569       5570       5581       5580  
      5449       5450       5461       5460       5570       5571       5582       5581  
      5450       5451       5462       5461       5571       5572       5583       5582  
      5451       5452       5463       5462       5572       5573       5584       5583  
      5452       5453       5464       5463       5573       5574       5585       5584  
      5453       5454       5465       5464       5574       5575       5586       5585  
      5454       5455       5466       5465       5575       5576       5587       5586  
      5455       5456       5467       5466       5576       5577       5588       5587  
      5457       5458       5469       5468       5578       5579       5590       5589  
      5458       5459       5470       5469       5579       5580       5591       5590  
      5459       5460       5471       5470       5580       5581       5592       5591  
      5460       5461       5472       5471       5581       5582       5593       5592  
      5461       5462       5473       5472       5582       5583       5594       5593  
      5462       5463       5474       5473       5583       5584       5595       5594  
      5463       5464       5475       5474       5584       5585       5596       5595  
      5464       5465       5476       5475       5585       5586       5597       5596  
      5465       5466       5477       5476       5586       5587       5598       5597  
      5466       5467       5478       5477       5587       5588       5599       5598  
      5468       5469       5480       5479       5589       5590       5601       5600  
      5469       5470       5481       5480       5590       5591       5602       5601  
      5470       5471       5482       5481       5591       5592       5603       5602  
      5471       5472       5483       5482       5592       5593       5604       5603  
      5472       5473       5484       5483       5593       5594       5605       5604  
      5473       5474       5485       5484       5594       5595       5606       5605  
      5474       5475       5486       5485       5595       5596       5607       5606  
      5475       5476       5487       5486       5596       5597       5608       5607  
      5476       5477       5488       5487       5597       5598       5609       5608  
      5477       5478       5489       5488       5598       5599       5610       5609  
      5479       5480       5491       5490       5600       5601       5612       5611  
      5480       5481       5492       5491       5601       5602       5613       5612  
      5481       5482       5493       5492       5602       5603       5614       5613  
      5482       5483       5494       5493       5603       5604       5615       5614  
      5483       5484       5495       5494       5604       5605       5616       5615  
      5484       5485       5496       5495       5605       5606       5617       5616  
      5485       5486       5497       5496       5606       5607       5618       5617  
      5486       5487       5498       5497       5607       5608       5619       5618  
      5487       5488       5499       5498       5608       5609       5620       5619  
      5488       5489       5500       5499       5609       5610       5621       5620  
      5490       5491       5502       5501       5611       5612       5623       5622  
      5491       5492       5503       5502       5612       5613       5624       5623  
      5492       5493       5504       5503       5613       5614       5625       5624  
      5493       5494       5505       5504       5614       5615       5626       5625  
      5494       5495       5506       5505       5615       5616       5627       5626  
      5495       5496       5507       5506       5616       5617       5628       5627  
      5496       5497       5508       5507       5617       5618       5629       5628  
      5497       5498       5509       5508       5618       5619       5630       5629  
      5498       5499       5510       5509       5619       5620       5631       5630  
      5499       5500       5511       5510       5620       5621       5632       5631  
      5501       5502       5513       5512       5622       5623       5634       5633  
      5502       5503       5514       5513       5623       5624       5635       5634  
      5503       5504       5515       5514       5624       5625       5636       5635  
      5504       5505       5516       5515       5625       5626       5637       5636  
      5505       5506       5517       5516       5626       5627       5638       5637  
      5506       5507       5518       5517       5627       5628       5639       5638  
      5507       5508       5519       5518       5628       5629       5640       5639  
      5508       5509       5520       5519       5629       5630       5641       5640  
      5509       5510       5521       5520       5630       5631       5642       5641  
      5510       5511       5522       5521       5631       5632       5643       5642  
      5512       5513       5524       5523       5633       5634       5645       5644  
      5513       5514       5525       5524       5634       5635       5646       5645  
      5514       5515       5526       5525       5635       5636       5647       5646  
      5515       5516       5527       5526       5636       5637       5648       5647  
      5516       5517       5528       5527       5637       5638       5649       5648  
      5517       5518       5529       5528       5638       5639       5650       5649  
      5518       5519       5530       5529       5639       5640       5651       5650  
      5519       5520       5531       5530       5640       5641       5652       5651  
      5520       5521       5532       5531       5641       5642       5653       5652  
      5521       5522       5533       5532       5642       5643       5654       5653  
      5523       5524       5535       5534       5644       5645       5656       5655  
      5524       5525       5536       5535       5645       5646       5657       5656  
      5525       5526       5537       5536       5646       5647       5658       5657  
      5526       5527       5538       5537       5647       5648       5659       5658  
      5527       5528       5539       5538       5648       5649       5660       5659  
      5528       5529       5540       5539       5649       5650       5661       5660  
      5529       5530       5541       5540       5650       5651       5662       5661  
      5530       5531       5542       5541       5651       5652       5663       5662  
      5531       5532       5543       5542       5652       5653       5664       5663  
      5532       5533       5544       5543       5653       5654       5665       5664  
      5534       5535       5546       5545       5655       5656       5667       5666  
      5535       5536       5547       5546       5656       5657       5668       5667  
      5536       5537       5548       5547       5657       5658       5669       5668  
      5537       5538       5549       5548       5658       5659       5670       5669  
      5538       5539       5550       5549       5659       5660       5671       5670  
      5539       5540       5551       5550       5660       5661       5672       5671  
      5540       5541       5552       5551       5661       5662       5673       5672  
      5541       5542       5553       5552       5662       5663       5674       5673  
      5542       5543       5554       5553       5663       5664       5675       5674  
      5543       5544       5555       5554       5664       5665       5676       5675  
      5545       5546       5557       5556       5666       5667       5678       5677  
      5546       5547       5558       5557       5667       5668       5679       5678  
      5547       5548       5559       5558       5668       5669       5680       5679  
      5548       5549       5560       5559       5669       5670       5681       5680  
      5549       5550       5561       5560       5670       5671       5682       5681  
      5550       5551       5562       5561       5671       5672       5683       5682  
      5551       5552       5563       5562       5672       5673       5684       5683  
      5552       5553       5564       5563       5673       5674       5685       5684  
      5553       5554       5565       5564       5674       5675       5686       5685  
      5554       5555       5566       5565       5675       5676       5687       5686  
      5567       5568       5579       5578       5688       5689       5700       5699  
      5568       5569       5580       5579       5689       5690       5701       5700  
      5569       5570       5581       5580       5690       5691       5702       5701  
      5570       5571       5582       5581       5691       5692       5703       5702  
      5571       5572       5583       5582       5692       5693       5704       5703  
      5572       5573       5584       5583       5693       5694       5705       5704  
      5573       5574       5585       5584       5694       5695       5706       5705  
      5574       5575       5586       5585       5695       5696       5707       5706  
      5575       5576       5587       5586       5696       5697       5708       5707  
      5576       5577       5588       5587       5697       5698       5709       5708  
      5578       5579       5590       5589       5699       5700       5711       5710  
      5579       5580       5591       5590       5700       5701       5712       5711  
      5580       5581       5592       5591       5701       5702       5713       5712  
      5581       5582       5593       5592       5702       5703       5714       5713  
      5582       5583       5594       5593       5703       5704       5715       5714  
      5583       5584       5595       5594       5704       5705       5716       5715  
      5584       5585       5596       5595       5705       5706       5717       5716  
      5585       5586       5597       5596       5706       5707       5718       5717  
      5586       5587       5598       5597       5707       5708       5719       5718  
      5587       5588       5599       5598       5708       5709       5720       5719  
      5589       5590       5601       5600       5710       5711       5722       5721  
      5590       5591       5602       5601       5711       5712       5723       5722  
      5591       5592       5603       5602       5712       5713       5724       5723  
      5592       5593       5604       5603       5713       5714       5725       5724  
      5593       5594       5605       5604       5714       5715       5726       5725  
      5594       5595       5606       5605       5715       5716       5727       5726  
      5595       5596       5607       5606       5716       5717       5728       5727  
      5596       5597       5608       5607       5717       5718       5729       5728  
      5597       5598       5609       5608       5718       5719       5730       5729  
      5598       5599       5610       5609       5719       5720       5731       5730  
      5600       5601       5612       5611       5721       5722       5733       5732  
      5601       5602       5613       5612       5722       5723       5734       5733  
      5602       5603       5614       5613       5723       5724       5735       5734  
      5603       5604       5615       5614       5724       5725       5736       5735  
      5604       5605       5616       5615       5725       5726       5737       5736  
      5605       5606       5617       5616       5726       5727       5738       5737  
      5606       5607       5618       5617       5727       5728       5739       5738  
      5607       5608       5619       5618       5728       5729       5740       5739  
      5608       5609       5620       5619       5729       5730       5741       5740  
      5609       5610       5621       5620       5730       5731       5742       5741  
      5611       5612       5623       5622       5732       5733       5744       5743  
      5612       5613       5624       5623       5733       5734       5745       5744  
      5613       5614       5625       5624       5734       5735       5746       5745  
      5614       5615       5626       5625       5735       5736       5747       5746  
      5615       5616       5627       5626       5736       5737       5748       5747  
      5616       5617       5628       5627       5737       5738       5749       5748  
      5617       5618       5629       5628       5738       5739       5750       5749  
      5618       5619       5630       5629       5739       5740       5751       5750  
      5619       5620       5631       5630       5740       5741       5752       5751  
      5620       5621       5632       5631       5741       5742       5753       5752  
      5622       5623       5634       5633       5743       5744       5755       5754  
      5623       5624       5635       5634       5744       5745       5756       5755  
      5624       5625       5636       5635       5745       5746       5757       5756  
      5625       5626       5637       5636       5746       5747       5758       5757  
      5626       5627       5638       5637       5747       5748       5759       5758  
      5627       5628       5639       5638       5748       5749       5760       5759  
      5628       5629       5640       5639       5749       5750       5761       5760  
      5629       5630       5641       5640       5750       5751       5762       5761  
      5630       5631       5642       5641       5751       5752       5763       5762  
      5631       5632       5643       5642       5752       5753       5764       5763  
      5633       5634       5645       5644       5754       5755       5766       5765  
      5634       5635       5646       5645       5755       5756       5767       5766  
      5635       5636       5647       5646       5756       5757       5768       5767  
      5636       5637       5648       5647       5757       5758       5769       5768  
      5637       5638       5649       5648       5758       5759       5770       5769  
      5638       5639       5650       5649       5759       5760       5771       5770  
      5639       5640       5651       5650       5760       5761       5772       5771  
      5640       5641       5652       5651       5761       5762       5773       5772  
      5641       5642       5653       5652       5762       5763       5774       5773  
      5642       5643       5654       5653       5763       5764       5775       5774  
      5644       5645       5656       5655       5765       5766       5777       5776  
      5645       5646       5657       5656       5766       5767       5778       5777  
      5646       5647       5658       5657       5767       5768       5779       5778  
      5647       5648       5659       5658       5768       5769       5780       5779  
      5648       5649       5660       5659       5769       5770       5781       5780  
      5649       5650       5661       5660       5770       5771       5782       5781  
      5650       5651       5662       5661       5771       5772       5783       5782  
      5651       5652       5663       5662       5772       5773       5784       5783  
      5652       5653       5664       5663       5773       5774       5785       5784  
      5653       5654       5665       5664       5774       5775       5786       5785  
      5655       5656       5667       5666       5776       5777       5788       5787  
      5656       5657       5668       5667       5777       5778       5789       5788  
      5657       5658       5669       5668       5778       5779       5790       5789  
      5658       5659       5670       5669       5779       5780       5791       5790  
      5659       5660       5671       5670       5780       5781       5792       5791  
      5660       5661       5672       5671       5781       5782       5793       5792  
      5661       5662       5673       5672       5782       5783       5794       5793  
      5662       5663       5674       5673       5783       5784       5795       5794  
      5663       5664       5675       5674       5784       5785       5796       5795  
      5664       5665       5676       5675       5785       5786       5797       5796  
      5666       5667       5678       5677       5787       5788       5799       5798  
      5667       5668       5679       5678       5788       5789       5800       5799  
      5668       5669       5680       5679       5789       5790       5801       5800  
      5669       5670       5681       5680       5790       5791       5802       5801  
      5670       5671       5682       5681       5791       5792       5803       5802  
      5671       5672       5683       5682       5792       5793       5804       5803  
      5672       5673       5684       5683       5793       5794       5805       5804  
      5673       5674       5685       5684       5794       5795       5806       5805  
      5674       5675       5686       5685       5795       5796       5807       5806  
      5675       5676       5687       5686       5796       5797       5808       5807  
      5688       5689       5700       5699       5809       5810       5821       5820  
      5689       5690       5701       5700       5810       5811       5822       5821  
      5690       5691       5702       5701       5811       5812       5823       5822  
      5691       5692       5703       5702       5812       5813       5824       5823  
      5692       5693       5704       5703       5813       5814       5825       5824  
      5693       5694       5705       5704       5814       5815       5826       5825  
      5694       5695       5706       5705       5815       5816       5827       5826  
      5695       5696       5707       5706       5816       5817       5828       5827  
      5696       5697       5708       5707       5817       5818       5829       5828  
      5697       5698       5709       5708       5818       5819       5830       5829  
      5699       5700       5711       5710       5820       5821       5832       5831  
      5700       5701       5712       5711       5821       5822       5833       5832  
      5701       5702       5713       5712       5822       5823       5834       5833  
      5702       5703       5714       5713       5823       5824       5835       5834  
      5703       5704       5715       5714       5824       5825       5836       5835  
      5704       5705       5716       5715       5825       5826       5837       5836  
      5705       5706       5717       5716       5826       5827       5838       5837  
      5706       5707       5718       5717       5827       5828       5839       5838  
      5707       5708       5719       5718       5828       5829       5840       5839  
      5708       5709       5720       5719       5829       5830       5841       5840  
      5710       5711       5722       5721       5831       5832       5843       5842  
      5711       5712       5723       5722       5832       5833       5844       5843  
      5712       5713       5724       5723       5833       5834       5845       5844  
      5713       5714       5725       5724       5834       5835       5846       5845  
      5714       5715       5726       5725       5835       5836       5847       5846  
      5715       5716       5727       5726       5836       5837       5848       5847  
      5716       5717       5728       5727       5837       5838       5849       5848  
      5717       5718       5729       5728       5838       5839       5850       5849  
      5718       5719       5730       5729       5839       5840       5851       5850  
      5719       5720       5731       5730       5840       5841       5852       5851  
      5721       5722       5733       5732       5842       5843       5854       5853  
      5722       5723       5734       5733       5843       5844       5855       5854  
      5723       5724       5735       5734       5844       5845       5856       5855  
      5724       5725       5736       5735       5845       5846       5857       5856  
      5725       5726       5737       5736       5846       5847       5858       5857  
      5726       5727       5738       5737       5847       5848       5859       5858  
      5727       5728       5739       5738       5848       5849       5860       5859  
      5728       5729       5740       5739       5849       5850       5861       5860  
      5729       5730       5741       5740       5850       5851       5862       5861  
      5730       5731       5742       5741       5851       5852       5863       5862  
      5732       5733       5744       5743       5853       5854       5865       5864  
      5733       5734       5745       5744       5854       5855       5866       5865  
      5734       5735       5746       5745       5855       5856       5867       5866  
      5735       5736       5747       5746       5856       5857       5868       5867  
      5736       5737       5748       5747       5857       5858       5869       5868  
      5737       5738       5749       5748       5858       5859       5870       5869  
      5738       5739       5750       5749       5859       5860       5871       5870  
      5739       5740       5751       5750       5860       5861       5872       5871  
      5740       5741       5752       5751       5861       5862       5873       5872  
      5741       5742       5753       5752       5862       5863       5874       5873  
      5743       5744       5755       5754       5864       5865       5876       5875  
      5744       5745       5756       5755       5865       5866       5877       5876  
      5745       5746       5757       5756       5866       5867       5878       5877  
      5746       5747       5758       5757       5867       5868       5879       5878  
      5747       5748       5759       5758       5868       5869       5880       5879  
      5748       5749       5760       5759       5869       5870       5881       5880  
      5749       5750       5761       5760       5870       5871       5882       5881  
      5750       5751       5762       5761       5871       5872       5883       5882  
      5751       5752       5763       5762       5872       5873       5884       5883  
      5752       5753       5764       5763       5873       5874       5885       5884  
      5754       5755       5766       5765       5875       5876       5887       5886  
      5755       5756       5767       5766       5876       5877       5888       5887  
      5756       5757       5768       5767       5877       5878       5889       5888  
      5757       5758       5769       5768       5878       5879       5890       5889  
      5758       5759       5770       5769       5879       5880       5891       5890  
      5759       5760       5771       5770       5880       5881       5892       5891  
      5760       5761       5772       5771       5881       5882       5893       5892  
      5761       5762       5773       5772       5882       5883       5894       5893  
      5762       5763       5774       5773       5883       5884       5895       5894  
      5763       5764       5775       5774       5884       5885       5896       5895  
      5765       5766       5777       5776       5886       5887       5898       5897  
      5766       5767       5778       5777       5887       5888       5899       5898  
      5767       5768       5779       5778       5888       5889       5900       5899  
      5768       5769       5780       5779       5889       5890       5901       5900  
      5769       5770       5781       5780       5890       5891       5902       5901  
      5770       5771       5782       5781       5891       5892       5903       5902  
      5771       5772       5783       5782       5892       5893       5904       5903  
      5772       5773       5784       5783       5893       5894       5905       5904  
      5773       5774       5785       5784       5894       5895       5906       5905  
      5774       5775       5786       5785       5895       5896       5907       5906  
      5776       5777       5788       5787       5897       5898       5909       5908  
      5777       5778       5789       5788       5898       5899       5910       5909  
      5778       5779       5790       5789       5899       5900       5911       5910  
      5779       5780       5791       5790       5900       5901       5912       5911  
      5780       5781       5792       5791       5901       5902       5913       5912  
      5781       5782       5793       5792       5902       5903       5914       5913  
      5782       5783       5794       5793       5903       5904       5915       5914  
      5783       5784       5795       5794       5904       5905       5916       5915  
      5784       5785       5796       5795       5905       5906       5917       5916  
      5785       5786       5797       5796       5906       5907       5918       5917  
      5787       5788       5799       5798       5908       5909       5920       5919  
      5788       5789       5800       5799       5909       5910       5921       5920  
      5789       5790       5801       5800       5910       5911       5922       5921  
      5790       5791       5802       5801       5911       5912       5923       5922  
      5791       5792       5803       5802       5912       5913       5924       5923  
      5792       5793       5804       5803       5913       5914       5925       5924  
      5793       5794       5805       5804       5914       5915       5926       5925  
      5794       5795       5806       5805       5915       5916       5927       5926  
      5795       5796       5807       5806       5916       5917       5928       5927  
      5796       5797       5808       5807       5917       5918       5929       5928  
      5809       5810       5821       5820       5930       5931       5942       5941  
      5810       5811       5822       5821       5931       5932       5943       5942  
      5811       5812       5823       5822       5932       5933       5944       5943  
      5812       5813       5824       5823       5933       5934       5945       5944  
      5813       5814       5825       5824       5934       5935       5946       5945  
      5814       5815       5826       5825       5935       5936       5947       5946  
      5815       5816       5827       5826       5936       5937       5948       5947  
      5816       5817       5828       5827       5937       5938       5949       5948  
      5817       5818       5829       5828       5938       5939       5950       5949  
      5818       5819       5830       5829       5939       5940       5951       5950  
      5820       5821       5832       5831       5941       5942       5953       5952  
      5821       5822       5833       5832       5942       5943       5954       5953  
      5822       5823       5834       5833       5943       5944       5955       5954  
      5823       5824       5835       5834       5944       5945       5956       5955  
      5824       5825       5836       5835       5945       5946       5957       5956  
      5825       5826       5837       5836       5946       5947       5958       5957  
      5826       5827       5838       5837       5947       5948       5959       5958  
      5827       5828       5839       5838       5948       5949       5960       5959  
      5828       5829       5840       5839       5949       5950       5961       5960  
      5829       5830       5841       5840       5950       5951       5962       5961  
      5831       5832       5843       5842       5952       5953       5964       5963  
      5832       5833       5844       5843       5953       5954       5965       5964  
      5833       5834       5845       5844       5954       5955       5966       5965  
      5834       5835       5846       5845       5955       5956       5967       5966  
      5835       5836       5847       5846       5956       5957       5968       5967  
      5836       5837       5848       5847       5957       5958       5969       5968  
      5837       5838       5849       5848       5958       5959       5970       5969  
      5838       5839       5850       5849       5959       5960       5971       5970  
      5839       5840       5851       5850       5960       5961       5972       5971  
      5840       5841       5852       5851       5961       5962       5973       5972  
      5842       5843       5854       5853       5963       5964       5975       5974  
      5843       5844       5855       5854       5964       5965       5976       5975  
      5844       5845       5856       5855       5965       5966       5977       5976  
      5845       5846       5857       5856       5966       5967       5978       5977  
      5846       5847       5858       5857       5967       5968       5979       5978  
      5847       5848       5859       5858       5968       5969       5980       5979  
      5848       5849       5860       5859       5969       5970       5981       5980  
      5849       5850       5861       5860       5970       5971       5982       5981  
      5850       5851       5862       5861       5971       5972       5983       5982  
      5851       5852       5863       5862       5972       5973       5984       5983  
      5853       5854       5865       5864       5974       5975       5986       5985  
      5854       5855       5866       5865       5975       5976       5987       5986  
      5855       5856       5867       5866       5976       5977       5988       5987  
      5856       5857       5868       5867       5977       5978       5989       5988  
      5857       5858       5869       5868       5978       5979       5990       5989  
      5858       5859       5870       5869       5979       5980       5991       5990  
      5859       5860       5871       5870       5980       5981       5992       5991  
      5860       5861       5872       5871       5981       5982       5993       5992  
      5861       5862       5873       5872       5982       5983       5994       5993  
      5862       5863       5874       5873       5983       5984       5995       5994  
      5864       5865       5876       5875       5985       5986       5997       5996  
      5865       5866       5877       5876       5986       5987       5998       5997  
      5866       5867       5878       5877       5987       5988       5999       5998  
      5867       5868       5879       5878       5988       5989       6000       5999  
      5868       5869       5880       5879       5989       5990       6001       6000  
      5869       5870       5881       5880       5990       5991       6002       6001  
      5870       5871       5882       5881       5991       5992       6003       6002  
      5871       5872       5883       5882       5992       5993       6004       6003  
      5872       5873       5884       5883       5993       5994       6005       6004  
      5873       5874       5885       5884       5994       5995       6006       6005  
      5875       5876       5887       5886       5996       5997       6008       6007  
      5876       5877       5888       5887       5997       5998       6009       6008  
      5877       5878       5889       5888       5998       5999       6010       6009  
      5878       5879       5890       5889       5999       6000       6011       6010  
      5879       5880       5891       5890       6000       6001       6012       6011  
      5880       5881       5892       5891       6001       6002       6013       6012  
      5881       5882       5893       5892       6002       6003       6014       6013  
      5882       5883       5894       5893       6003       6004       6015       6014  
      5883       5884       5895       5894       6004       6005       6016       6015  
      5884       5885       5896       5895       6005       6006       6017       6016  
      5886       5887       5898       5897       6007       6008       6019       6018  
      5887       5888       5899       5898       6008       6009       6020       6019  
      5888       5889       5900       5899       6009       6010       6021       6020  
      5889       5890       5901       5900       6010       6011       6022       6021  
      5890       5891       5902       5901       6011       6012       6023       6022  
      5891       5892       5903       5902       6012       6013       6024       6023  
      5892       5893       5904       5903       6013       6014       6025       6024  
      5893       5894       5905       5904       6014       6015       6026       6025  
      5894       5895       5906       5905       6015       6016       6027       6026  
      5895       5896       5907       5906       6016       6017       6028       6027  
      5897       5898       5909       5908       6018       6019       6030       6029  
      5898       5899       5910       5909       6019       6020       6031       6030  
      5899       5900       5911       5910       6020       6021       6032       6031  
      5900       5901       5912       5911       6021       6022       6033       6032  
      5901       5902       5913       5912       6022       6023       6034       6033  
      5902       5903       5914       5913       6023       6024       6035       6034  
      5903       5904       5915       5914       6024       6025       6036       6035  
      5904       5905       5916       5915       6025       6026       6037       6036  
      5905       5906       5917       5916       6026       6027       6038       6037  
      5906       5907       5918       5917       6027       6028       6039       6038  
      5908       5909       5920       5919       6029       6030       6041       6040  
      5909       5910       5921       5920       6030       6031       6042       6041  
      5910       5911       5922       5921       6031       6032       6043       6042  
      5911       5912       5923       5922       6032       6033       6044       6043  
      5912       5913       5924       5923       6033       6034       6045       6044  
      5913       5914       5925       5924       6034       6035       6046       6045  
      5914       5915       5926       5925       6035       6036       6047       6046  
      5915       5916       5927       5926       6036       6037       6048       6047  
      5916       5917       5928       5927       6037       6038       6049       6048  
      5917       5918       5929       5928       6038       6039       6050       6049  
      5930       5931       5942       5941       6051       6052       6063       6062  
      5931       5932       5943       5942       6052       6053       6064       6063  
      5932       5933       5944       5943       6053       6054       6065       6064  
      5933       5934       5945       5944       6054       6055       6066       6065  
      5934       5935       5946       5945       6055       6056       6067       6066  
      5935       5936       5947       5946       6056       6057       6068       6067  
      5936       5937       5948       5947       6057       6058       6069       6068  
      5937       5938       5949       5948       6058       6059       6070       6069  
      5938       5939       5950       5949       6059       6060       6071       6070  
      5939       5940       5951       5950       6060       6061       6072       6071  
      5941       5942       5953       5952       6062       6063       6074       6073  
      5942       5943       5954       5953       6063       6064       6075       6074  
      5943       5944       5955       5954       6064       6065       6076       6075  
      5944       5945       5956       5955       6065       6066       6077       6076  
      5945       5946       5957       5956       6066       6067       6078       6077  
      5946       5947       5958       5957       6067       6068       6079       6078  
      5947       5948       5959       5958       6068       6069       6080       6079  
      5948       5949       5960       5959       6069       6070       6081       6080  
      5949       5950       5961       5960       6070       6071       6082       6081  
      5950       5951       5962       5961       6071       6072       6083       6082  
      5952       5953       5964       5963       6073       6074       6085       6084  
      5953       5954       5965       5964       6074       6075       6086       6085  
      5954       5955       5966       5965       6075       6076       6087       6086  
      5955       5956       5967       5966       6076       6077       6088       6087  
      5956       5957       5968       5967       6077       6078       6089       6088  
      5957       5958       5969       5968       6078       6079       6090       6089  
      5958       5959       5970       5969       6079       6080       6091       6090  
      5959       5960       5971       5970       6080       6081       6092       6091  
      5960       5961       5972       5971       6081       6082       6093       6092  
      5961       5962       5973       5972       6082       6083       6094       6093  
      5963       5964       5975       5974       6084       6085       6096       6095  
      5964       5965       5976       5975       6085       6086       6097       6096  
      5965       5966       5977       5976       6086       6087       6098       6097  
      5966       5967       5978       5977       6087       6088       6099       6098  
      5967       5968       5979       5978       6088       6089       6100       6099  
      5968       5969       5980       5979       6089       6090       6101       6100  
      5969       5970       5981       5980       6090       6091       6102       6101  
      5970       5971       5982       5981       6091       6092       6103       6102  
      5971       5972       5983       5982       6092       6093       6104       6103  
      5972       5973       5984       5983       6093       6094       6105       6104  
      5974       5975       5986       5985       6095       6096       6107       6106  
      5975       5976       5987       5986       6096       6097       6108       6107  
      5976       5977       5988       5987       6097       6098       6109       6108  
      5977       5978       5989       5988       6098       6099       6110       6109  
      5978       5979       5990       5989       6099       6100       6111       6110  
      5979       5980       5991       5990       6100       6101       6112       6111  
      5980       5981       5992       5991       6101       6102       6113       6112  
      5981       5982       5993       5992       6102       6103       6114       6113  
      5982       5983       5994       5993       6103       6104       6115       6114  
      5983       5984       5995       5994       6104       6105       6116       6115  
      5985       5986       5997       5996       6106       6107       6118       6117  
      5986       5987       5998       5997       6107       6108       6119       6118  
      5987       5988       5999       5998       6108       6109       6120       6119  
      5988       5989       6000       5999       6109       6110       6121       6120  
      5989       5990       6001       6000       6110       6111       6122       6121  
      5990       5991       6002       6001       6111       6112       6123       6122  
      5991       5992       6003       6002       6112       6113       6124       6123  
      5992       5993       6004       6003       6113       6114       6125       6124  
      5993       5994       6005       6004       6114       6115       6126       6125  
      5994       5995       6006       6005       6115       6116       6127       6126  
      5996       5997       6008       6007       6117       6118       6129       6128  
      5997       5998       6009       6008       6118       6119       6130       6129  
      5998       5999       6010       6009       6119       6120       6131       6130  
      5999       6000       6011       6010       6120       6121       6132       6131  
      6000       6001       6012       6011       6121       6122       6133       6132  
      6001       6002       6013       6012       6122       6123       6134       6133  
      6002       6003       6014       6013       6123       6124       6135       6134  
      6003       6004       6015       6014       6124       6125       6136       6135  
      6004       6005       6016       6015       6125       6126       6137       6136  
      6005       6006       6017       6016       6126       6127       6138       6137  
      6007       6008       6019       6018       6128       6129       6140       6139  
      6008       6009       6020       6019       6129       6130       6141       6140  
      6009       6010       6021       6020       6130       6131       6142       6141  
      6010       6011       6022       6021       6131       6132       6143       6142  
      6011       6012       6023       6022       6132       6133       6144       6143  
      6012       6013       6024       6023       6133       6134       6145       6144  
      6013       6014       6025       6024       6134       6135       6146       6145  
      6014       6015       6026       6025       6135       6136       6147       6146  
      6015       6016       6027       6026       6136       6137       6148       6147  
      6016       6017       6028       6027       6137       6138       6149       6148  
      6018       6019       6030       6029       6139       6140       6151       6150  
      6019       6020       6031       6030       6140       6141       6152       6151  
      6020       6021       6032       6031       6141       6142       6153       6152  
      6021       6022       6033       6032       6142       6143       6154       6153  
      6022       6023       6034       6033       6143       6144       6155       6154  
      6023       6024       6035       6034       6144       6145       6156       6155  
      6024       6025       6036       6035       6145       6146       6157       6156  
      6025       6026       6037       6036       6146       6147       6158       6157  
      6026       6027       6038       6037       6147       6148       6159       6158  
      6027       6028       6039       6038       6148       6149       6160       6159  
      6029       6030       6041       6040       6150       6151       6162       6161  
      6030       6031       6042       6041       6151       6152       6163       6162  
      6031       6032       6043       6042       6152       6153       6164       6163  
      6032       6033       6044       6043       6153       6154       6165       6164  
      6033       6034       6045       6044       6154       6155       6166       6165  
      6034       6035       6046       6045       6155       6156       6167       6166  
      6035       6036       6047       6046       6156       6157       6168       6167  
      6036       6037       6048       6047       6157       6158       6169       6168  
      6037       6038       6049       6048       6158       6159       6170       6169  
      6038       6039       6050       6049       6159       6160       6171       6170  
      6051       6052       6063       6062       6172       6173       6184       6183  
      6052       6053       6064       6063       6173       6174       6185       6184  
      6053       6054       6065       6064       6174       6175       6186       6185  
      6054       6055       6066       6065       6175       6176       6187       6186  
      6055       6056       6067       6066       6176       6177       6188       6187  
      6056       6057       6068       6067       6177       6178       6189       6188  
      6057       6058       6069       6068       6178       6179       6190       6189  
      6058       6059       6070       6069       6179       6180       6191       6190  
      6059       6060       6071       6070       6180       6181       6192       6191  
      6060       6061       6072       6071       6181       6182       6193       6192  
      6062       6063       6074       6073       6183       6184       6195       6194  
      6063       6064       6075       6074       6184       6185       6196       6195  
      6064       6065       6076       6075       6185       6186       6197       6196  
      6065       6066       6077       6076       6186       6187       6198       6197  
      6066       6067       6078       6077       6187       6188       6199       6198  
      6067       6068       6079       6078       6188       6189       6200       6199  
      6068       6069       6080       6079       6189       6190       6201       6200  
      6069       6070       6081       6080       6190       6191       6202       6201  
      6070       6071       6082       6081       6191       6192       6203       6202  
      6071       6072       6083       6082       6192       6193       6204       6203  
      6073       6074       6085       6084       6194       6195       6206       6205  
      6074       6075       6086       6085       6195       6196       6207       6206  
      6075       6076       6087       6086       6196       6197       6208       6207  
      6076       6077       6088       6087       6197       6198       6209       6208  
      6077       6078       6089       6088       6198       6199       6210       6209  
      6078       6079       6090       6089       6199       6200       6211       6210  
      6079       6080       6091       6090       6200       6201       6212       6211  
      6080       6081       6092       6091       6201       6202       6213       6212  
      6081       6082       6093       6092       6202       6203       6214       6213  
      6082       6083       6094       6093       6203       6204       6215       6214  
      6084       6085       6096       6095       6205       6206       6217       6216  
      6085       6086       6097       6096       6206       6207       6218       6217  
      6086       6087       6098       6097       6207       6208       6219       6218  
      6087       6088       6099       6098       6208       6209       6220       6219  
      6088       6089       6100       6099       6209       6210       6221       6220  
      6089       6090       6101       6100       6210       6211       6222       6221  
      6090       6091       6102       6101       6211       6212       6223       6222  
      6091       6092       6103       6102       6212       6213       6224       6223  
      6092       6093       6104       6103       6213       6214       6225       6224  
      6093       6094       6105       6104       6214       6215       6226       6225  
      6095       6096       6107       6106       6216       6217       6228       6227  
      6096       6097       6108       6107       6217       6218       6229       6228  
      6097       6098       6109       6108       6218       6219       6230       6229  
      6098       6099       6110       6109       6219       6220       6231       6230  
      6099       6100       6111       6110       6220       6221       6232       6231  
      6100       6101       6112       6111       6221       6222       6233       6232  
      6101       6102       6113       6112       6222       6223       6234       6233  
      6102       6103       6114       6113       6223       6224       6235       6234  
      6103       6104       6115       6114       6224       6225       6236       6235  
      6104       6105       6116       6115       6225       6226       6237       6236  
      6106       6107       6118       6117       6227       6228       6239       6238  
      6107       6108       6119       6118       6228       6229       6240       6239  
      6108       6109       6120       6119       6229       6230       6241       6240  
      6109       6110       6121       6120       6230       6231       6242       6241  
      6110       6111       6122       6121       6231       6232       6243       6242  
      6111       6112       6123       6122       6232       6233       6244       6243  
      6112       6113       6124       6123       6233       6234       6245       6244  
      6113       6114       6125       6124       6234       6235       6246       6245  
      6114       6115       6126       6125       6235       6236       6247       6246  
      6115       6116       6127       6126       6236       6237       6248       6247  
      6117       6118       6129       6128       6238       6239       6250       6249  
      6118       6119       6130       6129       6239       6240       6251       6250  
      6119       6120       6131       6130       6240       6241       6252       6251  
      6120       6121       6132       6131       6241       6242       6253       6252  
      6121       6122       6133       6132       6242       6243       6254       6253  
      6122       6123       6134       6133       6243       6244       6255       6254  
      6123       6124       6135       6134       6244       6245       6256       6255  
      6124       6125       6136       6135       6245       6246       6257       6256  
      6125       6126       6137       6136       6246       6247       6258       6257  
      6126       6127       6138       6137       6247       6248       6259       6258  
      6128       6129       6140       6139       6249       6250       6261       6260  
      6129       6130       6141       6140       6250       6251       6262       6261  
      6130       6131       6142       6141       6251       6252       6263       6262  
      6131       6132       6143       6142       6252       6253       6264       6263  
      6132       6133       6144       6143       6253       6254       6265       6264  
      6133       6134       6145       6144       6254       6255       6266       6265  
      6134       6135       6146       6145       6255       6256       6267       6266  
      6135       6136       6147       6146       6256       6257       6268       6267  
      6136       6137       6148       6147       6257       6258       6269       6268  
      6137       6138       6149       6148       6258       6259       6270       6269  
      6139       6140       6151       6150       6260       6261       6272       6271  
      6140       6141       6152       6151       6261       6262       6273       6272  
      6141       6142       6153       6152       6262       6263       6274       6273  
      6142       6143       6154       6153       6263       6264       6275       6274  
      6143       6144       6155       6154       6264       6265       6276       6275  
      6144       6145       6156       6155       6265       6266       6277       6276  
      6145       6146       6157       6156       6266       6267       6278       6277  
      6146       6147       6158       6157       6267       6268       6279       6278  
      6147       6148       6159       6158       6268       6269       6280       6279  
      6148       6149       6160       6159       6269       6270       6281       6280  
      6150       6151       6162       6161       6271       6272       6283       6282  
      6151       6152       6163       6162       6272       6273       6284       6283  
      6152       6153       6164       6163       6273       6274       6285       6284  
      6153       6154       6165       6164       6274       6275       6286       6285  
      6154       6155       6166       6165       6275       6276       6287       6286  
      6155       6156       6167       6166       6276       6277       6288       6287  
      6156       6157       6168       6167       6277       6278       6289       6288  
      6157       6158       6169       6168       6278       6279       6290       6289  
      6158       6159       6170       6169       6279       6280       6291       6290  
      6159       6160       6171       6170       6280       6281       6292       6291  
      6172       6173       6184       6183       6293       6294       6305       6304  
      6173       6174       6185       6184       6294       6295       6306       6305  
      6174       6175       6186       6185       6295       6296       6307       6306  
      6175       6176       6187       6186       6296       6297       6308       6307  
      6176       6177       6188       6187       6297       6298       6309       6308  
      6177       6178       6189       6188       6298       6299       6310       6309  
      6178       6179       6190       6189       6299       6300       6311       6310  
      6179       6180       6191       6190       6300       6301       6312       6311  
      6180       6181       6192       6191       6301       6302       6313       6312  
      6181       6182       6193       6192       6302       6303       6314       6313  
      6183       6184       6195       6194       6304       6305       6316       6315  
      6184       6185       6196       6195       6305       6306       6317       6316  
      6185       6186       6197       6196       6306       6307       6318       6317  
      6186       6187       6198       6197       6307       6308       6319       6318  
      6187       6188       6199       6198       6308       6309       6320       6319  
      6188       6189       6200       6199       6309       6310       6321       6320  
      6189       6190       6201       6200       6310       6311       6322       6321  
      6190       6191       6202       6201       6311       6312       6323       6322  
      6191       6192       6203       6202       6312       6313       6324       6323  
      6192       6193       6204       6203       6313       6314       6325       6324  
      6194       6195       6206       6205       6315       6316       6327       6326  
      6195       6196       6207       6206       6316       6317       6328       6327  
      6196       6197       6208       6207       6317       6318       6329       6328  
      6197       6198       6209       6208       6318       6319       6330       6329  
      6198       6199       6210       6209       6319       6320       6331       6330  
      6199       6200       6211       6210       6320       6321       6332       6331  
      6200       6201       6212       6211       6321       6322       6333       6332  
      6201       6202       6213       6212       6322       6323       6334       6333  
      6202       6203       6214       6213       6323       6324       6335       6334  
      6203       6204       6215       6214       6324       6325       6336       6335  
      6205       6206       6217       6216       6326       6327       6338       6337  
      6206       6207       6218       6217       6327       6328       6339       6338  
      6207       6208       6219       6218       6328       6329       6340       6339  
      6208       6209       6220       6219       6329       6330       6341       6340  
      6209       6210       6221       6220       6330       6331       6342       6341  
      6210       6211       6222       6221       6331       6332       6343       6342  
      6211       6212       6223       6222       6332       6333       6344       6343  
      6212       6213       6224       6223       6333       6334       6345       6344  
      6213       6214       6225       6224       6334       6335       6346       6345  
      6214       6215       6226       6225       6335       6336       6347       6346  
      6216       6217       6228       6227       6337       6338       6349       6348  
      6217       6218       6229       6228       6338       6339       6350       6349  
      6218       6219       6230       6229       6339       6340       6351       6350  
      6219       6220       6231       6230       6340       6341       6352       6351  
      6220       6221       6232       6231       6341       6342       6353       6352  
      6221       6222       6233       6232       6342       6343       6354       6353  
      6222       6223       6234       6233       6343       6344       6355       6354  
      6223       6224       6235       6234       6344       6345       6356       6355  
      6224       6225       6236       6235       6345       6346       6357       6356  
      6225       6226       6237       6236       6346       6347       6358       6357  
      6227       6228       6239       6238       6348       6349       6360       6359  
      6228       6229       6240       6239       6349       6350       6361       6360  
      6229       6230       6241       6240       6350       6351       6362       6361  
      6230       6231       6242       6241       6351       6352       6363       6362  
      6231       6232       6243       6242       6352       6353       6364       6363  
      6232       6233       6244       6243       6353       6354       6365       6364  
      6233       6234       6245       6244       6354       6355       6366       6365  
      6234       6235       6246       6245       6355       6356       6367       6366  
      6235       6236       6247       6246       6356       6357       6368       6367  
      6236       6237       6248       6247       6357       6358       6369       6368  
      6238       6239       6250       6249       6359       6360       6371       6370  
      6239       6240       6251       6250       6360       6361       6372       6371  
      6240       6241       6252       6251       6361       6362       6373       6372  
      6241       6242       6253       6252       6362       6363       6374       6373  
      6242       6243       6254       6253       6363       6364       6375       6374  
      6243       6244       6255       6254       6364       6365       6376       6375  
      6244       6245       6256       6255       6365       6366       6377       6376  
      6245       6246       6257       6256       6366       6367       6378       6377  
      6246       6247       6258       6257       6367       6368       6379       6378  
      6247       6248       6259       6258       6368       6369       6380       6379  
      6249       6250       6261       6260       6370       6371       6382       6381  
      6250       6251       6262       6261       6371       6372       6383       6382  
      6251       6252       6263       6262       6372       6373       6384       6383  
      6252       6253       6264       6263       6373       6374       6385       6384  
      6253       6254       6265       6264       6374       6375       6386       6385  
      6254       6255       6266       6265       6375       6376       6387       6386  
      6255       6256       6267       6266       6376       6377       6388       6387  
      6256       6257       6268       6267       6377       6378       6389       6388  
      6257       6258       6269       6268       6378       6379       6390       6389  
      6258       6259       6270       6269       6379       6380       6391       6390  
      6260       6261       6272       6271       6381       6382       6393       6392  
      6261       6262       6273       6272       6382       6383       6394       6393  
      6262       6263       6274       6273       6383       6384       6395       6394  
      6263       6264       6275       6274       6384       6385       6396       6395  
      6264       6265       6276       6275       6385       6386       6397       6396  
      6265       6266       6277       6276       6386       6387       6398       6397  
      6266       6267       6278       6277       6387       6388       6399       6398  
      6267       6268       6279       6278       6388       6389       6400       6399  
      6268       6269       6280       6279       6389       6390       6401       6400  
      6269       6270       6281       6280       6390       6391       6402       6401  
      6271       6272       6283       6282       6392       6393       6404       6403  
      6272       6273       6284       6283       6393       6394       6405       6404  
      6273       6274       6285       6284       6394       6395       6406       6405  
      6274       6275       6286       6285       6395       6396       6407       6406  
      6275       6276       6287       6286       6396       6397       6408       6407  
      6276       6277       6288       6287       6397       6398       6409       6408  
      6277       6278       6289       6288       6398       6399       6410       6409  
      6278       6279       6290       6289       6399       6400       6411       6410  
      6279       6280       6291       6290       6400       6401       6412       6411  
      6280       6281       6292       6291       6401       6402       6413       6412  
      6293       6294       6305       6304       6414       6415       6426       6425  
      6294       6295       6306       6305       6415       6416       6427       6426  
      6295       6296       6307       6306       6416       6417       6428       6427  
      6296       6297       6308       6307       6417       6418       6429       6428  
      6297       6298       6309       6308       6418       6419       6430       6429  
      6298       6299       6310       6309       6419       6420       6431       6430  
      6299       6300       6311       6310       6420       6421       6432       6431  
      6300       6301       6312       6311       6421       6422       6433       6432  
      6301       6302       6313       6312       6422       6423       6434       6433  
      6302       6303       6314       6313       6423       6424       6435       6434  
      6304       6305       6316       6315       6425       6426       6437       6436  
      6305       6306       6317       6316       6426       6427       6438       6437  
      6306       6307       6318       6317       6427       6428       6439       6438  
      6307       6308       6319       6318       6428       6429       6440       6439  
      6308       6309       6320       6319       6429       6430       6441       6440  
      6309       6310       6321       6320       6430       6431       6442       6441  
      6310       6311       6322       6321       6431       6432       6443       6442  
      6311       6312       6323       6322       6432       6433       6444       6443  
      6312       6313       6324       6323       6433       6434       6445       6444  
      6313       6314       6325       6324       6434       6435       6446       6445  
      6315       6316       6327       6326       6436       6437       6448       6447  
      6316       6317       6328       6327       6437       6438       6449       6448  
      6317       6318       6329       6328       6438       6439       6450       6449  
      6318       6319       6330       6329       6439       6440       6451       6450  
      6319       6320       6331       6330       6440       6441       6452       6451  
      6320       6321       6332       6331       6441       6442       6453       6452  
      6321       6322       6333       6332       6442       6443       6454       6453  
      6322       6323       6334       6333       6443       6444       6455       6454  
      6323       6324       6335       6334       6444       6445       6456       6455  
      6324       6325       6336       6335       6445       6446       6457       6456  
      6326       6327       6338       6337       6447       6448       6459       6458  
      6327       6328       6339       6338       6448       6449       6460       6459  
      6328       6329       6340       6339       6449       6450       6461       6460  
      6329       6330       6341       6340       6450       6451       6462       6461  
      6330       6331       6342       6341       6451       6452       6463       6462  
      6331       6332       6343       6342       6452       6453       6464       6463  
      6332       6333       6344       6343       6453       6454       6465       6464  
      6333       6334       6345       6344       6454       6455       6466       6465  
      6334       6335       6346       6345       6455       6456       6467       6466  
      6335       6336       6347       6346       6456       6457       6468       6467  
      6337       6338       6349       6348       6458       6459       6470       6469  
      6338       6339       6350       6349       6459       6460       6471       6470  
      6339       6340       6351       6350       6460       6461       6472       6471  
      6340       6341       6352       6351       6461       6462       6473       6472  
      6341       6342       6353       6352       6462       6463       6474       6473  
      6342       6343       6354       6353       6463       6464       6475       6474  
      6343       6344       6355       6354       6464       6465       6476       6475  
      6344       6345       6356       6355       6465       6466       6477       6476  
      6345       6346       6357       6356       6466       6467       6478       6477  
      6346       6347       6358       6357       6467       6468       6479       6478  
      6348       6349       6360       6359       6469       6470       6481       6480  
      6349       6350       6361       6360       6470       6471       6482       6481  
      6350       6351       6362       6361       6471       6472       6483       6482  
      6351       6352       6363       6362       6472       6473       6484       6483  
      6352       6353       6364       6363       6473       6474       6485       6484  
      6353       6354       6365       6364       6474       6475       6486       6485  
      6354       6355       6366       6365       6475       6476       6487       6486  
      6355       6356       6367       6366       6476       6477       6488       6487  
      6356       6357       6368       6367       6477       6478       6489       6488  
      6357       6358       6369       6368       6478       6479       6490       6489  
      6359       6360       6371       6370       6480       6481       6492       6491  
      6360       6361       6372       6371       6481       6482       6493       6492  
      6361       6362       6373       6372       6482       6483       6494       6493  
      6362       6363       6374       6373       6483       6484       6495       6494  
      6363       6364       6375       6374       6484       6485       6496       6495  
      6364       6365       6376       6375       6485       6486       6497       6496  
      6365       6366       6377       6376       6486       6487       6498       6497  
      6366       6367       6378       6377       6487       6488       6499       6498  
      6367       6368       6379       6378       6488       6489       6500       6499  
      6368       6369       6380       6379       6489       6490       6501       6500  
      6370       6371       6382       6381       6491       6492       6503       6502  
      6371       6372       6383       6382       6492       6493       6504       6503  
      6372       6373       6384       6383       6493       6494       6505       6504  
      6373       6374       6385       6384       6494       6495       6506       6505  
      6374       6375       6386       6385       6495       6496       6507       6506  
      6375       6376       6387       6386       6496       6497       6508       6507  
      6376       6377       6388       6387       6497       6498       6509       6508  
      6377       6378       6389       6388       6498       6499       6510       6509  
      6378       6379       6390       6389       6499       6500       6511       6510  
      6379       6380       6391       6390       6500       6501       6512       6511  
      6381       6382       6393       6392       6502       6503       6514       6513  
      6382       6383       6394       6393       6503       6504       6515       6514  
      6383       6384       6395       6394       6504       6505       6516       6515  
      6384       6385       6396       6395       6505       6506       6517       6516  
      6385       6386       6397       6396       6506       6507       6518       6517  
      6386       6387       6398       6397       6507       6508       6519       6518  
      6387       6388       6399       6398       6508       6509       6520       6519  
      6388       6389       6400       6399       6509       6510       6521       6520  
      6389       6390       6401       6400       6510       6511       6522       6521  
      6390       6391       6402       6401       6511       6512       6523       6522  
      6392       6393       6404       6403       6513       6514       6525       6524  
      6393       6394       6405       6404       6514       6515       6526       6525  
      6394       6395       6406       6405       6515       6516       6527       6526  
      6395       6396       6407       6406       6516       6517       6528       6527  
      6396       6397       6408       6407       6517       6518       6529       6528  
      6397       6398       6409       6408       6518       6519       6530       6529  
      6398       6399       6410       6409       6519       6520       6531       6530  
      6399       6400       6411       6410       6520       6521       6532       6531  
      6400       6401       6412       6411       6521       6522       6533       6532  
      6401       6402       6413       6412       6522       6523       6534       6533  
      6414       6415       6426       6425       6535       6536       6547       6546  
      6415       6416       6427       6426       6536       6537       6548       6547  
      6416       6417       6428       6427       6537       6538       6549       6548  
      6417       6418       6429       6428       6538       6539       6550       6549  
      6418       6419       6430       6429       6539       6540       6551       6550  
      6419       6420       6431       6430       6540       6541       6552       6551  
      6420       6421       6432       6431       6541       6542       6553       6552  
      6421       6422       6433       6432       6542       6543       6554       6553  
      6422       6423       6434       6433       6543       6544       6555       6554  
      6423       6424       6435       6434       6544       6545       6556       6555  
      6425       6426       6437       6436       6546       6547       6558       6557  
      6426       6427       6438       6437       6547       6548       6559       6558  
      6427       6428       6439       6438       6548       6549       6560       6559  
      6428       6429       6440       6439       6549       6550       6561       6560  
      6429       6430       6441       6440       6550       6551       6562       6561  
      6430       6431       6442       6441       6551       6552       6563       6562  
      6431       6432       6443       6442       6552       6553       6564       6563  
      6432       6433       6444       6443       6553       6554       6565       6564  
      6433       6434       6445       6444       6554       6555       6566       6565  
      6434       6435       6446       6445       6555       6556       6567       6566  
      6436       6437       6448       6447       6557       6558       6569       6568  
      6437       6438       6449       6448       6558       6559       6570       6569  
      6438       6439       6450       6449       6559       6560       6571       6570  
      6439       6440       6451       6450       6560       6561       6572       6571  
      6440       6441       6452       6451       6561       6562       6573       6572  
      6441       6442       6453       6452       6562       6563       6574       6573  
      6442       6443       6454       6453       6563       6564       6575       6574  
      6443       6444       6455       6454       6564       6565       6576       6575  
      6444       6445       6456       6455       6565       6566       6577       6576  
      6445       6446       6457       6456       6566       6567       6578       6577  
      6447       6448       6459       6458       6568       6569       6580       6579  
      6448       6449       6460       6459       6569       6570       6581       6580  
      6449       6450       6461       6460       6570       6571       6582       6581  
      6450       6451       6462       6461       6571       6572       6583       6582  
      6451       6452       6463       6462       6572       6573       6584       6583  
      6452       6453       6464       6463       6573       6574       6585       6584  
      6453       6454       6465       6464       6574       6575       6586       6585  
      6454       6455       6466       6465       6575       6576       6587       6586  
      6455       6456       6467       6466       6576       6577       6588       6587  
      6456       6457       6468       6467       6577       6578       6589       6588  
      6458       6459       6470       6469       6579       6580       6591       6590  
      6459       6460       6471       6470       6580       6581       6592       6591  
      6460       6461       6472       6471       6581       6582       6593       6592  
      6461       6462       6473       6472       6582       6583       6594       6593  
      6462       6463       6474       6473       6583       6584       6595       6594  
      6463       6464       6475       6474       6584       6585       6596       6595  
      6464       6465       6476       6475       6585       6586       6597       6596  
      6465       6466       6477       6476       6586       6587       6598       6597  
      6466       6467       6478       6477       6587       6588       6599       6598  
      6467       6468       6479       6478       6588       6589       6600       6599  
      6469       6470       6481       6480       6590       6591       6602       6601  
      6470       6471       6482       6481       6591       6592       6603       6602  
      6471       6472       6483       6482       6592       6593       6604       6603  
      6472       6473       6484       6483       6593       6594       6605       6604  
      6473       6474       6485       6484       6594       6595       6606       6605  
      6474       6475       6486       6485       6595       6596       6607       6606  
      6475       6476       6487       6486       6596       6597       6608       6607  
      6476       6477       6488       6487       6597       6598       6609       6608  
      6477       6478       6489       6488       6598       6599       6610       6609  
      6478       6479       6490       6489       6599       6600       6611       6610  
      6480       6481       6492       6491       6601       6602       6613       6612  
      6481       6482       6493       6492       6602       6603       6614       6613  
      6482       6483       6494       6493       6603       6604       6615       6614  
      6483       6484       6495       6494       6604       6605       6616       6615  
      6484       6485       6496       6495       6605       6606       6617       6616  
      6485       6486       6497       6496       6606       6607       6618       6617  
      6486       6487       6498       6497       6607       6608       6619       6618  
      6487       6488       6499       6498       6608       6609       6620       6619  
      6488       6489       6500       6499       6609       6610       6621       6620  
      6489       6490       6501       6500       6610       6611       6622       6621  
      6491       6492       6503       6502       6612       6613       6624       6623  
      6492       6493       6504       6503       6613       6614       6625       6624  
      6493       6494       6505       6504       6614       6615       6626       6625  
      6494       6495       6506       6505       6615       6616       6627       6626  
      6495       6496       6507       6506       6616       6617       6628       6627  
      6496       6497       6508       6507       6617       6618       6629       6628  
      6497       6498       6509       6508       6618       6619       6630       6629  
      6498       6499       6510       6509       6619       6620       6631       6630  
      6499       6500       6511       6510       6620       6621       6632       6631  
      6500       6501       6512       6511       6621       6622       6633       6632  
      6502       6503       6514       6513       6623       6624       6635       6634  
      6503       6504       6515       6514       6624       6625       6636       6635  
      6504       6505       6516       6515       6625       6626       6637       6636  
      6505       6506       6517       6516       6626       6627       6638       6637  
      6506       6507       6518       6517       6627       6628       6639       6638  
      6507       6508       6519       6518       6628       6629       6640       6639  
      6508       6509       6520       6519       6629       6630       6641       6640  
      6509       6510       6521       6520       6630       6631       6642       6641  
      6510       6511       6522       6521       6631       6632       6643       6642  
      6511       6512       6523       6522       6632       6633       6644       6643  
      6513       6514       6525       6524       6634       6635       6646       6645  
      6514       6515       6526       6525       6635       6636       6647       6646  
      6515       6516       6527       6526       6636       6637       6648       6647  
      6516       6517       6528       6527       6637       6638       6649       6648  
      6517       6518       6529       6528       6638       6639       6650       6649  
      6518       6519       6530       6529       6639       6640       6651       6650  
      6519       6520       6531       6530       6640       6641       6652       6651  
      6520       6521       6532       6531       6641       6642       6653       6652  
      6521       6522       6533       6532       6642       6643       6654       6653  
      6522       6523       6534       6533       6643       6644       6655       6654  
      6535       6536       6547       6546       6656       6657       6668       6667  
      6536       6537       6548       6547       6657       6658       6669       6668  
      6537       6538       6549       6548       6658       6659       6670       6669  
      6538       6539       6550       6549       6659       6660       6671       6670  
      6539       6540       6551       6550       6660       6661       6672       6671  
      6540       6541       6552       6551       6661       6662       6673       6672  
      6541       6542       6553       6552       6662       6663       6674       6673  
      6542       6543       6554       6553       6663       6664       6675       6674  
      6543       6544       6555       6554       6664       6665       6676       6675  
      6544       6545       6556       6555       6665       6666       6677       6676  
      6546       6547       6558       6557       6667       6668       6679       6678  
      6547       6548       6559       6558       6668       6669       6680       6679  
      6548       6549       6560       6559       6669       6670       6681       6680  
      6549       6550       6561       6560       6670       6671       6682       6681  
      6550       6551       6562       6561       6671       6672       6683       6682  
      6551       6552       6563       6562       6672       6673       6684       6683  
      6552       6553       6564       6563       6673       6674       6685       6684  
      6553       6554       6565       6564       6674       6675       6686       6685  
      6554       6555       6566       6565       6675       6676       6687       6686  
      6555       6556       6567       6566       6676       6677       6688       6687  
      6557       6558       6569       6568       6678       6679       6690       6689  
      6558       6559       6570       6569       6679       6680       6691       6690  
      6559       6560       6571       6570       6680       6681       6692       6691  
      6560       6561       6572       6571       6681       6682       6693       6692  
      6561       6562       6573       6572       6682       6683       6694       6693  
      6562       6563       6574       6573       6683       6684       6695       6694  
      6563       6564       6575       6574       6684       6685       6696       6695  
      6564       6565       6576       6575       6685       6686       6697       6696  
      6565       6566       6577       6576       6686       6687       6698       6697  
      6566       6567       6578       6577       6687       6688       6699       6698  
      6568       6569       6580       6579       6689       6690       6701       6700  
      6569       6570       6581       6580       6690       6691       6702       6701  
      6570       6571       6582       6581       6691       6692       6703       6702  
      6571       6572       6583       6582       6692       6693       6704       6703  
      6572       6573       6584       6583       6693       6694       6705       6704  
      6573       6574       6585       6584       6694       6695       6706       6705  
      6574       6575       6586       6585       6695       6696       6707       6706  
      6575       6576       6587       6586       6696       6697       6708       6707  
      6576       6577       6588       6587       6697       6698       6709       6708  
      6577       6578       6589       6588       6698       6699       6710       6709  
      6579       6580       6591       6590       6700       6701       6712       6711  
      6580       6581       6592       6591       6701       6702       6713       6712  
      6581       6582       6593       6592       6702       6703       6714       6713  
      6582       6583       6594       6593       6703       6704       6715       6714  
      6583       6584       6595       6594       6704       6705       6716       6715  
      6584       6585       6596       6595       6705       6706       6717       6716  
      6585       6586       6597       6596       6706       6707       6718       6717  
      6586       6587       6598       6597       6707       6708       6719       6718  
      6587       6588       6599       6598       6708       6709       6720       6719  
      6588       6589       6600       6599       6709       6710       6721       6720  
      6590       6591       6602       6601       6711       6712       6723       6722  
      6591       6592       6603       6602       6712       6713       6724       6723  
      6592       6593       6604       6603       6713       6714       6725       6724  
      6593       6594       6605       6604       6714       6715       6726       6725  
      6594       6595       6606       6605       6715       6716       6727       6726  
      6595       6596       6607       6606       6716       6717       6728       6727  
      6596       6597       6608       6607       6717       6718       6729       6728  
      6597       6598       6609       6608       6718       6719       6730       6729  
      6598       6599       6610       6609       6719       6720       6731       6730  
      6599       6600       6611       6610       6720       6721       6732       6731  
      6601       6602       6613       6612       6722       6723       6734       6733  
      6602       6603       6614       6613       6723       6724       6735       6734  
      6603       6604       6615       6614       6724       6725       6736       6735  
      6604       6605       6616       6615       6725       6726       6737       6736  
      6605       6606       6617       6616       6726       6727       6738       6737  
      6606       6607       6618       6617       6727       6728       6739       6738  
      6607       6608       6619       6618       6728       6729       6740       6739  
      6608       6609       6620       6619       6729       6730       6741       6740  
      6609       6610       6621       6620       6730       6731       6742       6741  
      6610       6611       6622       6621       6731       6732       6743       6742  
      6612       6613       6624       6623       6733       6734       6745       6744  
      6613       6614       6625       6624       6734       6735       6746       6745  
      6614       6615       6626       6625       6735       6736       6747       6746  
      6615       6616       6627       6626       6736       6737       6748       6747  
      6616       6617       6628       6627       6737       6738       6749       6748  
      6617       6618       6629       6628       6738       6739       6750       6749  
      6618       6619       6630       6629       6739       6740       6751       6750  
      6619       6620       6631       6630       6740       6741       6752       6751  
      6620       6621       6632       6631       6741       6742       6753       6752  
      6621       6622       6633       6632       6742       6743       6754       6753  
      6623       6624       6635       6634       6744       6745       6756       6755  
      6624       6625       6636       6635       6745       6746       6757       6756  
      6625       6626       6637       6636       6746       6747       6758       6757  
      6626       6627       6638       6637       6747       6748       6759       6758  
      6627       6628       6639       6638       6748       6749       6760       6759  
      6628       6629       6640       6639       6749       6750       6761       6760  
      6629       6630       6641       6640       6750       6751       6762       6761  
      6630       6631       6642       6641       6751       6752       6763       6762  
      6631       6632       6643       6642       6752       6753       6764       6763  
      6632       6633       6644       6643       6753       6754       6765       6764  
      6634       6635       6646       6645       6755       6756       6767       6766  
      6635       6636       6647       6646       6756       6757       6768       6767  
      6636       6637       6648       6647       6757       6758       6769       6768  
      6637       6638       6649       6648       6758       6759       6770       6769  
      6638       6639       6650       6649       6759       6760       6771       6770  
      6639       6640       6651       6650       6760       6761       6772       6771  
      6640       6641       6652       6651       6761       6762       6773       6772  
      6641       6642       6653       6652       6762       6763       6774       6773  
      6642       6643       6654       6653       6763       6764       6775       6774  
      6643       6644       6655       6654       6764       6765       6776       6775  
      6656       6657       6668       6667       6777       6778       6789       6788  
      6657       6658       6669       6668       6778       6779       6790       6789  
      6658       6659       6670       6669       6779       6780       6791       6790  
      6659       6660       6671       6670       6780       6781       6792       6791  
      6660       6661       6672       6671       6781       6782       6793       6792  
      6661       6662       6673       6672       6782       6783       6794       6793  
      6662       6663       6674       6673       6783       6784       6795       6794  
      6663       6664       6675       6674       6784       6785       6796       6795  
      6664       6665       6676       6675       6785       6786       6797       6796  
      6665       6666       6677       6676       6786       6787       6798       6797  
      6667       6668       6679       6678       6788       6789       6800       6799  
      6668       6669       6680       6679       6789       6790       6801       6800  
      6669       6670       6681       6680       6790       6791       6802       6801  
      6670       6671       6682       6681       6791       6792       6803       6802  
      6671       6672       6683       6682       6792       6793       6804       6803  
      6672       6673       6684       6683       6793       6794       6805       6804  
      6673       6674       6685       6684       6794       6795       6806       6805  
      6674       6675       6686       6685       6795       6796       6807       6806  
      6675       6676       6687       6686       6796       6797       6808       6807  
      6676       6677       6688       6687       6797       6798       6809       6808  
      6678       6679       6690       6689       6799       6800       6811       6810  
      6679       6680       6691       6690       6800       6801       6812       6811  
      6680       6681       6692       6691       6801       6802       6813       6812  
      6681       6682       6693       6692       6802       6803       6814       6813  
      6682       6683       6694       6693       6803       6804       6815       6814  
      6683       6684       6695       6694       6804       6805       6816       6815  
      6684       6685       6696       6695       6805       6806       6817       6816  
      6685       6686       6697       6696       6806       6807       6818       6817  
      6686       6687       6698       6697       6807       6808       6819       6818  
      6687       6688       6699       6698       6808       6809       6820       6819  
      6689       6690       6701       6700       6810       6811       6822       6821  
      6690       6691       6702       6701       6811       6812       6823       6822  
      6691       6692       6703       6702       6812       6813       6824       6823  
      6692       6693       6704       6703       6813       6814       6825       6824  
      6693       6694       6705       6704       6814       6815       6826       6825  
      6694       6695       6706       6705       6815       6816       6827       6826  
      6695       6696       6707       6706       6816       6817       6828       6827  
      6696       6697       6708       6707       6817       6818       6829       6828  
      6697       6698       6709       6708       6818       6819       6830       6829  
      6698       6699       6710       6709       6819       6820       6831       6830  
      6700       6701       6712       6711       6821       6822       6833       6832  
      6701       6702       6713       6712       6822       6823       6834       6833  
      6702       6703       6714       6713       6823       6824       6835       6834  
      6703       6704       6715       6714       6824       6825       6836       6835  
      6704       6705       6716       6715       6825       6826       6837       6836  
      6705       6706       6717       6716       6826       6827       6838       6837  
      6706       6707       6718       6717       6827       6828       6839       6838  
      6707       6708       6719       6718       6828       6829       6840       6839  
      6708       6709       6720       6719       6829       6830       6841       6840  
      6709       6710       6721       6720       6830       6831       6842       6841  
      6711       6712       6723       6722       6832       6833       6844       6843  
      6712       6713       6724       6723       6833       6834       6845       6844  
      6713       6714       6725       6724       6834       6835       6846       6845  
      6714       6715       6726       6725       6835       6836       6847       6846  
      6715       6716       6727       6726       6836       6837       6848       6847  
      6716       6717       6728       6727       6837       6838       6849       6848  
      6717       6718       6729       6728       6838       6839       6850       6849  
      6718       6719       6730       6729       6839       6840       6851       6850  
      6719       6720       6731       6730       6840       6841       6852       6851  
      6720       6721       6732       6731       6841       6842       6853       6852  
      6722       6723       6734       6733       6843       6844       6855       6854  
      6723       6724       6735       6734       6844       6845       6856       6855  
      6724       6725       6736       6735       6845       6846       6857       6856  
      6725       6726       6737       6736       6846       6847       6858       6857  
      6726       6727       6738       6737       6847       6848       6859       6858  
      6727       6728       6739       6738       6848       6849       6860       6859  
      6728       6729       6740       6739       6849       6850       6861       6860  
      6729       6730       6741       6740       6850       6851       6862       6861  
      6730       6731       6742       6741       6851       6852       6863       6862  
      6731       6732       6743       6742       6852       6853       6864       6863  
      6733       6734       6745       6744       6854       6855       6866       6865  
      6734       6735       6746       6745       6855       6856       6867       6866  
      6735       6736       6747       6746       6856       6857       6868       6867  
      6736       6737       6748       6747       6857       6858       6869       6868  
      6737       6738       6749       6748       6858       6859       6870       6869  
      6738       6739       6750       6749       6859       6860       6871       6870  
      6739       6740       6751       6750       6860       6861       6872       6871  
      6740       6741       6752       6751       6861       6862       6873       6872  
      6741       6742       6753       6752       6862       6863       6874       6873  
      6742       6743       6754       6753       6863       6864       6875       6874  
      6744       6745       6756       6755       6865       6866       6877       6876  
      6745       6746       6757       6756       6866       6867       6878       6877  
      6746       6747       6758       6757       6867       6868       6879       6878  
      6747       6748       6759       6758       6868       6869       6880       6879  
      6748       6749       6760       6759       6869       6870       6881       6880  
      6749       6750       6761       6760       6870       6871       6882       6881  
      6750       6751       6762       6761       6871       6872       6883       6882  
      6751       6752       6763       6762       6872       6873       6884       6883  
      6752       6753       6764       6763       6873       6874       6885       6884  
      6753       6754       6765       6764       6874       6875       6886       6885  
      6755       6756       6767       6766       6876       6877       6888       6887  
      6756       6757       6768       6767       6877       6878       6889       6888  
      6757       6758       6769       6768       6878       6879       6890       6889  
      6758       6759       6770       6769       6879       6880       6891       6890  
      6759       6760       6771       6770       6880       6881       6892       6891  
      6760       6761       6772       6771       6881       6882       6893       6892  
      6761       6762       6773       6772       6882       6883       6894       6893  
      6762       6763       6774       6773       6883       6884       6895       6894  
      6763       6764       6775       6774       6884       6885       6896       6895  
      6764       6765       6776       6775       6885       6886       6897       6896  
      6777       6778       6789       6788       6898       6899       6910       6909  
      6778       6779       6790       6789       6899       6900       6911       6910  
      6779       6780       6791       6790       6900       6901       6912       6911  
      6780       6781       6792       6791       6901       6902       6913       6912  
      6781       6782       6793       6792       6902       6903       6914       6913  
      6782       6783       6794       6793       6903       6904       6915       6914  
      6783       6784       6795       6794       6904       6905       6916       6915  
      6784       6785       6796       6795       6905       6906       6917       6916  
      6785       6786       6797       6796       6906       6907       6918       6917  
      6786       6787       6798       6797       6907       6908       6919       6918  
      6788       6789       6800       6799       6909       6910       6921       6920  
      6789       6790       6801       6800       6910       6911       6922       6921  
      6790       6791       6802       6801       6911       6912       6923       6922  
      6791       6792       6803       6802       6912       6913       6924       6923  
      6792       6793       6804       6803       6913       6914       6925       6924  
      6793       6794       6805       6804       6914       6915       6926       6925  
      6794       6795       6806       6805       6915       6916       6927       6926  
      6795       6796       6807       6806       6916       6917       6928       6927  
      6796       6797       6808       6807       6917       6918       6929       6928  
      6797       6798       6809       6808       6918       6919       6930       6929  
      6799       6800       6811       6810       6920       6921       6932       6931  
      6800       6801       6812       6811       6921       6922       6933       6932  
      6801       6802       6813       6812       6922       6923       6934       6933  
      6802       6803       6814       6813       6923       6924       6935       6934  
      6803       6804       6815       6814       6924       6925       6936       6935  
      6804       6805       6816       6815       6925       6926       6937       6936  
      6805       6806       6817       6816       6926       6927       6938       6937  
      6806       6807       6818       6817       6927       6928       6939       6938  
      6807       6808       6819       6818       6928       6929       6940       6939  
      6808       6809       6820       6819       6929       6930       6941       6940  
      6810       6811       6822       6821       6931       6932       6943       6942  
      6811       6812       6823       6822       6932       6933       6944       6943  
      6812       6813       6824       6823       6933       6934       6945       6944  
      6813       6814       6825       6824       6934       6935       6946       6945  
      6814       6815       6826       6825       6935       6936       6947       6946  
      6815       6816       6827       6826       6936       6937       6948       6947  
      6816       6817       6828       6827       6937       6938       6949       6948  
      6817       6818       6829       6828       6938       6939       6950       6949  
      6818       6819       6830       6829       6939       6940       6951       6950  
      6819       6820       6831       6830       6940       6941       6952       6951  
      6821       6822       6833       6832       6942       6943       6954       6953  
      6822       6823       6834       6833       6943       6944       6955       6954  
      6823       6824       6835       6834       6944       6945       6956       6955  
      6824       6825       6836       6835       6945       6946       6957       6956  
      6825       6826       6837       6836       6946       6947       6958       6957  
      6826       6827       6838       6837       6947       6948       6959       6958  
      6827       6828       6839       6838       6948       6949       6960       6959  
      6828       6829       6840       6839       6949       6950       6961       6960  
      6829       6830       6841       6840       6950       6951       6962       6961  
      6830       6831       6842       6841       6951       6952       6963       6962  
      6832       6833       6844       6843       6953       6954       6965       6964  
      6833       6834       6845       6844       6954       6955       6966       6965  
      6834       6835       6846       6845       6955       6956       6967       6966  
      6835       6836       6847       6846       6956       6957       6968       6967  
      6836       6837       6848       6847       6957       6958       6969       6968  
      6837       6838       6849       6848       6958       6959       6970       6969  
      6838       6839       6850       6849       6959       6960       6971       6970  
      6839       6840       6851       6850       6960       6961       6972       6971  
      6840       6841       6852       6851       6961       6962       6973       6972  
      6841       6842       6853       6852       6962       6963       6974       6973  
      6843       6844       6855       6854       6964       6965       6976       6975  
      6844       6845       6856       6855       6965       6966       6977       6976  
      6845       6846       6857       6856       6966       6967       6978       6977  
      6846       6847       6858       6857       6967       6968       6979       6978  
      6847       6848       6859       6858       6968       6969       6980       6979  
      6848       6849       6860       6859       6969       6970       6981       6980  
      6849       6850       6861       6860       6970       6971       6982       6981  
      6850       6851       6862       6861       6971       6972       6983       6982  
      6851       6852       6863       6862       6972       6973       6984       6983  
      6852       6853       6864       6863       6973       6974       6985       6984  
      6854       6855       6866       6865       6975       6976       6987       6986  
      6855       6856       6867       6866       6976       6977       6988       6987  
      6856       6857       6868       6867       6977       6978       6989       6988  
      6857       6858       6869       6868       6978       6979       6990       6989  
      6858       6859       6870       6869       6979       6980       6991       6990  
      6859       6860       6871       6870       6980       6981       6992       6991  
      6860       6861       6872       6871       6981       6982       6993       6992  
      6861       6862       6873       6872       6982       6983       6994       6993  
      6862       6863       6874       6873       6983       6984       6995       6994  
      6863       6864       6875       6874       6984       6985       6996       6995  
      6865       6866       6877       6876       6986       6987       6998       6997  
      6866       6867       6878       6877       6987       6988       6999       6998  
      6867       6868       6879       6878       6988       6989       7000       6999  
      6868       6869       6880       6879       6989       6990       7001       7000  
      6869       6870       6881       6880       6990       6991       7002       7001  
      6870       6871       6882       6881       6991       6992       7003       7002  
      6871       6872       6883       6882       6992       6993       7004       7003  
      6872       6873       6884       6883       6993       6994       7005       7004  
      6873       6874       6885       6884       6994       6995       7006       7005  
      6874       6875       6886       6885       6995       6996       7007       7006  
      6876       6877       6888       6887       6997       6998       7009       7008  
      6877       6878       6889       6888       6998       6999       7010       7009  
      6878       6879       6890       6889       6999       7000       7011       7010  
      6879       6880       6891       6890       7000       7001       7012       7011  
      6880       6881       6892       6891       7001       7002       7013       7012  
      6881       6882       6893       6892       7002       7003       7014       7013  
      6882       6883       6894       6893       7003       7004       7015       7014  
      6883       6884       6895       6894       7004       7005       7016       7015  
      6884       6885       6896       6895       7005       7006       7017       7016  
      6885       6886       6897       6896       7006       7007       7018       7017  
      6898       6899       6910       6909       7019       7020       7031       7030  
      6899       6900       6911       6910       7020       7021       7032       7031  
      6900       6901       6912       6911       7021       7022       7033       7032  
      6901       6902       6913       6912       7022       7023       7034       7033  
      6902       6903       6914       6913       7023       7024       7035       7034  
      6903       6904       6915       6914       7024       7025       7036       7035  
      6904       6905       6916       6915       7025       7026       7037       7036  
      6905       6906       6917       6916       7026       7027       7038       7037  
      6906       6907       6918       6917       7027       7028       7039       7038  
      6907       6908       6919       6918       7028       7029       7040       7039  
      6909       6910       6921       6920       7030       7031       7042       7041  
      6910       6911       6922       6921       7031       7032       7043       7042  
      6911       6912       6923       6922       7032       7033       7044       7043  
      6912       6913       6924       6923       7033       7034       7045       7044  
      6913       6914       6925       6924       7034       7035       7046       7045  
      6914       6915       6926       6925       7035       7036       7047       7046  
      6915       6916       6927       6926       7036       7037       7048       7047  
      6916       6917       6928       6927       7037       7038       7049       7048  
      6917       6918       6929       6928       7038       7039       7050       7049  
      6918       6919       6930       6929       7039       7040       7051       7050  
      6920       6921       6932       6931       7041       7042       7053       7052  
      6921       6922       6933       6932       7042       7043       7054       7053  
      6922       6923       6934       6933       7043       7044       7055       7054  
      6923       6924       6935       6934       7044       7045       7056       7055  
      6924       6925       6936       6935       7045       7046       7057       7056  
      6925       6926       6937       6936       7046       7047       7058       7057  
      6926       6927       6938       6937       7047       7048       7059       7058  
      6927       6928       6939       6938       7048       7049       7060       7059  
      6928       6929       6940       6939       7049       7050       7061       7060  
      6929       6930       6941       6940       7050       7051       7062       7061  
      6931       6932       6943       6942       7052       7053       7064       7063  
      6932       6933       6944       6943       7053       7054       7065       7064  
      6933       6934       6945       6944       7054       7055       7066       7065  
      6934       6935       6946       6945       7055       7056       7067       7066  
      6935       6936       6947       6946       7056       7057       7068       7067  
      6936       6937       6948       6947       7057       7058       7069       7068  
      6937       6938       6949       6948       7058       7059       7070       7069  
      6938       6939       6950       6949       7059       7060       7071       7070  
      6939       6940       6951       6950       7060       7061       7072       7071  
      6940       6941       6952       6951       7061       7062       7073       7072  
      6942       6943       6954       6953       7063       7064       7075       7074  
      6943       6944       6955       6954       7064       7065       7076       7075  
      6944       6945       6956       6955       7065       7066       7077       7076  
      6945       6946       6957       6956       7066       7067       7078       7077  
      6946       6947       6958       6957       7067       7068       7079       7078  
      6947       6948       6959       6958       7068       7069       7080       7079  
      6948       6949       6960       6959       7069       7070       7081       7080  
      6949       6950       6961       6960       7070       7071       7082       7081  
      6950       6951       6962       6961       7071       7072       7083       7082  
      6951       6952       6963       6962       7072       7073       7084       7083  
      6953       6954       6965       6964       7074       7075       7086       7085  
      6954       6955       6966       6965       7075       7076       7087       7086  
      6955       6956       6967       6966       7076       7077       7088       7087  
      6956       6957       6968       6967       7077       7078       7089       7088  
      6957       6958       6969       6968       7078       7079       7090       7089  
      6958       6959       6970       6969       7079       7080       7091       7090  
      6959       6960       6971       6970       7080       7081       7092       7091  
      6960       6961       6972       6971       7081       7082       7093       7092  
      6961       6962       6973       6972       7082       7083       7094       7093  
      6962       6963       6974       6973       7083       7084       7095       7094  
      6964       6965       6976       6975       7085       7086       7097       7096  
      6965       6966       6977       6976       7086       7087       7098       7097  
      6966       6967       6978       6977       7087       7088       7099       7098  
      6967       6968       6979       6978       7088       7089       7100       7099  
      6968       6969       6980       6979       7089       7090       7101       7100  
      6969       6970       6981       6980       7090       7091       7102       7101  
      6970       6971       6982       6981       7091       7092       7103       7102  
      6971       6972       6983       6982       7092       7093       7104       7103  
      6972       6973       6984       6983       7093       7094       7105       7104  
      6973       6974       6985       6984       7094       7095       7106       7105  
      6975       6976       6987       6986       7096       7097       7108       7107  
      6976       6977       6988       6987       7097       7098       7109       7108  
      6977       6978       6989       6988       7098       7099       7110       7109  
      6978       6979       6990       6989       7099       7100       7111       7110  
      6979       6980       6991       6990       7100       7101       7112       7111  
      6980       6981       6992       6991       7101       7102       7113       7112  
      6981       6982       6993       6992       7102       7103       7114       7113  
      6982       6983       6994       6993       7103       7104       7115       7114  
      6983       6984       6995       6994       7104       7105       7116       7115  
      6984       6985       6996       6995       7105       7106       7117       7116  
      6986       6987       6998       6997       7107       7108       7119       7118  
      6987       6988       6999       6998       7108       7109       7120       7119  
      6988       6989       7000       6999       7109       7110       7121       7120  
      6989       6990       7001       7000       7110       7111       7122       7121  
      6990       6991       7002       7001       7111       7112       7123       7122  
      6991       6992       7003       7002       7112       7113       7124       7123  
      6992       6993       7004       7003       7113       7114       7125       7124  
      6993       6994       7005       7004       7114       7115       7126       7125  
      6994       6995       7006       7005       7115       7116       7127       7126  
      6995       6996       7007       7006       7116       7117       7128       7127  
      6997       6998       7009       7008       7118       7119       7130       7129  
      6998       6999       7010       7009       7119       7120       7131       7130  
      6999       7000       7011       7010       7120       7121       7132       7131  
      7000       7001       7012       7011       7121       7122       7133       7132  
      7001       7002       7013       7012       7122       7123       7134       7133  
      7002       7003       7014       7013       7123       7124       7135       7134  
      7003       7004       7015       7014       7124       7125       7136       7135  
      7004       7005       7016       7015       7125       7126       7137       7136  
      7005       7006       7017       7016       7126       7127       7138       7137  
      7006       7007       7018       7017       7127       7128       7139       7138  
      7019       7020       7031       7030       7140       7141       7152       7151  
      7020       7021       7032       7031       7141       7142       7153       7152  
      7021       7022       7033       7032       7142       7143       7154       7153  
      7022       7023       7034       7033       7143       7144       7155       7154  
      7023       7024       7035       7034       7144       7145       7156       7155  
      7024       7025       7036       7035       7145       7146       7157       7156  
      7025       7026       7037       7036       7146       7147       7158       7157  
      7026       7027       7038       7037       7147       7148       7159       7158  
      7027       7028       7039       7038       7148       7149       7160       7159  
      7028       7029       7040       7039       7149       7150       7161       7160  
      7030       7031       7042       7041       7151       7152       7163       7162  
      7031       7032       7043       7042       7152       7153       7164       7163  
      7032       7033       7044       7043       7153       7154       7165       7164  
      7033       7034       7045       7044       7154       7155       7166       7165  
      7034       7035       7046       7045       7155       7156       7167       7166  
      7035       7036       7047       7046       7156       7157       7168       7167  
      7036       7037       7048       7047       7157       7158       7169       7168  
      7037       7038       7049       7048       7158       7159       7170       7169  
      7038       7039       7050       7049       7159       7160       7171       7170  
      7039       7040       7051       7050       7160       7161       7172       7171  
      7041       7042       7053       7052       7162       7163       7174       7173  
      7042       7043       7054       7053       7163       7164       7175       7174  
      7043       7044       7055       7054       7164       7165       7176       7175  
      7044       7045       7056       7055       7165       7166       7177       7176  
      7045       7046       7057       7056       7166       7167       7178       7177  
      7046       7047       7058       7057       7167       7168       7179       7178  
      7047       7048       7059       7058       7168       7169       7180       7179  
      7048       7049       7060       7059       7169       7170       7181       7180  
      7049       7050       7061       7060       7170       7171       7182       7181  
      7050       7051       7062       7061       7171       7172       7183       7182  
      7052       7053       7064       7063       7173       7174       7185       7184  
      7053       7054       7065       7064       7174       7175       7186       7185  
      7054       7055       7066       7065       7175       7176       7187       7186  
      7055       7056       7067       7066       7176       7177       7188       7187  
      7056       7057       7068       7067       7177       7178       7189       7188  
      7057       7058       7069       7068       7178       7179       7190       7189  
      7058       7059       7070       7069       7179       7180       7191       7190  
      7059       7060       7071       7070       7180       7181       7192       7191  
      7060       7061       7072       7071       7181       7182       7193       7192  
      7061       7062       7073       7072       7182       7183       7194       7193  
      7063       7064       7075       7074       7184       7185       7196       7195  
      7064       7065       7076       7075       7185       7186       7197       7196  
      7065       7066       7077       7076       7186       7187       7198       7197  
      7066       7067       7078       7077       7187       7188       7199       7198  
      7067       7068       7079       7078       7188       7189       7200       7199  
      7068       7069       7080       7079       7189       7190       7201       7200  
      7069       7070       7081       7080       7190       7191       7202       7201  
      7070       7071       7082       7081       7191       7192       7203       7202  
      7071       7072       7083       7082       7192       7193       7204       7203  
      7072       7073       7084       7083       7193       7194       7205       7204  
      7074       7075       7086       7085       7195       7196       7207       7206  
      7075       7076       7087       7086       7196       7197       7208       7207  
      7076       7077       7088       7087       7197       7198       7209       7208  
      7077       7078       7089       7088       7198       7199       7210       7209  
      7078       7079       7090       7089       7199       7200       7211       7210  
      7079       7080       7091       7090       7200       7201       7212       7211  
      7080       7081       7092       7091       7201       7202       7213       7212  
      7081       7082       7093       7092       7202       7203       7214       7213  
      7082       7083       7094       7093       7203       7204       7215       7214  
      7083       7084       7095       7094       7204       7205       7216       7215  
      7085       7086       7097       7096       7206       7207       7218       7217  
      7086       7087       7098       7097       7207       7208       7219       7218  
      7087       7088       7099       7098       7208       7209       7220       7219  
      7088       7089       7100       7099       7209       7210       7221       7220  
      7089       7090       7101       7100       7210       7211       7222       7221  
      7090       7091       7102       7101       7211       7212       7223       7222  
      7091       7092       7103       7102       7212       7213       7224       7223  
      7092       7093       7104       7103       7213       7214       7225       7224  
      7093       7094       7105       7104       7214       7215       7226       7225  
      7094       7095       7106       7105       7215       7216       7227       7226  
      7096       7097       7108       7107       7217       7218       7229       7228  
      7097       7098       7109       7108       7218       7219       7230       7229  
      7098       7099       7110       7109       7219       7220       7231       7230  
      7099       7100       7111       7110       7220       7221       7232       7231  
      7100       7101       7112       7111       7221       7222       7233       7232  
      7101       7102       7113       7112       7222       7223       7234       7233  
      7102       7103       7114       7113       7223       7224       7235       7234  
      7103       7104       7115       7114       7224       7225       7236       7235  
      7104       7105       7116       7115       7225       7226       7237       7236  
      7105       7106       7117       7116       7226       7227       7238       7237  
      7107       7108       7119       7118       7228       7229       7240       7239  
      7108       7109       7120       7119       7229       7230       7241       7240  
      7109       7110       7121       7120       7230       7231       7242       7241  
      7110       7111       7122       7121       7231       7232       7243       7242  
      7111       7112       7123       7122       7232       7233       7244       7243  
      7112       7113       7124       7123       7233       7234       7245       7244  
      7113       7114       7125       7124       7234       7235       7246       7245  
      7114       7115       7126       7125       7235       7236       7247       7246  
      7115       7116       7127       7126       7236       7237       7248       7247  
      7116       7117       7128       7127       7237       7238       7249       7248  
      7118       7119       7130       7129       7239       7240       7251       7250  
      7119       7120       7131       7130       7240       7241       7252       7251  
      7120       7121       7132       7131       7241       7242       7253       7252  
      7121       7122       7133       7132       7242       7243       7254       7253  
      7122       7123       7134       7133       7243       7244       7255       7254  
      7123       7124       7135       7134       7244       7245       7256       7255  
      7124       7125       7136       7135       7245       7246       7257       7256  
      7125       7126       7137       7136       7246       7247       7258       7257  
      7126       7127       7138       7137       7247       7248       7259       7258  
      7127       7128       7139       7138       7248       7249       7260       7259  
      7140       7141       7152       7151       7261       7262       7273       7272  
      7141       7142       7153       7152       7262       7263       7274       7273  
      7142       7143       7154       7153       7263       7264       7275       7274  
      7143       7144       7155       7154       7264       7265       7276       7275  
      7144       7145       7156       7155       7265       7266       7277       7276  
      7145       7146       7157       7156       7266       7267       7278       7277  
      7146       7147       7158       7157       7267       7268       7279       7278  
      7147       7148       7159       7158       7268       7269       7280       7279  
      7148       7149       7160       7159       7269       7270       7281       7280  
      7149       7150       7161       7160       7270       7271       7282       7281  
      7151       7152       7163       7162       7272       7273       7284       7283  
      7152       7153       7164       7163       7273       7274       7285       7284  
      7153       7154       7165       7164       7274       7275       7286       7285  
      7154       7155       7166       7165       7275       7276       7287       7286  
      7155       7156       7167       7166       7276       7277       7288       7287  
      7156       7157       7168       7167       7277       7278       7289       7288  
      7157       7158       7169       7168       7278       7279       7290       7289  
      7158       7159       7170       7169       7279       7280       7291       7290  
      7159       7160       7171       7170       7280       7281       7292       7291  
      7160       7161       7172       7171       7281       7282       7293       7292  
      7162       7163       7174       7173       7283       7284       7295       7294  
      7163       7164       7175       7174       7284       7285       7296       7295  
      7164       7165       7176       7175       7285       7286       7297       7296  
      7165       7166       7177       7176       7286       7287       7298       7297  
      7166       7167       7178       7177       7287       7288       7299       7298  
      7167       7168       7179       7178       7288       7289       7300       7299  
      7168       7169       7180       7179       7289       7290       7301       7300  
      7169       7170       7181       7180       7290       7291       7302       7301  
      7170       7171       7182       7181       7291       7292       7303       7302  
      7171       7172       7183       7182       7292       7293       7304       7303  
      7173       7174       7185       7184       7294       7295       7306       7305  
      7174       7175       7186       7185       7295       7296       7307       7306  
      7175       7176       7187       7186       7296       7297       7308       7307  
      7176       7177       7188       7187       7297       7298       7309       7308  
      7177       7178       7189       7188       7298       7299       7310       7309  
      7178       7179       7190       7189       7299       7300       7311       7310  
      7179       7180       7191       7190       7300       7301       7312       7311  
      7180       7181       7192       7191       7301       7302       7313       7312  
      7181       7182       7193       7192       7302       7303       7314       7313  
      7182       7183       7194       7193       7303       7304       7315       7314  
      7184       7185       7196       7195       7305       7306       7317       7316  
      7185       7186       7197       7196       7306       7307       7318       7317  
      7186       7187       7198       7197       7307       7308       7319       7318  
      7187       7188       7199       7198       7308       7309       7320       7319  
      7188       7189       7200       7199       7309       7310       7321       7320  
      7189       7190       7201       7200       7310       7311       7322       7321  
      7190       7191       7202       7201       7311       7312       7323       7322  
      7191       7192       7203       7202       7312       7313       7324       7323  
      7192       7193       7204       7203       7313       7314       7325       7324  
      7193       7194       7205       7204       7314       7315       7326       7325  
      7195       7196       7207       7206       7316       7317       7328       7327  
      7196       7197       7208       7207       7317       7318       7329       7328  
      7197       7198       7209       7208       7318       7319       7330       7329  
      7198       7199       7210       7209       7319       7320       7331       7330  
      7199       7200       7211       7210       7320       7321       7332       7331  
      7200       7201       7212       7211       7321       7322       7333       7332  
      7201       7202       7213       7212       7322       7323       7334       7333  
      7202       7203       7214       7213       7323       7324       7335       7334  
      7203       7204       7215       7214       7324       7325       7336       7335  
      7204       7205       7216       7215       7325       7326       7337       7336  
      7206       7207       7218       7217       7327       7328       7339       7338  
      7207       7208       7219       7218       7328       7329       7340       7339  
      7208       7209       7220       7219       7329       7330       7341       7340  
      7209       7210       7221       7220       7330       7331       7342       7341  
      7210       7211       7222       7221       7331       7332       7343       7342  
      7211       7212       7223       7222       7332       7333       7344       7343  
      7212       7213       7224       7223       7333       7334       7345       7344  
      7213       7214       7225       7224       7334       7335       7346       7345  
      7214       7215       7226       7225       7335       7336       7347       7346  
      7215       7216       7227       7226       7336       7337       7348       7347  
      7217       7218       7229       7228       7338       7339       7350       7349  
      7218       7219       7230       7229       7339       7340       7351       7350  
      7219       7220       7231       7230       7340       7341       7352       7351  
      7220       7221       7232       7231       7341       7342       7353       7352  
      7221       7222       7233       7232       7342       7343       7354       7353  
      7222       7223       7234       7233       7343       7344       7355       7354  
      7223       7224       7235       7234       7344       7345       7356       7355  
      7224       7225       7236       7235       7345       7346       7357       7356  
      7225       7226       7237       7236       7346       7347       7358       7357  
      7226       7227       7238       7237       7347       7348       7359       7358  
      7228       7229       7240       7239       7349       7350       7361       7360  
      7229       7230       7241       7240       7350       7351       7362       7361  
      7230       7231       7242       7241       7351       7352       7363       7362  
      7231       7232       7243       7242       7352       7353       7364       7363  
      7232       7233       7244       7243       7353       7354       7365       7364  
      7233       7234       7245       7244       7354       7355       7366       7365  
      7234       7235       7246       7245       7355       7356       7367       7366  
      7235       7236       7247       7246       7356       7357       7368       7367  
      7236       7237       7248       7247       7357       7358       7369       7368  
      7237       7238       7249       7248       7358       7359       7370       7369  
      7239       7240       7251       7250       7360       7361       7372       7371  
      7240       7241       7252       7251       7361       7362       7373       7372  
      7241       7242       7253       7252       7362       7363       7374       7373  
      7242       7243       7254       7253       7363       7364       7375       7374  
      7243       7244       7255       7254       7364       7365       7376       7375  
      7244       7245       7256       7255       7365       7366       7377       7376  
      7245       7246       7257       7256       7366       7367       7378       7377  
      7246       7247       7258       7257       7367       7368       7379       7378  
      7247       7248       7259       7258       7368       7369       7380       7379  
      7248       7249       7260       7259       7369       7370       7381       7380  
      7261       7262       7273       7272       7382       7383       7394       7393  
      7262       7263       7274       7273       7383       7384       7395       7394  
      7263       7264       7275       7274       7384       7385       7396       7395  
      7264       7265       7276       7275       7385       7386       7397       7396  
      7265       7266       7277       7276       7386       7387       7398       7397  
      7266       7267       7278       7277       7387       7388       7399       7398  
      7267       7268       7279       7278       7388       7389       7400       7399  
      7268       7269       7280       7279       7389       7390       7401       7400  
      7269       7270       7281       7280       7390       7391       7402       7401  
      7270       7271       7282       7281       7391       7392       7403       7402  
      7272       7273       7284       7283       7393       7394       7405       7404  
      7273       7274       7285       7284       7394       7395       7406       7405  
      7274       7275       7286       7285       7395       7396       7407       7406  
      7275       7276       7287       7286       7396       7397       7408       7407  
      7276       7277       7288       7287       7397       7398       7409       7408  
      7277       7278       7289       7288       7398       7399       7410       7409  
      7278       7279       7290       7289       7399       7400       7411       7410  
      7279       7280       7291       7290       7400       7401       7412       7411  
      7280       7281       7292       7291       7401       7402       7413       7412  
      7281       7282       7293       7292       7402       7403       7414       7413  
      7283       7284       7295       7294       7404       7405       7416       7415  
      7284       7285       7296       7295       7405       7406       7417       7416  
      7285       7286       7297       7296       7406       7407       7418       7417  
      7286       7287       7298       7297       7407       7408       7419       7418  
      7287       7288       7299       7298       7408       7409       7420       7419  
      7288       7289       7300       7299       7409       7410       7421       7420  
      7289       7290       7301       7300       7410       7411       7422       7421  
      7290       7291       7302       7301       7411       7412       7423       7422  
      7291       7292       7303       7302       7412       7413       7424       7423  
      7292       7293       7304       7303       7413       7414       7425       7424  
      7294       7295       7306       7305       7415       7416       7427       7426  
      7295       7296       7307       7306       7416       7417       7428       7427  
      7296       7297       7308       7307       7417       7418       7429       7428  
      7297       7298       7309       7308       7418       7419       7430       7429  
      7298       7299       7310       7309       7419       7420       7431       7430  
      7299       7300       7311       7310       7420       7421       7432       7431  
      7300       7301       7312       7311       7421       7422       7433       7432  
      7301       7302       7313       7312       7422       7423       7434       7433  
      7302       7303       7314       7313       7423       7424       7435       7434  
      7303       7304       7315       7314       7424       7425       7436       7435  
      7305       7306       7317       7316       7426       7427       7438       7437  
      7306       7307       7318       7317       7427       7428       7439       7438  
      7307       7308       7319       7318       7428       7429       7440       7439  
      7308       7309       7320       7319       7429       7430       7441       7440  
      7309       7310       7321       7320       7430       7431       7442       7441  
      7310       7311       7322       7321       7431       7432       7443       7442  
      7311       7312       7323       7322       7432       7433       7444       7443  
      7312       7313       7324       7323       7433       7434       7445       7444  
      7313       7314       7325       7324       7434       7435       7446       7445  
      7314       7315       7326       7325       7435       7436       7447       7446  
      7316       7317       7328       7327       7437       7438       7449       7448  
      7317       7318       7329       7328       7438       7439       7450       7449  
      7318       7319       7330       7329       7439       7440       7451       7450  
      7319       7320       7331       7330       7440       7441       7452       7451  
      7320       7321       7332       7331       7441       7442       7453       7452  
      7321       7322       7333       7332       7442       7443       7454       7453  
      7322       7323       7334       7333       7443       7444       7455       7454  
      7323       7324       7335       7334       7444       7445       7456       7455  
      7324       7325       7336       7335       7445       7446       7457       7456  
      7325       7326       7337       7336       7446       7447       7458       7457  
      7327       7328       7339       7338       7448       7449       7460       7459  
      7328       7329       7340       7339       7449       7450       7461       7460  
      7329       7330       7341       7340       7450       7451       7462       7461  
      7330       7331       7342       7341       7451       7452       7463       7462  
      7331       7332       7343       7342       7452       7453       7464       7463  
      7332       7333       7344       7343       7453       7454       7465       7464  
      7333       7334       7345       7344       7454       7455       7466       7465  
      7334       7335       7346       7345       7455       7456       7467       7466  
      7335       7336       7347       7346       7456       7457       7468       7467  
      7336       7337       7348       7347       7457       7458       7469       7468  
      7338       7339       7350       7349       7459       7460       7471       7470  
      7339       7340       7351       7350       7460       7461       7472       7471  
      7340       7341       7352       7351       7461       7462       7473       7472  
      7341       7342       7353       7352       7462       7463       7474       7473  
      7342       7343       7354       7353       7463       7464       7475       7474  
      7343       7344       7355       7354       7464       7465       7476       7475  
      7344       7345       7356       7355       7465       7466       7477       7476  
      7345       7346       7357       7356       7466       7467       7478       7477  
      7346       7347       7358       7357       7467       7468       7479       7478  
      7347       7348       7359       7358       7468       7469       7480       7479  
      7349       7350       7361       7360       7470       7471       7482       7481  
      7350       7351       7362       7361       7471       7472       7483       7482  
      7351       7352       7363       7362       7472       7473       7484       7483  
      7352       7353       7364       7363       7473       7474       7485       7484  
      7353       7354       7365       7364       7474       7475       7486       7485  
      7354       7355       7366       7365       7475       7476       7487       7486  
      7355       7356       7367       7366       7476       7477       7488       7487  
      7356       7357       7368       7367       7477       7478       7489       7488  
      7357       7358       7369       7368       7478       7479       7490       7489  
      7358       7359       7370       7369       7479       7480       7491       7490  
      7360       7361       7372       7371       7481       7482       7493       7492  
      7361       7362       7373       7372       7482       7483       7494       7493  
      7362       7363       7374       7373       7483       7484       7495       7494  
      7363       7364       7375       7374       7484       7485       7496       7495  
      7364       7365       7376       7375       7485       7486       7497       7496  
      7365       7366       7377       7376       7486       7487       7498       7497  
      7366       7367       7378       7377       7487       7488       7499       7498  
      7367       7368       7379       7378       7488       7489       7500       7499  
      7368       7369       7380       7379       7489       7490       7501       7500  
      7369       7370       7381       7380       7490       7491       7502       7501  
      7382       7383       7394       7393       7503       7504       7515       7514  
      7383       7384       7395       7394       7504       7505       7516       7515  
      7384       7385       7396       7395       7505       7506       7517       7516  
      7385       7386       7397       7396       7506       7507       7518       7517  
      7386       7387       7398       7397       7507       7508       7519       7518  
      7387       7388       7399       7398       7508       7509       7520       7519  
      7388       7389       7400       7399       7509       7510       7521       7520  
      7389       7390       7401       7400       7510       7511       7522       7521  
      7390       7391       7402       7401       7511       7512       7523       7522  
      7391       7392       7403       7402       7512       7513       7524       7523  
      7393       7394       7405       7404       7514       7515       7526       7525  
      7394       7395       7406       7405       7515       7516       7527       7526  
      7395       7396       7407       7406       7516       7517       7528       7527  
      7396       7397       7408       7407       7517       7518       7529       7528  
      7397       7398       7409       7408       7518       7519       7530       7529  
      7398       7399       7410       7409       7519       7520       7531       7530  
      7399       7400       7411       7410       7520       7521       7532       7531  
      7400       7401       7412       7411       7521       7522       7533       7532  
      7401       7402       7413       7412       7522       7523       7534       7533  
      7402       7403       7414       7413       7523       7524       7535       7534  
      7404       7405       7416       7415       7525       7526       7537       7536  
      7405       7406       7417       7416       7526       7527       7538       7537  
      7406       7407       7418       7417       7527       7528       7539       7538  
      7407       7408       7419       7418       7528       7529       7540       7539  
      7408       7409       7420       7419       7529       7530       7541       7540  
      7409       7410       7421       7420       7530       7531       7542       7541  
      7410       7411       7422       7421       7531       7532       7543       7542  
      7411       7412       7423       7422       7532       7533       7544       7543  
      7412       7413       7424       7423       7533       7534       7545       7544  
      7413       7414       7425       7424       7534       7535       7546       7545  
      7415       7416       7427       7426       7536       7537       7548       7547  
      7416       7417       7428       7427       7537       7538       7549       7548  
      7417       7418       7429       7428       7538       7539       7550       7549  
      7418       7419       7430       7429       7539       7540       7551       7550  
      7419       7420       7431       7430       7540       7541       7552       7551  
      7420       7421       7432       7431       7541       7542       7553       7552  
      7421       7422       7433       7432       7542       7543       7554       7553  
      7422       7423       7434       7433       7543       7544       7555       7554  
      7423       7424       7435       7434       7544       7545       7556       7555  
      7424       7425       7436       7435       7545       7546       7557       7556  
      7426       7427       7438       7437       7547       7548       7559       7558  
      7427       7428       7439       7438       7548       7549       7560       7559  
      7428       7429       7440       7439       7549       7550       7561       7560  
      7429       7430       7441       7440       7550       7551       7562       7561  
      7430       7431       7442       7441       7551       7552       7563       7562  
      7431       7432       7443       7442       7552       7553       7564       7563  
      7432       7433       7444       7443       7553       7554       7565       7564  
      7433       7434       7445       7444       7554       7555       7566       7565  
      7434       7435       7446       7445       7555       7556       7567       7566  
      7435       7436       7447       7446       7556       7557       7568       7567  
      7437       7438       7449       7448       7558       7559       7570       7569  
      7438       7439       7450       7449       7559       7560       7571       7570  
      7439       7440       7451       7450       7560       7561       7572       7571  
      7440       7441       7452       7451       7561       7562       7573       7572  
      7441       7442       7453       7452       7562       7563       7574       7573  
      7442       7443       7454       7453       7563       7564       7575       7574  
      7443       7444       7455       7454       7564       7565       7576       7575  
      7444       7445       7456       7455       7565       7566       7577       7576  
      7445       7446       7457       7456       7566       7567       7578       7577  
      7446       7447       7458       7457       7567       7568       7579       7578  
      7448       7449       7460       7459       7569       7570       7581       7580  
      7449       7450       7461       7460       7570       7571       7582       7581  
      7450       7451       7462       7461       7571       7572       7583       7582  
      7451       7452       7463       7462       7572       7573       7584       7583  
      7452       7453       7464       7463       7573       7574       7585       7584  
      7453       7454       7465       7464       7574       7575       7586       7585  
      7454       7455       7466       7465       7575       7576       7587       7586  
      7455       7456       7467       7466       7576       7577       7588       7587  
      7456       7457       7468       7467       7577       7578       7589       7588  
      7457       7458       7469       7468       7578       7579       7590       7589  
      7459       7460       7471       7470       7580       7581       7592       7591  
      7460       7461       7472       7471       7581       7582       7593       7592  
      7461       7462       7473       7472       7582       7583       7594       7593  
      7462       7463       7474       7473       7583       7584       7595       7594  
      7463       7464       7475       7474       7584       7585       7596       7595  
      7464       7465       7476       7475       7585       7586       7597       7596  
      7465       7466       7477       7476       7586       7587       7598       7597  
      7466       7467       7478       7477       7587       7588       7599       7598  
      7467       7468       7479       7478       7588       7589       7600       7599  
      7468       7469       7480       7479       7589       7590       7601       7600  
      7470       7471       7482       7481       7591       7592       7603       7602  
      7471       7472       7483       7482       7592       7593       7604       7603  
      7472       7473       7484       7483       7593       7594       7605       7604  
      7473       7474       7485       7484       7594       7595       7606       7605  
      7474       7475       7486       7485       7595       7596       7607       7606  
      7475       7476       7487       7486       7596       7597       7608       7607  
      7476       7477       7488       7487       7597       7598       7609       7608  
      7477       7478       7489       7488       7598       7599       7610       7609  
      7478       7479       7490       7489       7599       7600       7611       7610  
      7479       7480       7491       7490       7600       7601       7612       7611  
      7481       7482       7493       7492       7602       7603       7614       7613  
      7482       7483       7494       7493       7603       7604       7615       7614  
      7483       7484       7495       7494       7604       7605       7616       7615  
      7484       7485       7496       7495       7605       7606       7617       7616  
      7485       7486       7497       7496       7606       7607       7618       7617  
      7486       7487       7498       7497       7607       7608       7619       7618  
      7487       7488       7499       7498       7608       7609       7620       7619  
      7488       7489       7500       7499       7609       7610       7621       7620  
      7489       7490       7501       7500       7610       7611       7622       7621  
      7490       7491       7502       7501       7611       7612       7623       7622  
      7503       7504       7515       7514       7624       7625       7636       7635  
      7504       7505       7516       7515       7625       7626       7637       7636  
      7505       7506       7517       7516       7626       7627       7638       7637  
      7506       7507       7518       7517       7627       7628       7639       7638  
      7507       7508       7519       7518       7628       7629       7640       7639  
      7508       7509       7520       7519       7629       7630       7641       7640  
      7509       7510       7521       7520       7630       7631       7642       7641  
      7510       7511       7522       7521       7631       7632       7643       7642  
      7511       7512       7523       7522       7632       7633       7644       7643  
      7512       7513       7524       7523       7633       7634       7645       7644  
      7514       7515       7526       7525       7635       7636       7647       7646  
      7515       7516       7527       7526       7636       7637       7648       7647  
      7516       7517       7528       7527       7637       7638       7649       7648  
      7517       7518       7529       7528       7638       7639       7650       7649  
      7518       7519       7530       7529       7639       7640       7651       7650  
      7519       7520       7531       7530       7640       7641       7652       7651  
      7520       7521       7532       7531       7641       7642       7653       7652  
      7521       7522       7533       7532       7642       7643       7654       7653  
      7522       7523       7534       7533       7643       7644       7655       7654  
      7523       7524       7535       7534       7644       7645       7656       7655  
      7525       7526       7537       7536       7646       7647       7658       7657  
      7526       7527       7538       7537       7647       7648       7659       7658  
      7527       7528       7539       7538       7648       7649       7660       7659  
      7528       7529       7540       7539       7649       7650       7661       7660  
      7529       7530       7541       7540       7650       7651       7662       7661  
      7530       7531       7542       7541       7651       7652       7663       7662  
      7531       7532       7543       7542       7652       7653       7664       7663  
      7532       7533       7544       7543       7653       7654       7665       7664  
      7533       7534       7545       7544       7654       7655       7666       7665  
      7534       7535       7546       7545       7655       7656       7667       7666  
      7536       7537       7548       7547       7657       7658       7669       7668  
      7537       7538       7549       7548       7658       7659       7670       7669  
      7538       7539       7550       7549       7659       7660       7671       7670  
      7539       7540       7551       7550       7660       7661       7672       7671  
      7540       7541       7552       7551       7661       7662       7673       7672  
      7541       7542       7553       7552       7662       7663       7674       7673  
      7542       7543       7554       7553       7663       7664       7675       7674  
      7543       7544       7555       7554       7664       7665       7676       7675  
      7544       7545       7556       7555       7665       7666       7677       7676  
      7545       7546       7557       7556       7666       7667       7678       7677  
      7547       7548       7559       7558       7668       7669       7680       7679  
      7548       7549       7560       7559       7669       7670       7681       7680  
      7549       7550       7561       7560       7670       7671       7682       7681  
      7550       7551       7562       7561       7671       7672       7683       7682  
      7551       7552       7563       7562       7672       7673       7684       7683  
      7552       7553       7564       7563       7673       7674       7685       7684  
      7553       7554       7565       7564       7674       7675       7686       7685  
      7554       7555       7566       7565       7675       7676       7687       7686  
      7555       7556       7567       7566       7676       7677       7688       7687  
      7556       7557       7568       7567       7677       7678       7689       7688  
      7558       7559       7570       7569       7679       7680       7691       7690  
      7559       7560       7571       7570       7680       7681       7692       7691  
      7560       7561       7572       7571       7681       7682       7693       7692  
      7561       7562       7573       7572       7682       7683       7694       7693  
      7562       7563       7574       7573       7683       7684       7695       7694  
      7563       7564       7575       7574       7684       7685       7696       7695  
      7564       7565       7576       7575       7685       7686       7697       7696  
      7565       7566       7577       7576       7686       7687       7698       7697  
      7566       7567       7578       7577       7687       7688       7699       7698  
      7567       7568       7579       7578       7688       7689       7700       7699  
      7569       7570       7581       7580       7690       7691       7702       7701  
      7570       7571       7582       7581       7691       7692       7703       7702  
      7571       7572       7583       7582       7692       7693       7704       7703  
      7572       7573       7584       7583       7693       7694       7705       7704  
      7573       7574       7585       7584       7694       7695       7706       7705  
      7574       7575       7586       7585       7695       7696       7707       7706  
      7575       7576       7587       7586       7696       7697       7708       7707  
      7576       7577       7588       7587       7697       7698       7709       7708  
      7577       7578       7589       7588       7698       7699       7710       7709  
      7578       7579       7590       7589       7699       7700       7711       7710  
      7580       7581       7592       7591       7701       7702       7713       7712  
      7581       7582       7593       7592       7702       7703       7714       7713  
      7582       7583       7594       7593       7703       7704       7715       7714  
      7583       7584       7595       7594       7704       7705       7716       7715  
      7584       7585       7596       7595       7705       7706       7717       7716  
      7585       7586       7597       7596       7706       7707       7718       7717  
      7586       7587       7598       7597       7707       7708       7719       7718  
      7587       7588       7599       7598       7708       7709       7720       7719  
      7588       7589       7600       7599       7709       7710       7721       7720  
      7589       7590       7601       7600       7710       7711       7722       7721  
      7591       7592       7603       7602       7712       7713       7724       7723  
      7592       7593       7604       7603       7713       7714       7725       7724  
      7593       7594       7605       7604       7714       7715       7726       7725  
      7594       7595       7606       7605       7715       7716       7727       7726  
      7595       7596       7607       7606       7716       7717       7728       7727  
      7596       7597       7608       7607       7717       7718       7729       7728  
      7597       7598       7609       7608       7718       7719       7730       7729  
      7598       7599       7610       7609       7719       7720       7731       7730  
      7599       7600       7611       7610       7720       7721       7732       7731  
      7600       7601       7612       7611       7721       7722       7733       7732  
      7602       7603       7614       7613       7723       7724       7735       7734  
      7603       7604       7615       7614       7724       7725       7736       7735  
      7604       7605       7616       7615       7725       7726       7737       7736  
      7605       7606       7617       7616       7726       7727       7738       7737  
      7606       7607       7618       7617       7727       7728       7739       7738  
      7607       7608       7619       7618       7728       7729       7740       7739  
      7608       7609       7620       7619       7729       7730       7741       7740  
      7609       7610       7621       7620       7730       7731       7742       7741  
      7610       7611       7622       7621       7731       7732       7743       7742  
      7611       7612       7623       7622       7732       7733       7744       7743  
      7624       7625       7636       7635       7745       7746       7757       7756  
      7625       7626       7637       7636       7746       7747       7758       7757  
      7626       7627       7638       7637       7747       7748       7759       7758  
      7627       7628       7639       7638       7748       7749       7760       7759  
      7628       7629       7640       7639       7749       7750       7761       7760  
      7629       7630       7641       7640       7750       7751       7762       7761  
      7630       7631       7642       7641       7751       7752       7763       7762  
      7631       7632       7643       7642       7752       7753       7764       7763  
      7632       7633       7644       7643       7753       7754       7765       7764  
      7633       7634       7645       7644       7754       7755       7766       7765  
      7635       7636       7647       7646       7756       7757       7768       7767  
      7636       7637       7648       7647       7757       7758       7769       7768  
      7637       7638       7649       7648       7758       7759       7770       7769  
      7638       7639       7650       7649       7759       7760       7771       7770  
      7639       7640       7651       7650       7760       7761       7772       7771  
      7640       7641       7652       7651       7761       7762       7773       7772  
      7641       7642       7653       7652       7762       7763       7774       7773  
      7642       7643       7654       7653       7763       7764       7775       7774  
      7643       7644       7655       7654       7764       7765       7776       7775  
      7644       7645       7656       7655       7765       7766       7777       7776  
      7646       7647       7658       7657       7767       7768       7779       7778  
      7647       7648       7659       7658       7768       7769       7780       7779  
      7648       7649       7660       7659       7769       7770       7781       7780  
      7649       7650       7661       7660       7770       7771       7782       7781  
      7650       7651       7662       7661       7771       7772       7783       7782  
      7651       7652       7663       7662       7772       7773       7784       7783  
      7652       7653       7664       7663       7773       7774       7785       7784  
      7653       7654       7665       7664       7774       7775       7786       7785  
      7654       7655       7666       7665       7775       7776       7787       7786  
      7655       7656       7667       7666       7776       7777       7788       7787  
      7657       7658       7669       7668       7778       7779       7790       7789  
      7658       7659       7670       7669       7779       7780       7791       7790  
      7659       7660       7671       7670       7780       7781       7792       7791  
      7660       7661       7672       7671       7781       7782       7793       7792  
      7661       7662       7673       7672       7782       7783       7794       7793  
      7662       7663       7674       7673       7783       7784       7795       7794  
      7663       7664       7675       7674       7784       7785       7796       7795  
      7664       7665       7676       7675       7785       7786       7797       7796  
      7665       7666       7677       7676       7786       7787       7798       7797  
      7666       7667       7678       7677       7787       7788       7799       7798  
      7668       7669       7680       7679       7789       7790       7801       7800  
      7669       7670       7681       7680       7790       7791       7802       7801  
      7670       7671       7682       7681       7791       7792       7803       7802  
      7671       7672       7683       7682       7792       7793       7804       7803  
      7672       7673       7684       7683       7793       7794       7805       7804  
      7673       7674       7685       7684       7794       7795       7806       7805  
      7674       7675       7686       7685       7795       7796       7807       7806  
      7675       7676       7687       7686       7796       7797       7808       7807  
      7676       7677       7688       7687       7797       7798       7809       7808  
      7677       7678       7689       7688       7798       7799       7810       7809  
      7679       7680       7691       7690       7800       7801       7812       7811  
      7680       7681       7692       7691       7801       7802       7813       7812  
      7681       7682       7693       7692       7802       7803       7814       7813  
      7682       7683       7694       7693       7803       7804       7815       7814  
      7683       7684       7695       7694       7804       7805       7816       7815  
      7684       7685       7696       7695       7805       7806       7817       7816  
      7685       7686       7697       7696       7806       7807       7818       7817  
      7686       7687       7698       7697       7807       7808       7819       7818  
      7687       7688       7699       7698       7808       7809       7820       7819  
      7688       7689       7700       7699       7809       7810       7821       7820  
      7690       7691       7702       7701       7811       7812       7823       7822  
      7691       7692       7703       7702       7812       7813       7824       7823  
      7692       7693       7704       7703       7813       7814       7825       7824  
      7693       7694       7705       7704       7814       7815       7826       7825  
      7694       7695       7706       7705       7815       7816       7827       7826  
      7695       7696       7707       7706       7816       7817       7828       7827  
      7696       7697       7708       7707       7817       7818       7829       7828  
      7697       7698       7709       7708       7818       7819       7830       7829  
      7698       7699       7710       7709       7819       7820       7831       7830  
      7699       7700       7711       7710       7820       7821       7832       7831  
      7701       7702       7713       7712       7822       7823       7834       7833  
      7702       7703       7714       7713       7823       7824       7835       7834  
      7703       7704       7715       7714       7824       7825       7836       7835  
      7704       7705       7716       7715       7825       7826       7837       7836  
      7705       7706       7717       7716       7826       7827       7838       7837  
      7706       7707       7718       7717       7827       7828       7839       7838  
      7707       7708       7719       7718       7828       7829       7840       7839  
      7708       7709       7720       7719       7829       7830       7841       7840  
      7709       7710       7721       7720       7830       7831       7842       7841  
      7710       7711       7722       7721       7831       7832       7843       7842  
      7712       7713       7724       7723       7833       7834       7845       7844  
      7713       7714       7725       7724       7834       7835       7846       7845  
      7714       7715       7726       7725       7835       7836       7847       7846  
      7715       7716       7727       7726       7836       7837       7848       7847  
      7716       7717       7728       7727       7837       7838       7849       7848  
      7717       7718       7729       7728       7838       7839       7850       7849  
      7718       7719       7730       7729       7839       7840       7851       7850  
      7719       7720       7731       7730       7840       7841       7852       7851  
      7720       7721       7732       7731       7841       7842       7853       7852  
      7721       7722       7733       7732       7842       7843       7854       7853  
      7723       7724       7735       7734       7844       7845       7856       7855  
      7724       7725       7736       7735       7845       7846       7857       7856  
      7725       7726       7737       7736       7846       7847       7858       7857  
      7726       7727       7738       7737       7847       7848       7859       7858  
      7727       7728       7739       7738       7848       7849       7860       7859  
      7728       7729       7740       7739       7849       7850       7861       7860  
      7729       7730       7741       7740       7850       7851       7862       7861  
      7730       7731       7742       7741       7851       7852       7863       7862  
      7731       7732       7743       7742       7852       7853       7864       7863  
      7732       7733       7744       7743       7853       7854       7865       7864  
      7745       7746       7757       7756       7866       7867       7878       7877  
      7746       7747       7758       7757       7867       7868       7879       7878  
      7747       7748       7759       7758       7868       7869       7880       7879  
      7748       7749       7760       7759       7869       7870       7881       7880  
      7749       7750       7761       7760       7870       7871       7882       7881  
      7750       7751       7762       7761       7871       7872       7883       7882  
      7751       7752       7763       7762       7872       7873       7884       7883  
      7752       7753       7764       7763       7873       7874       7885       7884  
      7753       7754       7765       7764       7874       7875       7886       7885  
      7754       7755       7766       7765       7875       7876       7887       7886  
      7756       7757       7768       7767       7877       7878       7889       7888  
      7757       7758       7769       7768       7878       7879       7890       7889  
      7758       7759       7770       7769       7879       7880       7891       7890  
      7759       7760       7771       7770       7880       7881       7892       7891  
      7760       7761       7772       7771       7881       7882       7893       7892  
      7761       7762       7773       7772       7882       7883       7894       7893  
      7762       7763       7774       7773       7883       7884       7895       7894  
      7763       7764       7775       7774       7884       7885       7896       7895  
      7764       7765       7776       7775       7885       7886       7897       7896  
      7765       7766       7777       7776       7886       7887       7898       7897  
      7767       7768       7779       7778       7888       7889       7900       7899  
      7768       7769       7780       7779       7889       7890       7901       7900  
      7769       7770       7781       7780       7890       7891       7902       7901  
      7770       7771       7782       7781       7891       7892       7903       7902  
      7771       7772       7783       7782       7892       7893       7904       7903  
      7772       7773       7784       7783       7893       7894       7905       7904  
      7773       7774       7785       7784       7894       7895       7906       7905  
      7774       7775       7786       7785       7895       7896       7907       7906  
      7775       7776       7787       7786       7896       7897       7908       7907  
      7776       7777       7788       7787       7897       7898       7909       7908  
      7778       7779       7790       7789       7899       7900       7911       7910  
      7779       7780       7791       7790       7900       7901       7912       7911  
      7780       7781       7792       7791       7901       7902       7913       7912  
      7781       7782       7793       7792       7902       7903       7914       7913  
      7782       7783       7794       7793       7903       7904       7915       7914  
      7783       7784       7795       7794       7904       7905       7916       7915  
      7784       7785       7796       7795       7905       7906       7917       7916  
      7785       7786       7797       7796       7906       7907       7918       7917  
      7786       7787       7798       7797       7907       7908       7919       7918  
      7787       7788       7799       7798       7908       7909       7920       7919  
      7789       7790       7801       7800       7910       7911       7922       7921  
      7790       7791       7802       7801       7911       7912       7923       7922  
      7791       7792       7803       7802       7912       7913       7924       7923  
      7792       7793       7804       7803       7913       7914       7925       7924  
      7793       7794       7805       7804       7914       7915       7926       7925  
      7794       7795       7806       7805       7915       7916       7927       7926  
      7795       7796       7807       7806       7916       7917       7928       7927  
      7796       7797       7808       7807       7917       7918       7929       7928  
      7797       7798       7809       7808       7918       7919       7930       7929  
      7798       7799       7810       7809       7919       7920       7931       7930  
      7800       7801       7812       7811       7921       7922       7933       7932  
      7801       7802       7813       7812       7922       7923       7934       7933  
      7802       7803       7814       7813       7923       7924       7935       7934  
      7803       7804       7815       7814       7924       7925       7936       7935  
      7804       7805       7816       7815       7925       7926       7937       7936  
      7805       7806       7817       7816       7926       7927       7938       7937  
      7806       7807       7818       7817       7927       7928       7939       7938  
      7807       7808       7819       7818       7928       7929       7940       7939  
      7808       7809       7820       7819       7929       7930       7941       7940  
      7809       7810       7821       7820       7930       7931       7942       7941  
      7811       7812       7823       7822       7932       7933       7944       7943  
      7812       7813       7824       7823       7933       7934       7945       7944  
      7813       7814       7825       7824       7934       7935       7946       7945  
      7814       7815       7826       7825       7935       7936       7947       7946  
      7815       7816       7827       7826       7936       7937       7948       7947  
      7816       7817       7828       7827       7937       7938       7949       7948  
      7817       7818       7829       7828       7938       7939       7950       7949  
      7818       7819       7830       7829       7939       7940       7951       7950  
      7819       7820       7831       7830       7940       7941       7952       7951  
      7820       7821       7832       7831       7941       7942       7953       7952  
      7822       7823       7834       7833       7943       7944       7955       7954  
      7823       7824       7835       7834       7944       7945       7956       7955  
      7824       7825       7836       7835       7945       7946       7957       7956  
      7825       7826       7837       7836       7946       7947       7958       7957  
      7826       7827       7838       7837       7947       7948       7959       7958  
      7827       7828       7839       7838       7948       7949       7960       7959  
      7828       7829       7840       7839       7949       7950       7961       7960  
      7829       7830       7841       7840       7950       7951       7962       7961  
      7830       7831       7842       7841       7951       7952       7963       7962  
      7831       7832       7843       7842       7952       7953       7964       7963  
      7833       7834       7845       7844       7954       7955       7966       7965  
      7834       7835       7846       7845       7955       7956       7967       7966  
      7835       7836       7847       7846       7956       7957       7968       7967  
      7836       7837       7848       7847       7957       7958       7969       7968  
      7837       7838       7849       7848       7958       7959       7970       7969  
      7838       7839       7850       7849       7959       7960       7971       7970  
      7839       7840       7851       7850       7960       7961       7972       7971  
      7840       7841       7852       7851       7961       7962       7973       7972  
      7841       7842       7853       7852       7962       7963       7974       7973  
      7842       7843       7854       7853       7963       7964       7975       7974  
      7844       7845       7856       7855       7965       7966       7977       7976  
      7845       7846       7857       7856       7966       7967       7978       7977  
      7846       7847       7858       7857       7967       7968       7979       7978  
      7847       7848       7859       7858       7968       7969       7980       7979  
      7848       7849       7860       7859       7969       7970       7981       7980  
      7849       7850       7861       7860       7970       7971       7982       7981  
      7850       7851       7862       7861       7971       7972       7983       7982  
      7851       7852       7863       7862       7972       7973       7984       7983  
      7852       7853       7864       7863       7973       7974       7985       7984  
      7853       7854       7865       7864       7974       7975       7986       7985  
      7866       7867       7878       7877       7987       7988       7999       7998  
      7867       7868       7879       7878       7988       7989       8000       7999  
      7868       7869       7880       7879       7989       7990       8001       8000  
      7869       7870       7881       7880       7990       7991       8002       8001  
      7870       7871       7882       7881       7991       7992       8003       8002  
      7871       7872       7883       7882       7992       7993       8004       8003  
      7872       7873       7884       7883       7993       7994       8005       8004  
      7873       7874       7885       7884       7994       7995       8006       8005  
      7874       7875       7886       7885       7995       7996       8007       8006  
      7875       7876       7887       7886       7996       7997       8008       8007  
      7877       7878       7889       7888       7998       7999       8010       8009  
      7878       7879       7890       7889       7999       8000       8011       8010  
      7879       7880       7891       7890       8000       8001       8012       8011  
      7880       7881       7892       7891       8001       8002       8013       8012  
      7881       7882       7893       7892       8002       8003       8014       8013  
      7882       7883       7894       7893       8003       8004       8015       8014  
      7883       7884       7895       7894       8004       8005       8016       8015  
      7884       7885       7896       7895       8005       8006       8017       8016  
      7885       7886       7897       7896       8006       8007       8018       8017  
      7886       7887       7898       7897       8007       8008       8019       8018  
      7888       7889       7900       7899       8009       8010       8021       8020  
      7889       7890       7901       7900       8010       8011       8022       8021  
      7890       7891       7902       7901       8011       8012       8023       8022  
      7891       7892       7903       7902       8012       8013       8024       8023  
      7892       7893       7904       7903       8013       8014       8025       8024  
      7893       7894       7905       7904       8014       8015       8026       8025  
      7894       7895       7906       7905       8015       8016       8027       8026  
      7895       7896       7907       7906       8016       8017       8028       8027  
      7896       7897       7908       7907       8017       8018       8029       8028  
      7897       7898       7909       7908       8018       8019       8030       8029  
      7899       7900       7911       7910       8020       8021       8032       8031  
      7900       7901       7912       7911       8021       8022       8033       8032  
      7901       7902       7913       7912       8022       8023       8034       8033  
      7902       7903       7914       7913       8023       8024       8035       8034  
      7903       7904       7915       7914       8024       8025       8036       8035  
      7904       7905       7916       7915       8025       8026       8037       8036  
      7905       7906       7917       7916       8026       8027       8038       8037  
      7906       7907       7918       7917       8027       8028       8039       8038  
      7907       7908       7919       7918       8028       8029       8040       8039  
      7908       7909       7920       7919       8029       8030       8041       8040  
      7910       7911       7922       7921       8031       8032       8043       8042  
      7911       7912       7923       7922       8032       8033       8044       8043  
      7912       7913       7924       7923       8033       8034       8045       8044  
      7913       7914       7925       7924       8034       8035       8046       8045  
      7914       7915       7926       7925       8035       8036       8047       8046  
      7915       7916       7927       7926       8036       8037       8048       8047  
      7916       7917       7928       7927       8037       8038       8049       8048  
      7917       7918       7929       7928       8038       8039       8050       8049  
      7918       7919       7930       7929       8039       8040       8051       8050  
      7919       7920       7931       7930       8040       8041       8052       8051  
      7921       7922       7933       7932       8042       8043       8054       8053  
      7922       7923       7934       7933       8043       8044       8055       8054  
      7923       7924       7935       7934       8044       8045       8056       8055  
      7924       7925       7936       7935       8045       8046       8057       8056  
      7925       7926       7937       7936       8046       8047       8058       8057  
      7926       7927       7938       7937       8047       8048       8059       8058  
      7927       7928       7939       7938       8048       8049       8060       8059  
      7928       7929       7940       7939       8049       8050       8061       8060  
      7929       7930       7941       7940       8050       8051       8062       8061  
      7930       7931       7942       7941       8051       8052       8063       8062  
      7932       7933       7944       7943       8053       8054       8065       8064  
      7933       7934       7945       7944       8054       8055       8066       8065  
      7934       7935       7946       7945       8055       8056       8067       8066  
      7935       7936       7947       7946       8056       8057       8068       8067  
      7936       7937       7948       7947       8057       8058       8069       8068  
      7937       7938       7949       7948       8058       8059       8070       8069  
      7938       7939       7950       7949       8059       8060       8071       8070  
      7939       7940       7951       7950       8060       8061       8072       8071  
      7940       7941       7952       7951       8061       8062       8073       8072  
      7941       7942       7953       7952       8062       8063       8074       8073  
      7943       7944       7955       7954       8064       8065       8076       8075  
      7944       7945       7956       7955       8065       8066       8077       8076  
      7945       7946       7957       7956       8066       8067       8078       8077  
      7946       7947       7958       7957       8067       8068       8079       8078  
      7947       7948       7959       7958       8068       8069       8080       8079  
      7948       7949       7960       7959       8069       8070       8081       8080  
      7949       7950       7961       7960       8070       8071       8082       8081  
      7950       7951       7962       7961       8071       8072       8083       8082  
      7951       7952       7963       7962       8072       8073       8084       8083  
      7952       7953       7964       7963       8073       8074       8085       8084  
      7954       7955       7966       7965       8075       8076       8087       8086  
      7955       7956       7967       7966       8076       8077       8088       8087  
      7956       7957       7968       7967       8077       8078       8089       8088  
      7957       7958       7969       7968       8078       8079       8090       8089  
      7958       7959       7970       7969       8079       8080       8091       8090  
      7959       7960       7971       7970       8080       8081       8092       8091  
      7960       7961       7972       7971       8081       8082       8093       8092  
      7961       7962       7973       7972       8082       8083       8094       8093  
      7962       7963       7974       7973       8083       8084       8095       8094  
      7963       7964       7975       7974       8084       8085       8096       8095  
      7965       7966       7977       7976       8086       8087       8098       8097  
      7966       7967       7978       7977       8087       8088       8099       8098  
      7967       7968       7979       7978       8088       8089       8100       8099  
      7968       7969       7980       7979       8089       8090       8101       8100  
      7969       7970       7981       7980       8090       8091       8102       8101  
      7970       7971       7982       7981       8091       8092       8103       8102  
      7971       7972       7983       7982       8092       8093       8104       8103  
      7972       7973       7984       7983       8093       8094       8105       8104  
      7973       7974       7985       7984       8094       8095       8106       8105  
      7974       7975       7986       7985       8095       8096       8107       8106  
      7987       7988       7999       7998       8108       8109       8120       8119  
      7988       7989       8000       7999       8109       8110       8121       8120  
      7989       7990       8001       8000       8110       8111       8122       8121  
      7990       7991       8002       8001       8111       8112       8123       8122  
      7991       7992       8003       8002       8112       8113       8124       8123  
      7992       7993       8004       8003       8113       8114       8125       8124  
      7993       7994       8005       8004       8114       8115       8126       8125  
      7994       7995       8006       8005       8115       8116       8127       8126  
      7995       7996       8007       8006       8116       8117       8128       8127  
      7996       7997       8008       8007       8117       8118       8129       8128  
      7998       7999       8010       8009       8119       8120       8131       8130  
      7999       8000       8011       8010       8120       8121       8132       8131  
      8000       8001       8012       8011       8121       8122       8133       8132  
      8001       8002       8013       8012       8122       8123       8134       8133  
      8002       8003       8014       8013       8123       8124       8135       8134  
      8003       8004       8015       8014       8124       8125       8136       8135  
      8004       8005       8016       8015       8125       8126       8137       8136  
      8005       8006       8017       8016       8126       8127       8138       8137  
      8006       8007       8018       8017       8127       8128       8139       8138  
      8007       8008       8019       8018       8128       8129       8140       8139  
      8009       8010       8021       8020       8130       8131       8142       8141  
      8010       8011       8022       8021       8131       8132       8143       8142  
      8011       8012       8023       8022       8132       8133       8144       8143  
      8012       8013       8024       8023       8133       8134       8145       8144  
      8013       8014       8025       8024       8134       8135       8146       8145  
      8014       8015       8026       8025       8135       8136       8147       8146  
      8015       8016       8027       8026       8136       8137       8148       8147  
      8016       8017       8028       8027       8137       8138       8149       8148  
      8017       8018       8029       8028       8138       8139       8150       8149  
      8018       8019       8030       8029       8139       8140       8151       8150  
      8020       8021       8032       8031       8141       8142       8153       8152  
      8021       8022       8033       8032       8142       8143       8154       8153  
      8022       8023       8034       8033       8143       8144       8155       8154  
      8023       8024       8035       8034       8144       8145       8156       8155  
      8024       8025       8036       8035       8145       8146       8157       8156  
      8025       8026       8037       8036       8146       8147       8158       8157  
      8026       8027       8038       8037       8147       8148       8159       8158  
      8027       8028       8039       8038       8148       8149       8160       8159  
      8028       8029       8040       8039       8149       8150       8161       8160  
      8029       8030       8041       8040       8150       8151       8162       8161  
      8031       8032       8043       8042       8152       8153       8164       8163  
      8032       8033       8044       8043       8153       8154       8165       8164  
      8033       8034       8045       8044       8154       8155       8166       8165  
      8034       8035       8046       8045       8155       8156       8167       8166  
      8035       8036       8047       8046       8156       8157       8168       8167  
      8036       8037       8048       8047       8157       8158       8169       8168  
      8037       8038       8049       8048       8158       8159       8170       8169  
      8038       8039       8050       8049       8159       8160       8171       8170  
      8039       8040       8051       8050       8160       8161       8172       8171  
      8040       8041       8052       8051       8161       8162       8173       8172  
      8042       8043       8054       8053       8163       8164       8175       8174  
      8043       8044       8055       8054       8164       8165       8176       8175  
      8044       8045       8056       8055       8165       8166       8177       8176  
      8045       8046       8057       8056       8166       8167       8178       8177  
      8046       8047       8058       8057       8167       8168       8179       8178  
      8047       8048       8059       8058       8168       8169       8180       8179  
      8048       8049       8060       8059       8169       8170       8181       8180  
      8049       8050       8061       8060       8170       8171       8182       8181  
      8050       8051       8062       8061       8171       8172       8183       8182  
      8051       8052       8063       8062       8172       8173       8184       8183  
      8053       8054       8065       8064       8174       8175       8186       8185  
      8054       8055       8066       8065       8175       8176       8187       8186  
      8055       8056       8067       8066       8176       8177       8188       8187  
      8056       8057       8068       8067       8177       8178       8189       8188  
      8057       8058       8069       8068       8178       8179       8190       8189  
      8058       8059       8070       8069       8179       8180       8191       8190  
      8059       8060       8071       8070       8180       8181       8192       8191  
      8060       8061       8072       8071       8181       8182       8193       8192  
      8061       8062       8073       8072       8182       8183       8194       8193  
      8062       8063       8074       8073       8183       8184       8195       8194  
      8064       8065       8076       8075       8185       8186       8197       8196  
      8065       8066       8077       8076       8186       8187       8198       8197  
      8066       8067       8078       8077       8187       8188       8199       8198  
      8067       8068       8079       8078       8188       8189       8200       8199  
      8068       8069       8080       8079       8189       8190       8201       8200  
      8069       8070       8081       8080       8190       8191       8202       8201  
      8070       8071       8082       8081       8191       8192       8203       8202  
      8071       8072       8083       8082       8192       8193       8204       8203  
      8072       8073       8084       8083       8193       8194       8205       8204  
      8073       8074       8085       8084       8194       8195       8206       8205  
      8075       8076       8087       8086       8196       8197       8208       8207  
      8076       8077       8088       8087       8197       8198       8209       8208  
      8077       8078       8089       8088       8198       8199       8210       8209  
      8078       8079       8090       8089       8199       8200       8211       8210  
      8079       8080       8091       8090       8200       8201       8212       8211  
      8080       8081       8092       8091       8201       8202       8213       8212  
      8081       8082       8093       8092       8202       8203       8214       8213  
      8082       8083       8094       8093       8203       8204       8215       8214  
      8083       8084       8095       8094       8204       8205       8216       8215  
      8084       8085       8096       8095       8205       8206       8217       8216  
      8086       8087       8098       8097       8207       8208       8219       8218  
      8087       8088       8099       8098       8208       8209       8220       8219  
      8088       8089       8100       8099       8209       8210       8221       8220  
      8089       8090       8101       8100       8210       8211       8222       8221  
      8090       8091       8102       8101       8211       8212       8223       8222  
      8091       8092       8103       8102       8212       8213       8224       8223  
      8092       8093       8104       8103       8213       8214       8225       8224  
      8093       8094       8105       8104       8214       8215       8226       8225  
      8094       8095       8106       8105       8215       8216       8227       8226  
      8095       8096       8107       8106       8216       8217       8228       8227  
      8108       8109       8120       8119       8229       8230       8241       8240  
      8109       8110       8121       8120       8230       8231       8242       8241  
      8110       8111       8122       8121       8231       8232       8243       8242  
      8111       8112       8123       8122       8232       8233       8244       8243  
      8112       8113       8124       8123       8233       8234       8245       8244  
      8113       8114       8125       8124       8234       8235       8246       8245  
      8114       8115       8126       8125       8235       8236       8247       8246  
      8115       8116       8127       8126       8236       8237       8248       8247  
      8116       8117       8128       8127       8237       8238       8249       8248  
      8117       8118       8129       8128       8238       8239       8250       8249  
      8119       8120       8131       8130       8240       8241       8252       8251  
      8120       8121       8132       8131       8241       8242       8253       8252  
      8121       8122       8133       8132       8242       8243       8254       8253  
      8122       8123       8134       8133       8243       8244       8255       8254  
      8123       8124       8135       8134       8244       8245       8256       8255  
      8124       8125       8136       8135       8245       8246       8257       8256  
      8125       8126       8137       8136       8246       8247       8258       8257  
      8126       8127       8138       8137       8247       8248       8259       8258  
      8127       8128       8139       8138       8248       8249       8260       8259  
      8128       8129       8140       8139       8249       8250       8261       8260  
      8130       8131       8142       8141       8251       8252       8263       8262  
      8131       8132       8143       8142       8252       8253       8264       8263  
      8132       8133       8144       8143       8253       8254       8265       8264  
      8133       8134       8145       8144       8254       8255       8266       8265  
      8134       8135       8146       8145       8255       8256       8267       8266  
      8135       8136       8147       8146       8256       8257       8268       8267  
      8136       8137       8148       8147       8257       8258       8269       8268  
      8137       8138       8149       8148       8258       8259       8270       8269  
      8138       8139       8150       8149       8259       8260       8271       8270  
      8139       8140       8151       8150       8260       8261       8272       8271  
      8141       8142       8153       8152       8262       8263       8274       8273  
      8142       8143       8154       8153       8263       8264       8275       8274  
      8143       8144       8155       8154       8264       8265       8276       8275  
      8144       8145       8156       8155       8265       8266       8277       8276  
      8145       8146       8157       8156       8266       8267       8278       8277  
      8146       8147       8158       8157       8267       8268       8279       8278  
      8147       8148       8159       8158       8268       8269       8280       8279  
      8148       8149       8160       8159       8269       8270       8281       8280  
      8149       8150       8161       8160       8270       8271       8282       8281  
      8150       8151       8162       8161       8271       8272       8283       8282  
      8152       8153       8164       8163       8273       8274       8285       8284  
      8153       8154       8165       8164       8274       8275       8286       8285  
      8154       8155       8166       8165       8275       8276       8287       8286  
      8155       8156       8167       8166       8276       8277       8288       8287  
      8156       8157       8168       8167       8277       8278       8289       8288  
      8157       8158       8169       8168       8278       8279       8290       8289  
      8158       8159       8170       8169       8279       8280       8291       8290  
      8159       8160       8171       8170       8280       8281       8292       8291  
      8160       8161       8172       8171       8281       8282       8293       8292  
      8161       8162       8173       8172       8282       8283       8294       8293  
      8163       8164       8175       8174       8284       8285       8296       8295  
      8164       8165       8176       8175       8285       8286       8297       8296  
      8165       8166       8177       8176       8286       8287       8298       8297  
      8166       8167       8178       8177       8287       8288       8299       8298  
      8167       8168       8179       8178       8288       8289       8300       8299  
      8168       8169       8180       8179       8289       8290       8301       8300  
      8169       8170       8181       8180       8290       8291       8302       8301  
      8170       8171       8182       8181       8291       8292       8303       8302  
      8171       8172       8183       8182       8292       8293       8304       8303  
      8172       8173       8184       8183       8293       8294       8305       8304  
      8174       8175       8186       8185       8295       8296       8307       8306  
      8175       8176       8187       8186       8296       8297       8308       8307  
      8176       8177       8188       8187       8297       8298       8309       8308  
      8177       8178       8189       8188       8298       8299       8310       8309  
      8178       8179       8190       8189       8299       8300       8311       8310  
      8179       8180       8191       8190       8300       8301       8312       8311  
      8180       8181       8192       8191       8301       8302       8313       8312  
      8181       8182       8193       8192       8302       8303       8314       8313  
      8182       8183       8194       8193       8303       8304       8315       8314  
      8183       8184       8195       8194       8304       8305       8316       8315  
      8185       8186       8197       8196       8306       8307       8318       8317  
      8186       8187       8198       8197       8307       8308       8319       8318  
      8187       8188       8199       8198       8308       8309       8320       8319  
      8188       8189       8200       8199       8309       8310       8321       8320  
      8189       8190       8201       8200       8310       8311       8322       8321  
      8190       8191       8202       8201       8311       8312       8323       8322  
      8191       8192       8203       8202       8312       8313       8324       8323  
      8192       8193       8204       8203       8313       8314       8325       8324  
      8193       8194       8205       8204       8314       8315       8326       8325  
      8194       8195       8206       8205       8315       8316       8327       8326  
      8196       8197       8208       8207       8317       8318       8329       8328  
      8197       8198       8209       8208       8318       8319       8330       8329  
      8198       8199       8210       8209       8319       8320       8331       8330  
      8199       8200       8211       8210       8320       8321       8332       8331  
      8200       8201       8212       8211       8321       8322       8333       8332  
      8201       8202       8213       8212       8322       8323       8334       8333  
      8202       8203       8214       8213       8323       8324       8335       8334  
      8203       8204       8215       8214       8324       8325       8336       8335  
      8204       8205       8216       8215       8325       8326       8337       8336  
      8205       8206       8217       8216       8326       8327       8338       8337  
      8207       8208       8219       8218       8328       8329       8340       8339  
      8208       8209       8220       8219       8329       8330       8341       8340  
      8209       8210       8221       8220       8330       8331       8342       8341  
      8210       8211       8222       8221       8331       8332       8343       8342  
      8211       8212       8223       8222       8332       8333       8344       8343  
      8212       8213       8224       8223       8333       8334       8345       8344  
      8213       8214       8225       8224       8334       8335       8346       8345  
      8214       8215       8226       8225       8335       8336       8347       8346  
      8215       8216       8227       8226       8336       8337       8348       8347  
      8216       8217       8228       8227       8337       8338       8349       8348  
      8229       8230       8241       8240       8350       8351       8362       8361  
      8230       8231       8242       8241       8351       8352       8363       8362  
      8231       8232       8243       8242       8352       8353       8364       8363  
      8232       8233       8244       8243       8353       8354       8365       8364  
      8233       8234       8245       8244       8354       8355       8366       8365  
      8234       8235       8246       8245       8355       8356       8367       8366  
      8235       8236       8247       8246       8356       8357       8368       8367  
      8236       8237       8248       8247       8357       8358       8369       8368  
      8237       8238       8249       8248       8358       8359       8370       8369  
      8238       8239       8250       8249       8359       8360       8371       8370  
      8240       8241       8252       8251       8361       8362       8373       8372  
      8241       8242       8253       8252       8362       8363       8374       8373  
      8242       8243       8254       8253       8363       8364       8375       8374  
      8243       8244       8255       8254       8364       8365       8376       8375  
      8244       8245       8256       8255       8365       8366       8377       8376  
      8245       8246       8257       8256       8366       8367       8378       8377  
      8246       8247       8258       8257       8367       8368       8379       8378  
      8247       8248       8259       8258       8368       8369       8380       8379  
      8248       8249       8260       8259       8369       8370       8381       8380  
      8249       8250       8261       8260       8370       8371       8382       8381  
      8251       8252       8263       8262       8372       8373       8384       8383  
      8252       8253       8264       8263       8373       8374       8385       8384  
      8253       8254       8265       8264       8374       8375       8386       8385  
      8254       8255       8266       8265       8375       8376       8387       8386  
      8255       8256       8267       8266       8376       8377       8388       8387  
      8256       8257       8268       8267       8377       8378       8389       8388  
      8257       8258       8269       8268       8378       8379       8390       8389  
      8258       8259       8270       8269       8379       8380       8391       8390  
      8259       8260       8271       8270       8380       8381       8392       8391  
      8260       8261       8272       8271       8381       8382       8393       8392  
      8262       8263       8274       8273       8383       8384       8395       8394  
      8263       8264       8275       8274       8384       8385       8396       8395  
      8264       8265       8276       8275       8385       8386       8397       8396  
      8265       8266       8277       8276       8386       8387       8398       8397  
      8266       8267       8278       8277       8387       8388       8399       8398  
      8267       8268       8279       8278       8388       8389       8400       8399  
      8268       8269       8280       8279       8389       8390       8401       8400  
      8269       8270       8281       8280       8390       8391       8402       8401  
      8270       8271       8282       8281       8391       8392       8403       8402  
      8271       8272       8283       8282       8392       8393       8404       8403  
      8273       8274       8285       8284       8394       8395       8406       8405  
      8274       8275       8286       8285       8395       8396       8407       8406  
      8275       8276       8287       8286       8396       8397       8408       8407  
      8276       8277       8288       8287       8397       8398       8409       8408  
      8277       8278       8289       8288       8398       8399       8410       8409  
      8278       8279       8290       8289       8399       8400       8411       8410  
      8279       8280       8291       8290       8400       8401       8412       8411  
      8280       8281       8292       8291       8401       8402       8413       8412  
      8281       8282       8293       8292       8402       8403       8414       8413  
      8282       8283       8294       8293       8403       8404       8415       8414  
      8284       8285       8296       8295       8405       8406       8417       8416  
      8285       8286       8297       8296       8406       8407       8418       8417  
      8286       8287       8298       8297       8407       8408       8419       8418  
      8287       8288       8299       8298       8408       8409       8420       8419  
      8288       8289       8300       8299       8409       8410       8421       8420  
      8289       8290       8301       8300       8410       8411       8422       8421  
      8290       8291       8302       8301       8411       8412       8423       8422  
      8291       8292       8303       8302       8412       8413       8424       8423  
      8292       8293       8304       8303       8413       8414       8425       8424  
      8293       8294       8305       8304       8414       8415       8426       8425  
      8295       8296       8307       8306       8416       8417       8428       8427  
      8296       8297       8308       8307       8417       8418       8429       8428  
      8297       8298       8309       8308       8418       8419       8430       8429  
      8298       8299       8310       8309       8419       8420       8431       8430  
      8299       8300       8311       8310       8420       8421       8432       8431  
      8300       8301       8312       8311       8421       8422       8433       8432  
      8301       8302       8313       8312       8422       8423       8434       8433  
      8302       8303       8314       8313       8423       8424       8435       8434  
      8303       8304       8315       8314       8424       8425       8436       8435  
      8304       8305       8316       8315       8425       8426       8437       8436  
      8306       8307       8318       8317       8427       8428       8439       8438  
      8307       8308       8319       8318       8428       8429       8440       8439  
      8308       8309       8320       8319       8429       8430       8441       8440  
      8309       8310       8321       8320       8430       8431       8442       8441  
      8310       8311       8322       8321       8431       8432       8443       8442  
      8311       8312       8323       8322       8432       8433       8444       8443  
      8312       8313       8324       8323       8433       8434       8445       8444  
      8313       8314       8325       8324       8434       8435       8446       8445  
      8314       8315       8326       8325       8435       8436       8447       8446  
      8315       8316       8327       8326       8436       8437       8448       8447  
      8317       8318       8329       8328       8438       8439       8450       8449  
      8318       8319       8330       8329       8439       8440       8451       8450  
      8319       8320       8331       8330       8440       8441       8452       8451  
      8320       8321       8332       8331       8441       8442       8453       8452  
      8321       8322       8333       8332       8442       8443       8454       8453  
      8322       8323       8334       8333       8443       8444       8455       8454  
      8323       8324       8335       8334       8444       8445       8456       8455  
      8324       8325       8336       8335       8445       8446       8457       8456  
      8325       8326       8337       8336       8446       8447       8458       8457  
      8326       8327       8338       8337       8447       8448       8459       8458  
      8328       8329       8340       8339       8449       8450       8461       8460  
      8329       8330       8341       8340       8450       8451       8462       8461  
      8330       8331       8342       8341       8451       8452       8463       8462  
      8331       8332       8343       8342       8452       8453       8464       8463  
      8332       8333       8344       8343       8453       8454       8465       8464  
      8333       8334       8345       8344       8454       8455       8466       8465  
      8334       8335       8346       8345       8455       8456       8467       8466  
      8335       8336       8347       8346       8456       8457       8468       8467  
      8336       8337       8348       8347       8457       8458       8469       8468  
      8337       8338       8349       8348       8458       8459       8470       8469  
      8350       8351       8362       8361       8471       8472       8483       8482  
      8351       8352       8363       8362       8472       8473       8484       8483  
      8352       8353       8364       8363       8473       8474       8485       8484  
      8353       8354       8365       8364       8474       8475       8486       8485  
      8354       8355       8366       8365       8475       8476       8487       8486  
      8355       8356       8367       8366       8476       8477       8488       8487  
      8356       8357       8368       8367       8477       8478       8489       8488  
      8357       8358       8369       8368       8478       8479       8490       8489  
      8358       8359       8370       8369       8479       8480       8491       8490  
      8359       8360       8371       8370       8480       8481       8492       8491  
      8361       8362       8373       8372       8482       8483       8494       8493  
      8362       8363       8374       8373       8483       8484       8495       8494  
      8363       8364       8375       8374       8484       8485       8496       8495  
      8364       8365       8376       8375       8485       8486       8497       8496  
      8365       8366       8377       8376       8486       8487       8498       8497  
      8366       8367       8378       8377       8487       8488       8499       8498  
      8367       8368       8379       8378       8488       8489       8500       8499  
      8368       8369       8380       8379       8489       8490       8501       8500  
      8369       8370       8381       8380       8490       8491       8502       8501  
      8370       8371       8382       8381       8491       8492       8503       8502  
      8372       8373       8384       8383       8493       8494       8505       8504  
      8373       8374       8385       8384       8494       8495       8506       8505  
      8374       8375       8386       8385       8495       8496       8507       8506  
      8375       8376       8387       8386       8496       8497       8508       8507  
      8376       8377       8388       8387       8497       8498       8509       8508  
      8377       8378       8389       8388       8498       8499       8510       8509  
      8378       8379       8390       8389       8499       8500       8511       8510  
      8379       8380       8391       8390       8500       8501       8512       8511  
      8380       8381       8392       8391       8501       8502       8513       8512  
      8381       8382       8393       8392       8502       8503       8514       8513  
      8383       8384       8395       8394       8504       8505       8516       8515  
      8384       8385       8396       8395       8505       8506       8517       8516  
      8385       8386       8397       8396       8506       8507       8518       8517  
      8386       8387       8398       8397       8507       8508       8519       8518  
      8387       8388       8399       8398       8508       8509       8520       8519  
      8388       8389       8400       8399       8509       8510       8521       8520  
      8389       8390       8401       8400       8510       8511       8522       8521  
      8390       8391       8402       8401       8511       8512       8523       8522  
      8391       8392       8403       8402       8512       8513       8524       8523  
      8392       8393       8404       8403       8513       8514       8525       8524  
      8394       8395       8406       8405       8515       8516       8527       8526  
      8395       8396       8407       8406       8516       8517       8528       8527  
      8396       8397       8408       8407       8517       8518       8529       8528  
      8397       8398       8409       8408       8518       8519       8530       8529  
      8398       8399       8410       8409       8519       8520       8531       8530  
      8399       8400       8411       8410       8520       8521       8532       8531  
      8400       8401       8412       8411       8521       8522       8533       8532  
      8401       8402       8413       8412       8522       8523       8534       8533  
      8402       8403       8414       8413       8523       8524       8535       8534  
      8403       8404       8415       8414       8524       8525       8536       8535  
      8405       8406       8417       8416       8526       8527       8538       8537  
      8406       8407       8418       8417       8527       8528       8539       8538  
      8407       8408       8419       8418       8528       8529       8540       8539  
      8408       8409       8420       8419       8529       8530       8541       8540  
      8409       8410       8421       8420       8530       8531       8542       8541  
      8410       8411       8422       8421       8531       8532       8543       8542  
      8411       8412       8423       8422       8532       8533       8544       8543  
      8412       8413       8424       8423       8533       8534       8545       8544  
      8413       8414       8425       8424       8534       8535       8546       8545  
      8414       8415       8426       8425       8535       8536       8547       8546  
      8416       8417       8428       8427       8537       8538       8549       8548  
      8417       8418       8429       8428       8538       8539       8550       8549  
      8418       8419       8430       8429       8539       8540       8551       8550  
      8419       8420       8431       8430       8540       8541       8552       8551  
      8420       8421       8432       8431       8541       8542       8553       8552  
      8421       8422       8433       8432       8542       8543       8554       8553  
      8422       8423       8434       8433       8543       8544       8555       8554  
      8423       8424       8435       8434       8544       8545       8556       8555  
      8424       8425       8436       8435       8545       8546       8557       8556  
      8425       8426       8437       8436       8546       8547       8558       8557  
      8427       8428       8439       8438       8548       8549       8560       8559  
      8428       8429       8440       8439       8549       8550       8561       8560  
      8429       8430       8441       8440       8550       8551       8562       8561  
      8430       8431       8442       8441       8551       8552       8563       8562  
      8431       8432       8443       8442       8552       8553       8564       8563  
      8432       8433       8444       8443       8553       8554       8565       8564  
      8433       8434       8445       8444       8554       8555       8566       8565  
      8434       8435       8446       8445       8555       8556       8567       8566  
      8435       8436       8447       8446       8556       8557       8568       8567  
      8436       8437       8448       8447       8557       8558       8569       8568  
      8438       8439       8450       8449       8559       8560       8571       8570  
      8439       8440       8451       8450       8560       8561       8572       8571  
      8440       8441       8452       8451       8561       8562       8573       8572  
      8441       8442       8453       8452       8562       8563       8574       8573  
      8442       8443       8454       8453       8563       8564       8575       8574  
      8443       8444       8455       8454       8564       8565       8576       8575  
      8444       8445       8456       8455       8565       8566       8577       8576  
      8445       8446       8457       8456       8566       8567       8578       8577  
      8446       8447       8458       8457       8567       8568       8579       8578  
      8447       8448       8459       8458       8568       8569       8580       8579  
      8449       8450       8461       8460       8570       8571       8582       8581  
      8450       8451       8462       8461       8571       8572       8583       8582  
      8451       8452       8463       8462       8572       8573       8584       8583  
      8452       8453       8464       8463       8573       8574       8585       8584  
      8453       8454       8465       8464       8574       8575       8586       8585  
      8454       8455       8466       8465       8575       8576       8587       8586  
      8455       8456       8467       8466       8576       8577       8588       8587  
      8456       8457       8468       8467       8577       8578       8589       8588  
      8457       8458       8469       8468       8578       8579       8590       8589  
      8458       8459       8470       8469       8579       8580       8591       8590  
      8471       8472       8483       8482       8592       8593       8604       8603  
      8472       8473       8484       8483       8593       8594       8605       8604  
      8473       8474       8485       8484       8594       8595       8606       8605  
      8474       8475       8486       8485       8595       8596       8607       8606  
      8475       8476       8487       8486       8596       8597       8608       8607  
      8476       8477       8488       8487       8597       8598       8609       8608  
      8477       8478       8489       8488       8598       8599       8610       8609  
      8478       8479       8490       8489       8599       8600       8611       8610  
      8479       8480       8491       8490       8600       8601       8612       8611  
      8480       8481       8492       8491       8601       8602       8613       8612  
      8482       8483       8494       8493       8603       8604       8615       8614  
      8483       8484       8495       8494       8604       8605       8616       8615  
      8484       8485       8496       8495       8605       8606       8617       8616  
      8485       8486       8497       8496       8606       8607       8618       8617  
      8486       8487       8498       8497       8607       8608       8619       8618  
      8487       8488       8499       8498       8608       8609       8620       8619  
      8488       8489       8500       8499       8609       8610       8621       8620  
      8489       8490       8501       8500       8610       8611       8622       8621  
      8490       8491       8502       8501       8611       8612       8623       8622  
      8491       8492       8503       8502       8612       8613       8624       8623  
      8493       8494       8505       8504       8614       8615       8626       8625  
      8494       8495       8506       8505       8615       8616       8627       8626  
      8495       8496       8507       8506       8616       8617       8628       8627  
      8496       8497       8508       8507       8617       8618       8629       8628  
      8497       8498       8509       8508       8618       8619       8630       8629  
      8498       8499       8510       8509       8619       8620       8631       8630  
      8499       8500       8511       8510       8620       8621       8632       8631  
      8500       8501       8512       8511       8621       8622       8633       8632  
      8501       8502       8513       8512       8622       8623       8634       8633  
      8502       8503       8514       8513       8623       8624       8635       8634  
      8504       8505       8516       8515       8625       8626       8637       8636  
      8505       8506       8517       8516       8626       8627       8638       8637  
      8506       8507       8518       8517       8627       8628       8639       8638  
      8507       8508       8519       8518       8628       8629       8640       8639  
      8508       8509       8520       8519       8629       8630       8641       8640  
      8509       8510       8521       8520       8630       8631       8642       8641  
      8510       8511       8522       8521       8631       8632       8643       8642  
      8511       8512       8523       8522       8632       8633       8644       8643  
      8512       8513       8524       8523       8633       8634       8645       8644  
      8513       8514       8525       8524       8634       8635       8646       8645  
      8515       8516       8527       8526       8636       8637       8648       8647  
      8516       8517       8528       8527       8637       8638       8649       8648  
      8517       8518       8529       8528       8638       8639       8650       8649  
      8518       8519       8530       8529       8639       8640       8651       8650  
      8519       8520       8531       8530       8640       8641       8652       8651  
      8520       8521       8532       8531       8641       8642       8653       8652  
      8521       8522       8533       8532       8642       8643       8654       8653  
      8522       8523       8534       8533       8643       8644       8655       8654  
      8523       8524       8535       8534       8644       8645       8656       8655  
      8524       8525       8536       8535       8645       8646       8657       8656  
      8526       8527       8538       8537       8647       8648       8659       8658  
      8527       8528       8539       8538       8648       8649       8660       8659  
      8528       8529       8540       8539       8649       8650       8661       8660  
      8529       8530       8541       8540       8650       8651       8662       8661  
      8530       8531       8542       8541       8651       8652       8663       8662  
      8531       8532       8543       8542       8652       8653       8664       8663  
      8532       8533       8544       8543       8653       8654       8665       8664  
      8533       8534       8545       8544       8654       8655       8666       8665  
      8534       8535       8546       8545       8655       8656       8667       8666  
      8535       8536       8547       8546       8656       8657       8668       8667  
      8537       8538       8549       8548       8658       8659       8670       8669  
      8538       8539       8550       8549       8659       8660       8671       8670  
      8539       8540       8551       8550       8660       8661       8672       8671  
      8540       8541       8552       8551       8661       8662       8673       8672  
      8541       8542       8553       8552       8662       8663       8674       8673  
      8542       8543       8554       8553       8663       8664       8675       8674  
      8543       8544       8555       8554       8664       8665       8676       8675  
      8544       8545       8556       8555       8665       8666       8677       8676  
      8545       8546       8557       8556       8666       8667       8678       8677  
      8546       8547       8558       8557       8667       8668       8679       8678  
      8548       8549       8560       8559       8669       8670       8681       8680  
      8549       8550       8561       8560       8670       8671       8682       8681  
      8550       8551       8562       8561       8671       8672       8683       8682  
      8551       8552       8563       8562       8672       8673       8684       8683  
      8552       8553       8564       8563       8673       8674       8685       8684  
      8553       8554       8565       8564       8674       8675       8686       8685  
      8554       8555       8566       8565       8675       8676       8687       8686  
      8555       8556       8567       8566       8676       8677       8688       8687  
      8556       8557       8568       8567       8677       8678       8689       8688  
      8557       8558       8569       8568       8678       8679       8690       8689  
      8559       8560       8571       8570       8680       8681       8692       8691  
      8560       8561       8572       8571       8681       8682       8693       8692  
      8561       8562       8573       8572       8682       8683       8694       8693  
      8562       8563       8574       8573       8683       8684       8695       8694  
      8563       8564       8575       8574       8684       8685       8696       8695  
      8564       8565       8576       8575       8685       8686       8697       8696  
      8565       8566       8577       8576       8686       8687       8698       8697  
      8566       8567       8578       8577       8687       8688       8699       8698  
      8567       8568       8579       8578       8688       8689       8700       8699  
      8568       8569       8580       8579       8689       8690       8701       8700  
      8570       8571       8582       8581       8691       8692       8703       8702  
      8571       8572       8583       8582       8692       8693       8704       8703  
      8572       8573       8584       8583       8693       8694       8705       8704  
      8573       8574       8585       8584       8694       8695       8706       8705  
      8574       8575       8586       8585       8695       8696       8707       8706  
      8575       8576       8587       8586       8696       8697       8708       8707  
      8576       8577       8588       8587       8697       8698       8709       8708  
      8577       8578       8589       8588       8698       8699       8710       8709  
      8578       8579       8590       8589       8699       8700       8711       8710  
      8579       8580       8591       8590       8700       8701       8712       8711  
      8592       8593       8604       8603       8713       8714       8725       8724  
      8593       8594       8605       8604       8714       8715       8726       8725  
      8594       8595       8606       8605       8715       8716       8727       8726  
      8595       8596       8607       8606       8716       8717       8728       8727  
      8596       8597       8608       8607       8717       8718       8729       8728  
      8597       8598       8609       8608       8718       8719       8730       8729  
      8598       8599       8610       8609       8719       8720       8731       8730  
      8599       8600       8611       8610       8720       8721       8732       8731  
      8600       8601       8612       8611       8721       8722       8733       8732  
      8601       8602       8613       8612       8722       8723       8734       8733  
      8603       8604       8615       8614       8724       8725       8736       8735  
      8604       8605       8616       8615       8725       8726       8737       8736  
      8605       8606       8617       8616       8726       8727       8738       8737  
      8606       8607       8618       8617       8727       8728       8739       8738  
      8607       8608       8619       8618       8728       8729       8740       8739  
      8608       8609       8620       8619       8729       8730       8741       8740  
      8609       8610       8621       8620       8730       8731       8742       8741  
      8610       8611       8622       8621       8731       8732       8743       8742  
      8611       8612       8623       8622       8732       8733       8744       8743  
      8612       8613       8624       8623       8733       8734       8745       8744  
      8614       8615       8626       8625       8735       8736       8747       8746  
      8615       8616       8627       8626       8736       8737       8748       8747  
      8616       8617       8628       8627       8737       8738       8749       8748  
      8617       8618       8629       8628       8738       8739       8750       8749  
      8618       8619       8630       8629       8739       8740       8751       8750  
      8619       8620       8631       8630       8740       8741       8752       8751  
      8620       8621       8632       8631       8741       8742       8753       8752  
      8621       8622       8633       8632       8742       8743       8754       8753  
      8622       8623       8634       8633       8743       8744       8755       8754  
      8623       8624       8635       8634       8744       8745       8756       8755  
      8625       8626       8637       8636       8746       8747       8758       8757  
      8626       8627       8638       8637       8747       8748       8759       8758  
      8627       8628       8639       8638       8748       8749       8760       8759  
      8628       8629       8640       8639       8749       8750       8761       8760  
      8629       8630       8641       8640       8750       8751       8762       8761  
      8630       8631       8642       8641       8751       8752       8763       8762  
      8631       8632       8643       8642       8752       8753       8764       8763  
      8632       8633       8644       8643       8753       8754       8765       8764  
      8633       8634       8645       8644       8754       8755       8766       8765  
      8634       8635       8646       8645       8755       8756       8767       8766  
      8636       8637       8648       8647       8757       8758       8769       8768  
      8637       8638       8649       8648       8758       8759       8770       8769  
      8638       8639       8650       8649       8759       8760       8771       8770  
      8639       8640       8651       8650       8760       8761       8772       8771  
      8640       8641       8652       8651       8761       8762       8773       8772  
      8641       8642       8653       8652       8762       8763       8774       8773  
      8642       8643       8654       8653       8763       8764       8775       8774  
      8643       8644       8655       8654       8764       8765       8776       8775  
      8644       8645       8656       8655       8765       8766       8777       8776  
      8645       8646       8657       8656       8766       8767       8778       8777  
      8647       8648       8659       8658       8768       8769       8780       8779  
      8648       8649       8660       8659       8769       8770       8781       8780  
      8649       8650       8661       8660       8770       8771       8782       8781  
      8650       8651       8662       8661       8771       8772       8783       8782  
      8651       8652       8663       8662       8772       8773       8784       8783  
      8652       8653       8664       8663       8773       8774       8785       8784  
      8653       8654       8665       8664       8774       8775       8786       8785  
      8654       8655       8666       8665       8775       8776       8787       8786  
      8655       8656       8667       8666       8776       8777       8788       8787  
      8656       8657       8668       8667       8777       8778       8789       8788  
      8658       8659       8670       8669       8779       8780       8791       8790  
      8659       8660       8671       8670       8780       8781       8792       8791  
      8660       8661       8672       8671       8781       8782       8793       8792  
      8661       8662       8673       8672       8782       8783       8794       8793  
      8662       8663       8674       8673       8783       8784       8795       8794  
      8663       8664       8675       8674       8784       8785       8796       8795  
      8664       8665       8676       8675       8785       8786       8797       8796  
      8665       8666       8677       8676       8786       8787       8798       8797  
      8666       8667       8678       8677       8787       8788       8799       8798  
      8667       8668       8679       8678       8788       8789       8800       8799  
      8669       8670       8681       8680       8790       8791       8802       8801  
      8670       8671       8682       8681       8791       8792       8803       8802  
      8671       8672       8683       8682       8792       8793       8804       8803  
      8672       8673       8684       8683       8793       8794       8805       8804  
      8673       8674       8685       8684       8794       8795       8806       8805  
      8674       8675       8686       8685       8795       8796       8807       8806  
      8675       8676       8687       8686       8796       8797       8808       8807  
      8676       8677       8688       8687       8797       8798       8809       8808  
      8677       8678       8689       8688       8798       8799       8810       8809  
      8678       8679       8690       8689       8799       8800       8811       8810  
      8680       8681       8692       8691       8801       8802       8813       8812  
      8681       8682       8693       8692       8802       8803       8814       8813  
      8682       8683       8694       8693       8803       8804       8815       8814  
      8683       8684       8695       8694       8804       8805       8816       8815  
      8684       8685       8696       8695       8805       8806       8817       8816  
      8685       8686       8697       8696       8806       8807       8818       8817  
      8686       8687       8698       8697       8807       8808       8819       8818  
      8687       8688       8699       8698       8808       8809       8820       8819  
      8688       8689       8700       8699       8809       8810       8821       8820  
      8689       8690       8701       8700       8810       8811       8822       8821  
      8691       8692       8703       8702       8812       8813       8824       8823  
      8692       8693       8704       8703       8813       8814       8825       8824  
      8693       8694       8705       8704       8814       8815       8826       8825  
      8694       8695       8706       8705       8815       8816       8827       8826  
      8695       8696       8707       8706       8816       8817       8828       8827  
      8696       8697       8708       8707       8817       8818       8829       8828  
      8697       8698       8709       8708       8818       8819       8830       8829  
      8698       8699       8710       8709       8819       8820       8831       8830  
      8699       8700       8711       8710       8820       8821       8832       8831  
      8700       8701       8712       8711       8821       8822       8833       8832  
      8713       8714       8725       8724       8834       8835       8846       8845  
      8714       8715       8726       8725       8835       8836       8847       8846  
      8715       8716       8727       8726       8836       8837       8848       8847  
      8716       8717       8728       8727       8837       8838       8849       8848  
      8717       8718       8729       8728       8838       8839       8850       8849  
      8718       8719       8730       8729       8839       8840       8851       8850  
      8719       8720       8731       8730       8840       8841       8852       8851  
      8720       8721       8732       8731       8841       8842       8853       8852  
      8721       8722       8733       8732       8842       8843       8854       8853  
      8722       8723       8734       8733       8843       8844       8855       8854  
      8724       8725       8736       8735       8845       8846       8857       8856  
      8725       8726       8737       8736       8846       8847       8858       8857  
      8726       8727       8738       8737       8847       8848       8859       8858  
      8727       8728       8739       8738       8848       8849       8860       8859  
      8728       8729       8740       8739       8849       8850       8861       8860  
      8729       8730       8741       8740       8850       8851       8862       8861  
      8730       8731       8742       8741       8851       8852       8863       8862  
      8731       8732       8743       8742       8852       8853       8864       8863  
      8732       8733       8744       8743       8853       8854       8865       8864  
      8733       8734       8745       8744       8854       8855       8866       8865  
      8735       8736       8747       8746       8856       8857       8868       8867  
      8736       8737       8748       8747       8857       8858       8869       8868  
      8737       8738       8749       8748       8858       8859       8870       8869  
      8738       8739       8750       8749       8859       8860       8871       8870  
      8739       8740       8751       8750       8860       8861       8872       8871  
      8740       8741       8752       8751       8861       8862       8873       8872  
      8741       8742       8753       8752       8862       8863       8874       8873  
      8742       8743       8754       8753       8863       8864       8875       8874  
      8743       8744       8755       8754       8864       8865       8876       8875  
      8744       8745       8756       8755       8865       8866       8877       8876  
      8746       8747       8758       8757       8867       8868       8879       8878  
      8747       8748       8759       8758       8868       8869       8880       8879  
      8748       8749       8760       8759       8869       8870       8881       8880  
      8749       8750       8761       8760       8870       8871       8882       8881  
      8750       8751       8762       8761       8871       8872       8883       8882  
      8751       8752       8763       8762       8872       8873       8884       8883  
      8752       8753       8764       8763       8873       8874       8885       8884  
      8753       8754       8765       8764       8874       8875       8886       8885  
      8754       8755       8766       8765       8875       8876       8887       8886  
      8755       8756       8767       8766       8876       8877       8888       8887  
      8757       8758       8769       8768       8878       8879       8890       8889  
      8758       8759       8770       8769       8879       8880       8891       8890  
      8759       8760       8771       8770       8880       8881       8892       8891  
      8760       8761       8772       8771       8881       8882       8893       8892  
      8761       8762       8773       8772       8882       8883       8894       8893  
      8762       8763       8774       8773       8883       8884       8895       8894  
      8763       8764       8775       8774       8884       8885       8896       8895  
      8764       8765       8776       8775       8885       8886       8897       8896  
      8765       8766       8777       8776       8886       8887       8898       8897  
      8766       8767       8778       8777       8887       8888       8899       8898  
      8768       8769       8780       8779       8889       8890       8901       8900  
      8769       8770       8781       8780       8890       8891       8902       8901  
      8770       8771       8782       8781       8891       8892       8903       8902  
      8771       8772       8783       8782       8892       8893       8904       8903  
      8772       8773       8784       8783       8893       8894       8905       8904  
      8773       8774       8785       8784       8894       8895       8906       8905  
      8774       8775       8786       8785       8895       8896       8907       8906  
      8775       8776       8787       8786       8896       8897       8908       8907  
      8776       8777       8788       8787       8897       8898       8909       8908  
      8777       8778       8789       8788       8898       8899       8910       8909  
      8779       8780       8791       8790       8900       8901       8912       8911  
      8780       8781       8792       8791       8901       8902       8913       8912  
      8781       8782       8793       8792       8902       8903       8914       8913  
      8782       8783       8794       8793       8903       8904       8915       8914  
      8783       8784       8795       8794       8904       8905       8916       8915  
      8784       8785       8796       8795       8905       8906       8917       8916  
      8785       8786       8797       8796       8906       8907       8918       8917  
      8786       8787       8798       8797       8907       8908       8919       8918  
      8787       8788       8799       8798       8908       8909       8920       8919  
      8788       8789       8800       8799       8909       8910       8921       8920  
      8790       8791       8802       8801       8911       8912       8923       8922  
      8791       8792       8803       8802       8912       8913       8924       8923  
      8792       8793       8804       8803       8913       8914       8925       8924  
      8793       8794       8805       8804       8914       8915       8926       8925  
      8794       8795       8806       8805       8915       8916       8927       8926  
      8795       8796       8807       8806       8916       8917       8928       8927  
      8796       8797       8808       8807       8917       8918       8929       8928  
      8797       8798       8809       8808       8918       8919       8930       8929  
      8798       8799       8810       8809       8919       8920       8931       8930  
      8799       8800       8811       8810       8920       8921       8932       8931  
      8801       8802       8813       8812       8922       8923       8934       8933  
      8802       8803       8814       8813       8923       8924       8935       8934  
      8803       8804       8815       8814       8924       8925       8936       8935  
      8804       8805       8816       8815       8925       8926       8937       8936  
      8805       8806       8817       8816       8926       8927       8938       8937  
      8806       8807       8818       8817       8927       8928       8939       8938  
      8807       8808       8819       8818       8928       8929       8940       8939  
      8808       8809       8820       8819       8929       8930       8941       8940  
      8809       8810       8821       8820       8930       8931       8942       8941  
      8810       8811       8822       8821       8931       8932       8943       8942  
      8812       8813       8824       8823       8933       8934       8945       8944  
      8813       8814       8825       8824       8934       8935       8946       8945  
      8814       8815       8826       8825       8935       8936       8947       8946  
      8815       8816       8827       8826       8936       8937       8948       8947  
      8816       8817       8828       8827       8937       8938       8949       8948  
      8817       8818       8829       8828       8938       8939       8950       8949  
      8818       8819       8830       8829       8939       8940       8951       8950  
      8819       8820       8831       8830       8940       8941       8952       8951  
      8820       8821       8832       8831       8941       8942       8953       8952  
      8821       8822       8833       8832       8942       8943       8954       8953  
      8834       8835       8846       8845       8955       8956       8967       8966  
      8835       8836       8847       8846       8956       8957       8968       8967  
      8836       8837       8848       8847       8957       8958       8969       8968  
      8837       8838       8849       8848       8958       8959       8970       8969  
      8838       8839       8850       8849       8959       8960       8971       8970  
      8839       8840       8851       8850       8960       8961       8972       8971  
      8840       8841       8852       8851       8961       8962       8973       8972  
      8841       8842       8853       8852       8962       8963       8974       8973  
      8842       8843       8854       8853       8963       8964       8975       8974  
      8843       8844       8855       8854       8964       8965       8976       8975  
      8845       8846       8857       8856       8966       8967       8978       8977  
      8846       8847       8858       8857       8967       8968       8979       8978  
      8847       8848       8859       8858       8968       8969       8980       8979  
      8848       8849       8860       8859       8969       8970       8981       8980  
      8849       8850       8861       8860       8970       8971       8982       8981  
      8850       8851       8862       8861       8971       8972       8983       8982  
      8851       8852       8863       8862       8972       8973       8984       8983  
      8852       8853       8864       8863       8973       8974       8985       8984  
      8853       8854       8865       8864       8974       8975       8986       8985  
      8854       8855       8866       8865       8975       8976       8987       8986  
      8856       8857       8868       8867       8977       8978       8989       8988  
      8857       8858       8869       8868       8978       8979       8990       8989  
      8858       8859       8870       8869       8979       8980       8991       8990  
      8859       8860       8871       8870       8980       8981       8992       8991  
      8860       8861       8872       8871       8981       8982       8993       8992  
      8861       8862       8873       8872       8982       8983       8994       8993  
      8862       8863       8874       8873       8983       8984       8995       8994  
      8863       8864       8875       8874       8984       8985       8996       8995  
      8864       8865       8876       8875       8985       8986       8997       8996  
      8865       8866       8877       8876       8986       8987       8998       8997  
      8867       8868       8879       8878       8988       8989       9000       8999  
      8868       8869       8880       8879       8989       8990       9001       9000  
      8869       8870       8881       8880       8990       8991       9002       9001  
      8870       8871       8882       8881       8991       8992       9003       9002  
      8871       8872       8883       8882       8992       8993       9004       9003  
      8872       8873       8884       8883       8993       8994       9005       9004  
      8873       8874       8885       8884       8994       8995       9006       9005  
      8874       8875       8886       8885       8995       8996       9007       9006  
      8875       8876       8887       8886       8996       8997       9008       9007  
      8876       8877       8888       8887       8997       8998       9009       9008  
      8878       8879       8890       8889       8999       9000       9011       9010  
      8879       8880       8891       8890       9000       9001       9012       9011  
      8880       8881       8892       8891       9001       9002       9013       9012  
      8881       8882       8893       8892       9002       9003       9014       9013  
      8882       8883       8894       8893       9003       9004       9015       9014  
      8883       8884       8895       8894       9004       9005       9016       9015  
      8884       8885       8896       8895       9005       9006       9017       9016  
      8885       8886       8897       8896       9006       9007       9018       9017  
      8886       8887       8898       8897       9007       9008       9019       9018  
      8887       8888       8899       8898       9008       9009       9020       9019  
      8889       8890       8901       8900       9010       9011       9022       9021  
      8890       8891       8902       8901       9011       9012       9023       9022  
      8891       8892       8903       8902       9012       9013       9024       9023  
      8892       8893       8904       8903       9013       9014       9025       9024  
      8893       8894       8905       8904       9014       9015       9026       9025  
      8894       8895       8906       8905       9015       9016       9027       9026  
      8895       8896       8907       8906       9016       9017       9028       9027  
      8896       8897       8908       8907       9017       9018       9029       9028  
      8897       8898       8909       8908       9018       9019       9030       9029  
      8898       8899       8910       8909       9019       9020       9031       9030  
      8900       8901       8912       8911       9021       9022       9033       9032  
      8901       8902       8913       8912       9022       9023       9034       9033  
      8902       8903       8914       8913       9023       9024       9035       9034  
      8903       8904       8915       8914       9024       9025       9036       9035  
      8904       8905       8916       8915       9025       9026       9037       9036  
      8905       8906       8917       8916       9026       9027       9038       9037  
      8906       8907       8918       8917       9027       9028       9039       9038  
      8907       8908       8919       8918       9028       9029       9040       9039  
      8908       8909       8920       8919       9029       9030       9041       9040  
      8909       8910       8921       8920       9030       9031       9042       9041  
      8911       8912       8923       8922       9032       9033       9044       9043  
      8912       8913       8924       8923       9033       9034       9045       9044  
      8913       8914       8925       8924       9034       9035       9046       9045  
      8914       8915       8926       8925       9035       9036       9047       9046  
      8915       8916       8927       8926       9036       9037       9048       9047  
      8916       8917       8928       8927       9037       9038       9049       9048  
      8917       8918       8929       8928       9038       9039       9050       9049  
      8918       8919       8930       8929       9039       9040       9051       9050  
      8919       8920       8931       8930       9040       9041       9052       9051  
      8920       8921       8932       8931       9041       9042       9053       9052  
      8922       8923       8934       8933       9043       9044       9055       9054  
      8923       8924       8935       8934       9044       9045       9056       9055  
      8924       8925       8936       8935       9045       9046       9057       9056  
      8925       8926       8937       8936       9046       9047       9058       9057  
      8926       8927       8938       8937       9047       9048       9059       9058  
      8927       8928       8939       8938       9048       9049       9060       9059  
      8928       8929       8940       8939       9049       9050       9061       9060  
      8929       8930       8941       8940       9050       9051       9062       9061  
      8930       8931       8942       8941       9051       9052       9063       9062  
      8931       8932       8943       8942       9052       9053       9064       9063  
      8933       8934       8945       8944       9054       9055       9066       9065  
      8934       8935       8946       8945       9055       9056       9067       9066  
      8935       8936       8947       8946       9056       9057       9068       9067  
      8936       8937       8948       8947       9057       9058       9069       9068  
      8937       8938       8949       8948       9058       9059       9070       9069  
      8938       8939       8950       8949       9059       9060       9071       9070  
      8939       8940       8951       8950       9060       9061       9072       9071  
      8940       8941       8952       8951       9061       9062       9073       9072  
      8941       8942       8953       8952       9062       9063       9074       9073  
      8942       8943       8954       8953       9063       9064       9075       9074  
      8955       8956       8967       8966       9076       9077       9088       9087  
      8956       8957       8968       8967       9077       9078       9089       9088  
      8957       8958       8969       8968       9078       9079       9090       9089  
      8958       8959       8970       8969       9079       9080       9091       9090  
      8959       8960       8971       8970       9080       9081       9092       9091  
      8960       8961       8972       8971       9081       9082       9093       9092  
      8961       8962       8973       8972       9082       9083       9094       9093  
      8962       8963       8974       8973       9083       9084       9095       9094  
      8963       8964       8975       8974       9084       9085       9096       9095  
      8964       8965       8976       8975       9085       9086       9097       9096  
      8966       8967       8978       8977       9087       9088       9099       9098  
      8967       8968       8979       8978       9088       9089       9100       9099  
      8968       8969       8980       8979       9089       9090       9101       9100  
      8969       8970       8981       8980       9090       9091       9102       9101  
      8970       8971       8982       8981       9091       9092       9103       9102  
      8971       8972       8983       8982       9092       9093       9104       9103  
      8972       8973       8984       8983       9093       9094       9105       9104  
      8973       8974       8985       8984       9094       9095       9106       9105  
      8974       8975       8986       8985       9095       9096       9107       9106  
      8975       8976       8987       8986       9096       9097       9108       9107  
      8977       8978       8989       8988       9098       9099       9110       9109  
      8978       8979       8990       8989       9099       9100       9111       9110  
      8979       8980       8991       8990       9100       9101       9112       9111  
      8980       8981       8992       8991       9101       9102       9113       9112  
      8981       8982       8993       8992       9102       9103       9114       9113  
      8982       8983       8994       8993       9103       9104       9115       9114  
      8983       8984       8995       8994       9104       9105       9116       9115  
      8984       8985       8996       8995       9105       9106       9117       9116  
      8985       8986       8997       8996       9106       9107       9118       9117  
      8986       8987       8998       8997       9107       9108       9119       9118  
      8988       8989       9000       8999       9109       9110       9121       9120  
      8989       8990       9001       9000       9110       9111       9122       9121  
      8990       8991       9002       9001       9111       9112       9123       9122  
      8991       8992       9003       9002       9112       9113       9124       9123  
      8992       8993       9004       9003       9113       9114       9125       9124  
      8993       8994       9005       9004       9114       9115       9126       9125  
      8994       8995       9006       9005       9115       9116       9127       9126  
      8995       8996       9007       9006       9116       9117       9128       9127  
      8996       8997       9008       9007       9117       9118       9129       9128  
      8997       8998       9009       9008       9118       9119       9130       9129  
      8999       9000       9011       9010       9120       9121       9132       9131  
      9000       9001       9012       9011       9121       9122       9133       9132  
      9001       9002       9013       9012       9122       9123       9134       9133  
      9002       9003       9014       9013       9123       9124       9135       9134  
      9003       9004       9015       9014       9124       9125       9136       9135  
      9004       9005       9016       9015       9125       9126       9137       9136  
      9005       9006       9017       9016       9126       9127       9138       9137  
      9006       9007       9018       9017       9127       9128       9139       9138  
      9007       9008       9019       9018       9128       9129       9140       9139  
      9008       9009       9020       9019       9129       9130       9141       9140  
      9010       9011       9022       9021       9131       9132       9143       9142  
      9011       9012       9023       9022       9132       9133       9144       9143  
      9012       9013       9024       9023       9133       9134       9145       9144  
      9013       9014       9025       9024       9134       9135       9146       9145  
      9014       9015       9026       9025       9135       9136       9147       9146  
      9015       9016       9027       9026       9136       9137       9148       9147  
      9016       9017       9028       9027       9137       9138       9149       9148  
      9017       9018       9029       9028       9138       9139       9150       9149  
      9018       9019       9030       9029       9139       9140       9151       9150  
      9019       9020       9031       9030       9140       9141       9152       9151  
      9021       9022       9033       9032       9142       9143       9154       9153  
      9022       9023       9034       9033       9143       9144       9155       9154  
      9023       9024       9035       9034       9144       9145       9156       9155  
      9024       9025       9036       9035       9145       9146       9157       9156  
      9025       9026       9037       9036       9146       9147       9158       9157  
      9026       9027       9038       9037       9147       9148       9159       9158  
      9027       9028       9039       9038       9148       9149       9160       9159  
      9028       9029       9040       9039       9149       9150       9161       9160  
      9029       9030       9041       9040       9150       9151       9162       9161  
      9030       9031       9042       9041       9151       9152       9163       9162  
      9032       9033       9044       9043       9153       9154       9165       9164  
      9033       9034       9045       9044       9154       9155       9166       9165  
      9034       9035       9046       9045       9155       9156       9167       9166  
      9035       9036       9047       9046       9156       9157       9168       9167  
      9036       9037       9048       9047       9157       9158       9169       9168  
      9037       9038       9049       9048       9158       9159       9170       9169  
      9038       9039       9050       9049       9159       9160       9171       9170  
      9039       9040       9051       9050       9160       9161       9172       9171  
      9040       9041       9052       9051       9161       9162       9173       9172  
      9041       9042       9053       9052       9162       9163       9174       9173  
      9043       9044       9055       9054       9164       9165       9176       9175  
      9044       9045       9056       9055       9165       9166       9177       9176  
      9045       9046       9057       9056       9166       9167       9178       9177  
      9046       9047       9058       9057       9167       9168       9179       9178  
      9047       9048       9059       9058       9168       9169       9180       9179  
      9048       9049       9060       9059       9169       9170       9181       9180  
      9049       9050       9061       9060       9170       9171       9182       9181  
      9050       9051       9062       9061       9171       9172       9183       9182  
      9051       9052       9063       9062       9172       9173       9184       9183  
      9052       9053       9064       9063       9173       9174       9185       9184  
      9054       9055       9066       9065       9175       9176       9187       9186  
      9055       9056       9067       9066       9176       9177       9188       9187  
      9056       9057       9068       9067       9177       9178       9189       9188  
      9057       9058       9069       9068       9178       9179       9190       9189  
      9058       9059       9070       9069       9179       9180       9191       9190  
      9059       9060       9071       9070       9180       9181       9192       9191  
      9060       9061       9072       9071       9181       9182       9193       9192  
      9061       9062       9073       9072       9182       9183       9194       9193  
      9062       9063       9074       9073       9183       9184       9195       9194  
      9063       9064       9075       9074       9184       9185       9196       9195  
      9076       9077       9088       9087       9197       9198       9209       9208  
      9077       9078       9089       9088       9198       9199       9210       9209  
      9078       9079       9090       9089       9199       9200       9211       9210  
      9079       9080       9091       9090       9200       9201       9212       9211  
      9080       9081       9092       9091       9201       9202       9213       9212  
      9081       9082       9093       9092       9202       9203       9214       9213  
      9082       9083       9094       9093       9203       9204       9215       9214  
      9083       9084       9095       9094       9204       9205       9216       9215  
      9084       9085       9096       9095       9205       9206       9217       9216  
      9085       9086       9097       9096       9206       9207       9218       9217  
      9087       9088       9099       9098       9208       9209       9220       9219  
      9088       9089       9100       9099       9209       9210       9221       9220  
      9089       9090       9101       9100       9210       9211       9222       9221  
      9090       9091       9102       9101       9211       9212       9223       9222  
      9091       9092       9103       9102       9212       9213       9224       9223  
      9092       9093       9104       9103       9213       9214       9225       9224  
      9093       9094       9105       9104       9214       9215       9226       9225  
      9094       9095       9106       9105       9215       9216       9227       9226  
      9095       9096       9107       9106       9216       9217       9228       9227  
      9096       9097       9108       9107       9217       9218       9229       9228  
      9098       9099       9110       9109       9219       9220       9231       9230  
      9099       9100       9111       9110       9220       9221       9232       9231  
      9100       9101       9112       9111       9221       9222       9233       9232  
      9101       9102       9113       9112       9222       9223       9234       9233  
      9102       9103       9114       9113       9223       9224       9235       9234  
      9103       9104       9115       9114       9224       9225       9236       9235  
      9104       9105       9116       9115       9225       9226       9237       9236  
      9105       9106       9117       9116       9226       9227       9238       9237  
      9106       9107       9118       9117       9227       9228       9239       9238  
      9107       9108       9119       9118       9228       9229       9240       9239  
      9109       9110       9121       9120       9230       9231       9242       9241  
      9110       9111       9122       9121       9231       9232       9243       9242  
      9111       9112       9123       9122       9232       9233       9244       9243  
      9112       9113       9124       9123       9233       9234       9245       9244  
      9113       9114       9125       9124       9234       9235       9246       9245  
      9114       9115       9126       9125       9235       9236       9247       9246  
      9115       9116       9127       9126       9236       9237       9248       9247  
      9116       9117       9128       9127       9237       9238       9249       9248  
      9117       9118       9129       9128       9238       9239       9250       9249  
      9118       9119       9130       9129       9239       9240       9251       9250  
      9120       9121       9132       9131       9241       9242       9253       9252  
      9121       9122       9133       9132       9242       9243       9254       9253  
      9122       9123       9134       9133       9243       9244       9255       9254  
      9123       9124       9135       9134       9244       9245       9256       9255  
      9124       9125       9136       9135       9245       9246       9257       9256  
      9125       9126       9137       9136       9246       9247       9258       9257  
      9126       9127       9138       9137       9247       9248       9259       9258  
      9127       9128       9139       9138       9248       9249       9260       9259  
      9128       9129       9140       9139       9249       9250       9261       9260  
      9129       9130       9141       9140       9250       9251       9262       9261  
      9131       9132       9143       9142       9252       9253       9264       9263  
      9132       9133       9144       9143       9253       9254       9265       9264  
      9133       9134       9145       9144       9254       9255       9266       9265  
      9134       9135       9146       9145       9255       9256       9267       9266  
      9135       9136       9147       9146       9256       9257       9268       9267  
      9136       9137       9148       9147       9257       9258       9269       9268  
      9137       9138       9149       9148       9258       9259       9270       9269  
      9138       9139       9150       9149       9259       9260       9271       9270  
      9139       9140       9151       9150       9260       9261       9272       9271  
      9140       9141       9152       9151       9261       9262       9273       9272  
      9142       9143       9154       9153       9263       9264       9275       9274  
      9143       9144       9155       9154       9264       9265       9276       9275  
      9144       9145       9156       9155       9265       9266       9277       9276  
      9145       9146       9157       9156       9266       9267       9278       9277  
      9146       9147       9158       9157       9267       9268       9279       9278  
      9147       9148       9159       9158       9268       9269       9280       9279  
      9148       9149       9160       9159       9269       9270       9281       9280  
      9149       9150       9161       9160       9270       9271       9282       9281  
      9150       9151       9162       9161       9271       9272       9283       9282  
      9151       9152       9163       9162       9272       9273       9284       9283  
      9153       9154       9165       9164       9274       9275       9286       9285  
      9154       9155       9166       9165       9275       9276       9287       9286  
      9155       9156       9167       9166       9276       9277       9288       9287  
      9156       9157       9168       9167       9277       9278       9289       9288  
      9157       9158       9169       9168       9278       9279       9290       9289  
      9158       9159       9170       9169       9279       9280       9291       9290  
      9159       9160       9171       9170       9280       9281       9292       9291  
      9160       9161       9172       9171       9281       9282       9293       9292  
      9161       9162       9173       9172       9282       9283       9294       9293  
      9162       9163       9174       9173       9283       9284       9295       9294  
      9164       9165       9176       9175       9285       9286       9297       9296  
      9165       9166       9177       9176       9286       9287       9298       9297  
      9166       9167       9178       9177       9287       9288       9299       9298  
      9167       9168       9179       9178       9288       9289       9300       9299  
      9168       9169       9180       9179       9289       9290       9301       9300  
      9169       9170       9181       9180       9290       9291       9302       9301  
      9170       9171       9182       9181       9291       9292       9303       9302  
      9171       9172       9183       9182       9292       9293       9304       9303  
      9172       9173       9184       9183       9293       9294       9305       9304  
      9173       9174       9185       9184       9294       9295       9306       9305  
      9175       9176       9187       9186       9296       9297       9308       9307  
      9176       9177       9188       9187       9297       9298       9309       9308  
      9177       9178       9189       9188       9298       9299       9310       9309  
      9178       9179       9190       9189       9299       9300       9311       9310  
      9179       9180       9191       9190       9300       9301       9312       9311  
      9180       9181       9192       9191       9301       9302       9313       9312  
      9181       9182       9193       9192       9302       9303       9314       9313  
      9182       9183       9194       9193       9303       9304       9315       9314  
      9183       9184       9195       9194       9304       9305       9316       9315  
      9184       9185       9196       9195       9305       9306       9317       9316  
      9197       9198       9209       9208       9318       9319       9330       9329  
      9198       9199       9210       9209       9319       9320       9331       9330  
      9199       9200       9211       9210       9320       9321       9332       9331  
      9200       9201       9212       9211       9321       9322       9333       9332  
      9201       9202       9213       9212       9322       9323       9334       9333  
      9202       9203       9214       9213       9323       9324       9335       9334  
      9203       9204       9215       9214       9324       9325       9336       9335  
      9204       9205       9216       9215       9325       9326       9337       9336  
      9205       9206       9217       9216       9326       9327       9338       9337  
      9206       9207       9218       9217       9327       9328       9339       9338  
      9208       9209       9220       9219       9329       9330       9341       9340  
      9209       9210       9221       9220       9330       9331       9342       9341  
      9210       9211       9222       9221       9331       9332       9343       9342  
      9211       9212       9223       9222       9332       9333       9344       9343  
      9212       9213       9224       9223       9333       9334       9345       9344  
      9213       9214       9225       9224       9334       9335       9346       9345  
      9214       9215       9226       9225       9335       9336       9347       9346  
      9215       9216       9227       9226       9336       9337       9348       9347  
      9216       9217       9228       9227       9337       9338       9349       9348  
      9217       9218       9229       9228       9338       9339       9350       9349  
      9219       9220       9231       9230       9340       9341       9352       9351  
      9220       9221       9232       9231       9341       9342       9353       9352  
      9221       9222       9233       9232       9342       9343       9354       9353  
      9222       9223       9234       9233       9343       9344       9355       9354  
      9223       9224       9235       9234       9344       9345       9356       9355  
      9224       9225       9236       9235       9345       9346       9357       9356  
      9225       9226       9237       9236       9346       9347       9358       9357  
      9226       9227       9238       9237       9347       9348       9359       9358  
      9227       9228       9239       9238       9348       9349       9360       9359  
      9228       9229       9240       9239       9349       9350       9361       9360  
      9230       9231       9242       9241       9351       9352       9363       9362  
      9231       9232       9243       9242       9352       9353       9364       9363  
      9232       9233       9244       9243       9353       9354       9365       9364  
      9233       9234       9245       9244       9354       9355       9366       9365  
      9234       9235       9246       9245       9355       9356       9367       9366  
      9235       9236       9247       9246       9356       9357       9368       9367  
      9236       9237       9248       9247       9357       9358       9369       9368  
      9237       9238       9249       9248       9358       9359       9370       9369  
      9238       9239       9250       9249       9359       9360       9371       9370  
      9239       9240       9251       9250       9360       9361       9372       9371  
      9241       9242       9253       9252       9362       9363       9374       9373  
      9242       9243       9254       9253       9363       9364       9375       9374  
      9243       9244       9255       9254       9364       9365       9376       9375  
      9244       9245       9256       9255       9365       9366       9377       9376  
      9245       9246       9257       9256       9366       9367       9378       9377  
      9246       9247       9258       9257       9367       9368       9379       9378  
      9247       9248       9259       9258       9368       9369       9380       9379  
      9248       9249       9260       9259       9369       9370       9381       9380  
      9249       9250       9261       9260       9370       9371       9382       9381  
      9250       9251       9262       9261       9371       9372       9383       9382  
      9252       9253       9264       9263       9373       9374       9385       9384  
      9253       9254       9265       9264       9374       9375       9386       9385  
      9254       9255       9266       9265       9375       9376       9387       9386  
      9255       9256       9267       9266       9376       9377       9388       9387  
      9256       9257       9268       9267       9377       9378       9389       9388  
      9257       9258       9269       9268       9378       9379       9390       9389  
      9258       9259       9270       9269       9379       9380       9391       9390  
      9259       9260       9271       9270       9380       9381       9392       9391  
      9260       9261       9272       9271       9381       9382       9393       9392  
      9261       9262       9273       9272       9382       9383       9394       9393  
      9263       9264       9275       9274       9384       9385       9396       9395  
      9264       9265       9276       9275       9385       9386       9397       9396  
      9265       9266       9277       9276       9386       9387       9398       9397  
      9266       9267       9278       9277       9387       9388       9399       9398  
      9267       9268       9279       9278       9388       9389       9400       9399  
      9268       9269       9280       9279       9389       9390       9401       9400  
      9269       9270       9281       9280       9390       9391       9402       9401  
      9270       9271       9282       9281       9391       9392       9403       9402  
      9271       9272       9283       9282       9392       9393       9404       9403  
      9272       9273       9284       9283       9393       9394       9405       9404  
      9274       9275       9286       9285       9395       9396       9407       9406  
      9275       9276       9287       9286       9396       9397       9408       9407  
      9276       9277       9288       9287       9397       9398       9409       9408  
      9277       9278       9289       9288       9398       9399       9410       9409  
      9278       9279       9290       9289       9399       9400       9411       9410  
      9279       9280       9291       9290       9400       9401       9412       9411  
      9280       9281       9292       9291       9401       9402       9413       9412  
      9281       9282       9293       9292       9402       9403       9414       9413  
      9282       9283       9294       9293       9403       9404       9415       9414  
      9283       9284       9295       9294       9404       9405       9416       9415  
      9285       9286       9297       9296       9406       9407       9418       9417  
      9286       9287       9298       9297       9407       9408       9419       9418  
      9287       9288       9299       9298       9408       9409       9420       9419  
      9288       9289       9300       9299       9409       9410       9421       9420  
      9289       9290       9301       9300       9410       9411       9422       9421  
      9290       9291       9302       9301       9411       9412       9423       9422  
      9291       9292       9303       9302       9412       9413       9424       9423  
      9292       9293       9304       9303       9413       9414       9425       9424  
      9293       9294       9305       9304       9414       9415       9426       9425  
      9294       9295       9306       9305       9415       9416       9427       9426  
      9296       9297       9308       9307       9417       9418       9429       9428  
      9297       9298       9309       9308       9418       9419       9430       9429  
      9298       9299       9310       9309       9419       9420       9431       9430  
      9299       9300       9311       9310       9420       9421       9432       9431  
      9300       9301       9312       9311       9421       9422       9433       9432  
      9301       9302       9313       9312       9422       9423       9434       9433  
      9302       9303       9314       9313       9423       9424       9435       9434  
      9303       9304       9315       9314       9424       9425       9436       9435  
      9304       9305       9316       9315       9425       9426       9437       9436  
      9305       9306       9317       9316       9426       9427       9438       9437  
      9318       9319       9330       9329       9439       9440       9451       9450  
      9319       9320       9331       9330       9440       9441       9452       9451  
      9320       9321       9332       9331       9441       9442       9453       9452  
      9321       9322       9333       9332       9442       9443       9454       9453  
      9322       9323       9334       9333       9443       9444       9455       9454  
      9323       9324       9335       9334       9444       9445       9456       9455  
      9324       9325       9336       9335       9445       9446       9457       9456  
      9325       9326       9337       9336       9446       9447       9458       9457  
      9326       9327       9338       9337       9447       9448       9459       9458  
      9327       9328       9339       9338       9448       9449       9460       9459  
      9329       9330       9341       9340       9450       9451       9462       9461  
      9330       9331       9342       9341       9451       9452       9463       9462  
      9331       9332       9343       9342       9452       9453       9464       9463  
      9332       9333       9344       9343       9453       9454       9465       9464  
      9333       9334       9345       9344       9454       9455       9466       9465  
      9334       9335       9346       9345       9455       9456       9467       9466  
      9335       9336       9347       9346       9456       9457       9468       9467  
      9336       9337       9348       9347       9457       9458       9469       9468  
      9337       9338       9349       9348       9458       9459       9470       9469  
      9338       9339       9350       9349       9459       9460       9471       9470  
      9340       9341       9352       9351       9461       9462       9473       9472  
      9341       9342       9353       9352       9462       9463       9474       9473  
      9342       9343       9354       9353       9463       9464       9475       9474  
      9343       9344       9355       9354       9464       9465       9476       9475  
      9344       9345       9356       9355       9465       9466       9477       9476  
      9345       9346       9357       9356       9466       9467       9478       9477  
      9346       9347       9358       9357       9467       9468       9479       9478  
      9347       9348       9359       9358       9468       9469       9480       9479  
      9348       9349       9360       9359       9469       9470       9481       9480  
      9349       9350       9361       9360       9470       9471       9482       9481  
      9351       9352       9363       9362       9472       9473       9484       9483  
      9352       9353       9364       9363       9473       9474       9485       9484  
      9353       9354       9365       9364       9474       9475       9486       9485  
      9354       9355       9366       9365       9475       9476       9487       9486  
      9355       9356       9367       9366       9476       9477       9488       9487  
      9356       9357       9368       9367       9477       9478       9489       9488  
      9357       9358       9369       9368       9478       9479       9490       9489  
      9358       9359       9370       9369       9479       9480       9491       9490  
      9359       9360       9371       9370       9480       9481       9492       9491  
      9360       9361       9372       9371       9481       9482       9493       9492  
      9362       9363       9374       9373       9483       9484       9495       9494  
      9363       9364       9375       9374       9484       9485       9496       9495  
      9364       9365       9376       9375       9485       9486       9497       9496  
      9365       9366       9377       9376       9486       9487       9498       9497  
      9366       9367       9378       9377       9487       9488       9499       9498  
      9367       9368       9379       9378       9488       9489       9500       9499  
      9368       9369       9380       9379       9489       9490       9501       9500  
      9369       9370       9381       9380       9490       9491       9502       9501  
      9370       9371       9382       9381       9491       9492       9503       9502  
      9371       9372       9383       9382       9492       9493       9504       9503  
      9373       9374       9385       9384       9494       9495       9506       9505  
      9374       9375       9386       9385       9495       9496       9507       9506  
      9375       9376       9387       9386       9496       9497       9508       9507  
      9376       9377       9388       9387       9497       9498       9509       9508  
      9377       9378       9389       9388       9498       9499       9510       9509  
      9378       9379       9390       9389       9499       9500       9511       9510  
      9379       9380       9391       9390       9500       9501       9512       9511  
      9380       9381       9392       9391       9501       9502       9513       9512  
      9381       9382       9393       9392       9502       9503       9514       9513  
      9382       9383       9394       9393       9503       9504       9515       9514  
      9384       9385       9396       9395       9505       9506       9517       9516  
      9385       9386       9397       9396       9506       9507       9518       9517  
      9386       9387       9398       9397       9507       9508       9519       9518  
      9387       9388       9399       9398       9508       9509       9520       9519  
      9388       9389       9400       9399       9509       9510       9521       9520  
      9389       9390       9401       9400       9510       9511       9522       9521  
      9390       9391       9402       9401       9511       9512       9523       9522  
      9391       9392       9403       9402       9512       9513       9524       9523  
      9392       9393       9404       9403       9513       9514       9525       9524  
      9393       9394       9405       9404       9514       9515       9526       9525  
      9395       9396       9407       9406       9516       9517       9528       9527  
      9396       9397       9408       9407       9517       9518       9529       9528  
      9397       9398       9409       9408       9518       9519       9530       9529  
      9398       9399       9410       9409       9519       9520       9531       9530  
      9399       9400       9411       9410       9520       9521       9532       9531  
      9400       9401       9412       9411       9521       9522       9533       9532  
      9401       9402       9413       9412       9522       9523       9534       9533  
      9402       9403       9414       9413       9523       9524       9535       9534  
      9403       9404       9415       9414       9524       9525       9536       9535  
      9404       9405       9416       9415       9525       9526       9537       9536  
      9406       9407       9418       9417       9527       9528       9539       9538  
      9407       9408       9419       9418       9528       9529       9540       9539  
      9408       9409       9420       9419       9529       9530       9541       9540  
      9409       9410       9421       9420       9530       9531       9542       9541  
      9410       9411       9422       9421       9531       9532       9543       9542  
      9411       9412       9423       9422       9532       9533       9544       9543  
      9412       9413       9424       9423       9533       9534       9545       9544  
      9413       9414       9425       9424       9534       9535       9546       9545  
      9414       9415       9426       9425       9535       9536       9547       9546  
      9415       9416       9427       9426       9536       9537       9548       9547  
      9417       9418       9429       9428       9538       9539       9550       9549  
      9418       9419       9430       9429       9539       9540       9551       9550  
      9419       9420       9431       9430       9540       9541       9552       9551  
      9420       9421       9432       9431       9541       9542       9553       9552  
      9421       9422       9433       9432       9542       9543       9554       9553  
      9422       9423       9434       9433       9543       9544       9555       9554  
      9423       9424       9435       9434       9544       9545       9556       9555  
      9424       9425       9436       9435       9545       9546       9557       9556  
      9425       9426       9437       9436       9546       9547       9558       9557  
      9426       9427       9438       9437       9547       9548       9559       9558  
      9439       9440       9451       9450       9560       9561       9572       9571  
      9440       9441       9452       9451       9561       9562       9573       9572  
      9441       9442       9453       9452       9562       9563       9574       9573  
      9442       9443       9454       9453       9563       9564       9575       9574  
      9443       9444       9455       9454       9564       9565       9576       9575  
      9444       9445       9456       9455       9565       9566       9577       9576  
      9445       9446       9457       9456       9566       9567       9578       9577  
      9446       9447       9458       9457       9567       9568       9579       9578  
      9447       9448       9459       9458       9568       9569       9580       9579  
      9448       9449       9460       9459       9569       9570       9581       9580  
      9450       9451       9462       9461       9571       9572       9583       9582  
      9451       9452       9463       9462       9572       9573       9584       9583  
      9452       9453       9464       9463       9573       9574       9585       9584  
      9453       9454       9465       9464       9574       9575       9586       9585  
      9454       9455       9466       9465       9575       9576       9587       9586  
      9455       9456       9467       9466       9576       9577       9588       9587  
      9456       9457       9468       9467       9577       9578       9589       9588  
      9457       9458       9469       9468       9578       9579       9590       9589  
      9458       9459       9470       9469       9579       9580       9591       9590  
      9459       9460       9471       9470       9580       9581       9592       9591  
      9461       9462       9473       9472       9582       9583       9594       9593  
      9462       9463       9474       9473       9583       9584       9595       9594  
      9463       9464       9475       9474       9584       9585       9596       9595  
      9464       9465       9476       9475       9585       9586       9597       9596  
      9465       9466       9477       9476       9586       9587       9598       9597  
      9466       9467       9478       9477       9587       9588       9599       9598  
      9467       9468       9479       9478       9588       9589       9600       9599  
      9468       9469       9480       9479       9589       9590       9601       9600  
      9469       9470       9481       9480       9590       9591       9602       9601  
      9470       9471       9482       9481       9591       9592       9603       9602  
      9472       9473       9484       9483       9593       9594       9605       9604  
      9473       9474       9485       9484       9594       9595       9606       9605  
      9474       9475       9486       9485       9595       9596       9607       9606  
      9475       9476       9487       9486       9596       9597       9608       9607  
      9476       9477       9488       9487       9597       9598       9609       9608  
      9477       9478       9489       9488       9598       9599       9610       9609  
      9478       9479       9490       9489       9599       9600       9611       9610  
      9479       9480       9491       9490       9600       9601       9612       9611  
      9480       9481       9492       9491       9601       9602       9613       9612  
      9481       9482       9493       9492       9602       9603       9614       9613  
      9483       9484       9495       9494       9604       9605       9616       9615  
      9484       9485       9496       9495       9605       9606       9617       9616  
      9485       9486       9497       9496       9606       9607       9618       9617  
      9486       9487       9498       9497       9607       9608       9619       9618  
      9487       9488       9499       9498       9608       9609       9620       9619  
      9488       9489       9500       9499       9609       9610       9621       9620  
      9489       9490       9501       9500       9610       9611       9622       9621  
      9490       9491       9502       9501       9611       9612       9623       9622  
      9491       9492       9503       9502       9612       9613       9624       9623  
      9492       9493       9504       9503       9613       9614       9625       9624  
      9494       9495       9506       9505       9615       9616       9627       9626  
      9495       9496       9507       9506       9616       9617       9628       9627  
      9496       9497       9508       9507       9617       9618       9629       9628  
      9497       9498       9509       9508       9618       9619       9630       9629  
      9498       9499       9510       9509       9619       9620       9631       9630  
      9499       9500       9511       9510       9620       9621       9632       9631  
      9500       9501       9512       9511       9621       9622       9633       9632  
      9501       9502       9513       9512       9622       9623       9634       9633  
      9502       9503       9514       9513       9623       9624       9635       9634  
      9503       9504       9515       9514       9624       9625       9636       9635  
      9505       9506       9517       9516       9626       9627       9638       9637  
      9506       9507       9518       9517       9627       9628       9639       9638  
      9507       9508       9519       9518       9628       9629       9640       9639  
      9508       9509       9520       9519       9629       9630       9641       9640  
      9509       9510       9521       9520       9630       9631       9642       9641  
      9510       9511       9522       9521       9631       9632       9643       9642  
      9511       9512       9523       9522       9632       9633       9644       9643  
      9512       9513       9524       9523       9633       9634       9645       9644  
      9513       9514       9525       9524       9634       9635       9646       9645  
      9514       9515       9526       9525       9635       9636       9647       9646  
      9516       9517       9528       9527       9637       9638       9649       9648  
      9517       9518       9529       9528       9638       9639       9650       9649  
      9518       9519       9530       9529       9639       9640       9651       9650  
      9519       9520       9531       9530       9640       9641       9652       9651  
      9520       9521       9532       9531       9641       9642       9653       9652  
      9521       9522       9533       9532       9642       9643       9654       9653  
      9522       9523       9534       9533       9643       9644       9655       9654  
      9523       9524       9535       9534       9644       9645       9656       9655  
      9524       9525       9536       9535       9645       9646       9657       9656  
      9525       9526       9537       9536       9646       9647       9658       9657  
      9527       9528       9539       9538       9648       9649       9660       9659  
      9528       9529       9540       9539       9649       9650       9661       9660  
      9529       9530       9541       9540       9650       9651       9662       9661  
      9530       9531       9542       9541       9651       9652       9663       9662  
      9531       9532       9543       9542       9652       9653       9664       9663  
      9532       9533       9544       9543       9653       9654       9665       9664  
      9533       9534       9545       9544       9654       9655       9666       9665  
      9534       9535       9546       9545       9655       9656       9667       9666  
      9535       9536       9547       9546       9656       9657       9668       9667  
      9536       9537       9548       9547       9657       9658       9669       9668  
      9538       9539       9550       9549       9659       9660       9671       9670  
      9539       9540       9551       9550       9660       9661       9672       9671  
      9540       9541       9552       9551       9661       9662       9673       9672  
      9541       9542       9553       9552       9662       9663       9674       9673  
      9542       9543       9554       9553       9663       9664       9675       9674  
      9543       9544       9555       9554       9664       9665       9676       9675  
      9544       9545       9556       9555       9665       9666       9677       9676  
      9545       9546       9557       9556       9666       9667       9678       9677  
      9546       9547       9558       9557       9667       9668       9679       9678  
      9547       9548       9559       9558       9668       9669       9680       9679  
      9560       9561       9572       9571       9681       9682       9693       9692  
      9561       9562       9573       9572       9682       9683       9694       9693  
      9562       9563       9574       9573       9683       9684       9695       9694  
      9563       9564       9575       9574       9684       9685       9696       9695  
      9564       9565       9576       9575       9685       9686       9697       9696  
      9565       9566       9577       9576       9686       9687       9698       9697  
      9566       9567       9578       9577       9687       9688       9699       9698  
      9567       9568       9579       9578       9688       9689       9700       9699  
      9568       9569       9580       9579       9689       9690       9701       9700  
      9569       9570       9581       9580       9690       9691       9702       9701  
      9571       9572       9583       9582       9692       9693       9704       9703  
      9572       9573       9584       9583       9693       9694       9705       9704  
      9573       9574       9585       9584       9694       9695       9706       9705  
      9574       9575       9586       9585       9695       9696       9707       9706  
      9575       9576       9587       9586       9696       9697       9708       9707  
      9576       9577       9588       9587       9697       9698       9709       9708  
      9577       9578       9589       9588       9698       9699       9710       9709  
      9578       9579       9590       9589       9699       9700       9711       9710  
      9579       9580       9591       9590       9700       9701       9712       9711  
      9580       9581       9592       9591       9701       9702       9713       9712  
      9582       9583       9594       9593       9703       9704       9715       9714  
      9583       9584       9595       9594       9704       9705       9716       9715  
      9584       9585       9596       9595       9705       9706       9717       9716  
      9585       9586       9597       9596       9706       9707       9718       9717  
      9586       9587       9598       9597       9707       9708       9719       9718  
      9587       9588       9599       9598       9708       9709       9720       9719  
      9588       9589       9600       9599       9709       9710       9721       9720  
      9589       9590       9601       9600       9710       9711       9722       9721  
      9590       9591       9602       9601       9711       9712       9723       9722  
      9591       9592       9603       9602       9712       9713       9724       9723  
      9593       9594       9605       9604       9714       9715       9726       9725  
      9594       9595       9606       9605       9715       9716       9727       9726  
      9595       9596       9607       9606       9716       9717       9728       9727  
      9596       9597       9608       9607       9717       9718       9729       9728  
      9597       9598       9609       9608       9718       9719       9730       9729  
      9598       9599       9610       9609       9719       9720       9731       9730  
      9599       9600       9611       9610       9720       9721       9732       9731  
      9600       9601       9612       9611       9721       9722       9733       9732  
      9601       9602       9613       9612       9722       9723       9734       9733  
      9602       9603       9614       9613       9723       9724       9735       9734  
      9604       9605       9616       9615       9725       9726       9737       9736  
      9605       9606       9617       9616       9726       9727       9738       9737  
      9606       9607       9618       9617       9727       9728       9739       9738  
      9607       9608       9619       9618       9728       9729       9740       9739  
      9608       9609       9620       9619       9729       9730       9741       9740  
      9609       9610       9621       9620       9730       9731       9742       9741  
      9610       9611       9622       9621       9731       9732       9743       9742  
      9611       9612       9623       9622       9732       9733       9744       9743  
      9612       9613       9624       9623       9733       9734       9745       9744  
      9613       9614       9625       9624       9734       9735       9746       9745  
      9615       9616       9627       9626       9736       9737       9748       9747  
      9616       9617       9628       9627       9737       9738       9749       9748  
      9617       9618       9629       9628       9738       9739       9750       9749  
      9618       9619       9630       9629       9739       9740       9751       9750  
      9619       9620       9631       9630       9740       9741       9752       9751  
      9620       9621       9632       9631       9741       9742       9753       9752  
      9621       9622       9633       9632       9742       9743       9754       9753  
      9622       9623       9634       9633       9743       9744       9755       9754  
      9623       9624       9635       9634       9744       9745       9756       9755  
      9624       9625       9636       9635       9745       9746       9757       9756  
      9626       9627       9638       9637       9747       9748       9759       9758  
      9627       9628       9639       9638       9748       9749       9760       9759  
      9628       9629       9640       9639       9749       9750       9761       9760  
      9629       9630       9641       9640       9750       9751       9762       9761  
      9630       9631       9642       9641       9751       9752       9763       9762  
      9631       9632       9643       9642       9752       9753       9764       9763  
      9632       9633       9644       9643       9753       9754       9765       9764  
      9633       9634       9645       9644       9754       9755       9766       9765  
      9634       9635       9646       9645       9755       9756       9767       9766  
      9635       9636       9647       9646       9756       9757       9768       9767  
      9637       9638       9649       9648       9758       9759       9770       9769  
      9638       9639       9650       9649       9759       9760       9771       9770  
      9639       9640       9651       9650       9760       9761       9772       9771  
      9640       9641       9652       9651       9761       9762       9773       9772  
      9641       9642       9653       9652       9762       9763       9774       9773  
      9642       9643       9654       9653       9763       9764       9775       9774  
      9643       9644       9655       9654       9764       9765       9776       9775  
      9644       9645       9656       9655       9765       9766       9777       9776  
      9645       9646       9657       9656       9766       9767       9778       9777  
      9646       9647       9658       9657       9767       9768       9779       9778  
      9648       9649       9660       9659       9769       9770       9781       9780  
      9649       9650       9661       9660       9770       9771       9782       9781  
      9650       9651       9662       9661       9771       9772       9783       9782  
      9651       9652       9663       9662       9772       9773       9784       9783  
      9652       9653       9664       9663       9773       9774       9785       9784  
      9653       9654       9665       9664       9774       9775       9786       9785  
      9654       9655       9666       9665       9775       9776       9787       9786  
      9655       9656       9667       9666       9776       9777       9788       9787  
      9656       9657       9668       9667       9777       9778       9789       9788  
      9657       9658       9669       9668       9778       9779       9790       9789  
      9659       9660       9671       9670       9780       9781       9792       9791  
      9660       9661       9672       9671       9781       9782       9793       9792  
      9661       9662       9673       9672       9782       9783       9794       9793  
      9662       9663       9674       9673       9783       9784       9795       9794  
      9663       9664       9675       9674       9784       9785       9796       9795  
      9664       9665       9676       9675       9785       9786       9797       9796  
      9665       9666       9677       9676       9786       9787       9798       9797  
      9666       9667       9678       9677       9787       9788       9799       9798  
      9667       9668       9679       9678       9788       9789       9800       9799  
      9668       9669       9680       9679       9789       9790       9801       9800  
      9681       9682       9693       9692       9802       9803       9814       9813  
      9682       9683       9694       9693       9803       9804       9815       9814  
      9683       9684       9695       9694       9804       9805       9816       9815  
      9684       9685       9696       9695       9805       9806       9817       9816  
      9685       9686       9697       9696       9806       9807       9818       9817  
      9686       9687       9698       9697       9807       9808       9819       9818  
      9687       9688       9699       9698       9808       9809       9820       9819  
      9688       9689       9700       9699       9809       9810       9821       9820  
      9689       9690       9701       9700       9810       9811       9822       9821  
      9690       9691       9702       9701       9811       9812       9823       9822  
      9692       9693       9704       9703       9813       9814       9825       9824  
      9693       9694       9705       9704       9814       9815       9826       9825  
      9694       9695       9706       9705       9815       9816       9827       9826  
      9695       9696       9707       9706       9816       9817       9828       9827  
      9696       9697       9708       9707       9817       9818       9829       9828  
      9697       9698       9709       9708       9818       9819       9830       9829  
      9698       9699       9710       9709       9819       9820       9831       9830  
      9699       9700       9711       9710       9820       9821       9832       9831  
      9700       9701       9712       9711       9821       9822       9833       9832  
      9701       9702       9713       9712       9822       9823       9834       9833  
      9703       9704       9715       9714       9824       9825       9836       9835  
      9704       9705       9716       9715       9825       9826       9837       9836  
      9705       9706       9717       9716       9826       9827       9838       9837  
      9706       9707       9718       9717       9827       9828       9839       9838  
      9707       9708       9719       9718       9828       9829       9840       9839  
      9708       9709       9720       9719       9829       9830       9841       9840  
      9709       9710       9721       9720       9830       9831       9842       9841  
      9710       9711       9722       9721       9831       9832       9843       9842  
      9711       9712       9723       9722       9832       9833       9844       9843  
      9712       9713       9724       9723       9833       9834       9845       9844  
      9714       9715       9726       9725       9835       9836       9847       9846  
      9715       9716       9727       9726       9836       9837       9848       9847  
      9716       9717       9728       9727       9837       9838       9849       9848  
      9717       9718       9729       9728       9838       9839       9850       9849  
      9718       9719       9730       9729       9839       9840       9851       9850  
      9719       9720       9731       9730       9840       9841       9852       9851  
      9720       9721       9732       9731       9841       9842       9853       9852  
      9721       9722       9733       9732       9842       9843       9854       9853  
      9722       9723       9734       9733       9843       9844       9855       9854  
      9723       9724       9735       9734       9844       9845       9856       9855  
      9725       9726       9737       9736       9846       9847       9858       9857  
      9726       9727       9738       9737       9847       9848       9859       9858  
      9727       9728       9739       9738       9848       9849       9860       9859  
      9728       9729       9740       9739       9849       9850       9861       9860  
      9729       9730       9741       9740       9850       9851       9862       9861  
      9730       9731       9742       9741       9851       9852       9863       9862  
      9731       9732       9743       9742       9852       9853       9864       9863  
      9732       9733       9744       9743       9853       9854       9865       9864  
      9733       9734       9745       9744       9854       9855       9866       9865  
      9734       9735       9746       9745       9855       9856       9867       9866  
      9736       9737       9748       9747       9857       9858       9869       9868  
      9737       9738       9749       9748       9858       9859       9870       9869  
      9738       9739       9750       9749       9859       9860       9871       9870  
      9739       9740       9751       9750       9860       9861       9872       9871  
      9740       9741       9752       9751       9861       9862       9873       9872  
      9741       9742       9753       9752       9862       9863       9874       9873  
      9742       9743       9754       9753       9863       9864       9875       9874  
      9743       9744       9755       9754       9864       9865       9876       9875  
      9744       9745       9756       9755       9865       9866       9877       9876  
      9745       9746       9757       9756       9866       9867       9878       9877  
      9747       9748       9759       9758       9868       9869       9880       9879  
      9748       9749       9760       9759       9869       9870       9881       9880  
      9749       9750       9761       9760       9870       9871       9882       9881  
      9750       9751       9762       9761       9871       9872       9883       9882  
      9751       9752       9763       9762       9872       9873       9884       9883  
      9752       9753       9764       9763       9873       9874       9885       9884  
      9753       9754       9765       9764       9874       9875       9886       9885  
      9754       9755       9766       9765       9875       9876       9887       9886  
      9755       9756       9767       9766       9876       9877       9888       9887  
      9756       9757       9768       9767       9877       9878       9889       9888  
      9758       9759       9770       9769       9879       9880       9891       9890  
      9759       9760       9771       9770       9880       9881       9892       9891  
      9760       9761       9772       9771       9881       9882       9893       9892  
      9761       9762       9773       9772       9882       9883       9894       9893  
      9762       9763       9774       9773       9883       9884       9895       9894  
      9763       9764       9775       9774       9884       9885       9896       9895  
      9764       9765       9776       9775       9885       9886       9897       9896  
      9765       9766       9777       9776       9886       9887       9898       9897  
      9766       9767       9778       9777       9887       9888       9899       9898  
      9767       9768       9779       9778       9888       9889       9900       9899  
      9769       9770       9781       9780       9890       9891       9902       9901  
      9770       9771       9782       9781       9891       9892       9903       9902  
      9771       9772       9783       9782       9892       9893       9904       9903  
      9772       9773       9784       9783       9893       9894       9905       9904  
      9773       9774       9785       9784       9894       9895       9906       9905  
      9774       9775       9786       9785       9895       9896       9907       9906  
      9775       9776       9787       9786       9896       9897       9908       9907  
      9776       9777       9788       9787       9897       9898       9909       9908  
      9777       9778       9789       9788       9898       9899       9910       9909  
      9778       9779       9790       9789       9899       9900       9911       9910  
      9780       9781       9792       9791       9901       9902       9913       9912  
      9781       9782       9793       9792       9902       9903       9914       9913  
      9782       9783       9794       9793       9903       9904       9915       9914  
      9783       9784       9795       9794       9904       9905       9916       9915  
      9784       9785       9796       9795       9905       9906       9917       9916  
      9785       9786       9797       9796       9906       9907       9918       9917  
      9786       9787       9798       9797       9907       9908       9919       9918  
      9787       9788       9799       9798       9908       9909       9920       9919  
      9788       9789       9800       9799       9909       9910       9921       9920  
      9789       9790       9801       9800       9910       9911       9922       9921  
      9802       9803       9814       9813       9923       9924       9935       9934  
      9803       9804       9815       9814       9924       9925       9936       9935  
      9804       9805       9816       9815       9925       9926       9937       9936  
      9805       9806       9817       9816       9926       9927       9938       9937  
      9806       9807       9818       9817       9927       9928       9939       9938  
      9807       9808       9819       9818       9928       9929       9940       9939  
      9808       9809       9820       9819       9929       9930       9941       9940  
      9809       9810       9821       9820       9930       9931       9942       9941  
      9810       9811       9822       9821       9931       9932       9943       9942  
      9811       9812       9823       9822       9932       9933       9944       9943  
      9813       9814       9825       9824       9934       9935       9946       9945  
      9814       9815       9826       9825       9935       9936       9947       9946  
      9815       9816       9827       9826       9936       9937       9948       9947  
      9816       9817       9828       9827       9937       9938       9949       9948  
      9817       9818       9829       9828       9938       9939       9950       9949  
      9818       9819       9830       9829       9939       9940       9951       9950  
      9819       9820       9831       9830       9940       9941       9952       9951  
      9820       9821       9832       9831       9941       9942       9953       9952  
      9821       9822       9833       9832       9942       9943       9954       9953  
      9822       9823       9834       9833       9943       9944       9955       9954  
      9824       9825       9836       9835       9945       9946       9957       9956  
      9825       9826       9837       9836       9946       9947       9958       9957  
      9826       9827       9838       9837       9947       9948       9959       9958  
      9827       9828       9839       9838       9948       9949       9960       9959  
      9828       9829       9840       9839       9949       9950       9961       9960  
      9829       9830       9841       9840       9950       9951       9962       9961  
      9830       9831       9842       9841       9951       9952       9963       9962  
      9831       9832       9843       9842       9952       9953       9964       9963  
      9832       9833       9844       9843       9953       9954       9965       9964  
      9833       9834       9845       9844       9954       9955       9966       9965  
      9835       9836       9847       9846       9956       9957       9968       9967  
      9836       9837       9848       9847       9957       9958       9969       9968  
      9837       9838       9849       9848       9958       9959       9970       9969  
      9838       9839       9850       9849       9959       9960       9971       9970  
      9839       9840       9851       9850       9960       9961       9972       9971  
      9840       9841       9852       9851       9961       9962       9973       9972  
      9841       9842       9853       9852       9962       9963       9974       9973  
      9842       9843       9854       9853       9963       9964       9975       9974  
      9843       9844       9855       9854       9964       9965       9976       9975  
      9844       9845       9856       9855       9965       9966       9977       9976  
      9846       9847       9858       9857       9967       9968       9979       9978  
      9847       9848       9859       9858       9968       9969       9980       9979  
      9848       9849       9860       9859       9969       9970       9981       9980  
      9849       9850       9861       9860       9970       9971       9982       9981  
      9850       9851       9862       9861       9971       9972       9983       9982  
      9851       9852       9863       9862       9972       9973       9984       9983  
      9852       9853       9864       9863       9973       9974       9985       9984  
      9853       9854       9865       9864       9974       9975       9986       9985  
      9854       9855       9866       9865       9975       9976       9987       9986  
      9855       9856       9867       9866       9976       9977       9988       9987  
      9857       9858       9869       9868       9978       9979       9990       9989  
      9858       9859       9870       9869       9979       9980       9991       9990  
      9859       9860       9871       9870       9980       9981       9992       9991  
      9860       9861       9872       9871       9981       9982       9993       9992  
      9861       9862       9873       9872       9982       9983       9994       9993  
      9862       9863       9874       9873       9983       9984       9995       9994  
      9863       9864       9875       9874       9984       9985       9996       9995  
      9864       9865       9876       9875       9985       9986       9997       9996  
      9865       9866       9877       9876       9986       9987       9998       9997  
      9866       9867       9878       9877       9987       9988       9999       9998  
      9868       9869       9880       9879       9989       9990      10001      10000  
      9869       9870       9881       9880       9990       9991      10002      10001  
      9870       9871       9882       9881       9991       9992      10003      10002  
      9871       9872       9883       9882       9992       9993      10004      10003  
      9872       9873       9884       9883       9993       9994      10005      10004  
      9873       9874       9885       9884       9994       9995      10006      10005  
      9874       9875       9886       9885       9995       9996      10007      10006  
      9875       9876       9887       9886       9996       9997      10008      10007  
      9876       9877       9888       9887       9997       9998      10009      10008  
      9877       9878       9889       9888       9998       9999      10010      10009  
      9879       9880       9891       9890      10000      10001      10012      10011  
      9880       9881       9892       9891      10001      10002      10013      10012  
      9881       9882       9893       9892      10002      10003      10014      10013  
      9882       9883       9894       9893      10003      10004      10015      10014  
      9883       9884       9895       9894      10004      10005      10016      10015  
      9884       9885       9896       9895      10005      10006      10017      10016  
      9885       9886       9897       9896      10006      10007      10018      10017  
      9886       9887       9898       9897      10007      10008      10019      10018  
      9887       9888       9899       9898      10008      10009      10020      10019  
      9888       9889       9900       9899      10009      10010      10021      10020  
      9890       9891       9902       9901      10011      10012      10023      10022  
      9891       9892       9903       9902      10012      10013      10024      10023  
      9892       9893       9904       9903      10013      10014      10025      10024  
      9893       9894       9905       9904      10014      10015      10026      10025  
      9894       9895       9906       9905      10015      10016      10027      10026  
      9895       9896       9907       9906      10016      10017      10028      10027  
      9896       9897       9908       9907      10017      10018      10029      10028  
      9897       9898       9909       9908      10018      10019      10030      10029  
      9898       9899       9910       9909      10019      10020      10031      10030  
      9899       9900       9911       9910      10020      10021      10032      10031  
      9901       9902       9913       9912      10022      10023      10034      10033  
      9902       9903       9914       9913      10023      10024      10035      10034  
      9903       9904       9915       9914      10024      10025      10036      10035  
      9904       9905       9916       9915      10025      10026      10037      10036  
      9905       9906       9917       9916      10026      10027      10038      10037  
      9906       9907       9918       9917      10027      10028      10039      10038  
      9907       9908       9919       9918      10028      10029      10040      10039  
      9908       9909       9920       9919      10029      10030      10041      10040  
      9909       9910       9921       9920      10030      10031      10042      10041  
      9910       9911       9922       9921      10031      10032      10043      10042  
      9923       9924       9935       9934      10044      10045      10056      10055  
      9924       9925       9936       9935      10045      10046      10057      10056  
      9925       9926       9937       9936      10046      10047      10058      10057  
      9926       9927       9938       9937      10047      10048      10059      10058  
      9927       9928       9939       9938      10048      10049      10060      10059  
      9928       9929       9940       9939      10049      10050      10061      10060  
      9929       9930       9941       9940      10050      10051      10062      10061  
      9930       9931       9942       9941      10051      10052      10063      10062  
      9931       9932       9943       9942      10052      10053      10064      10063  
      9932       9933       9944       9943      10053      10054      10065      10064  
      9934       9935       9946       9945      10055      10056      10067      10066  
      9935       9936       9947       9946      10056      10057      10068      10067  
      9936       9937       9948       9947      10057      10058      10069      10068  
      9937       9938       9949       9948      10058      10059      10070      10069  
      9938       9939       9950       9949      10059      10060      10071      10070  
      9939       9940       9951       9950      10060      10061      10072      10071  
      9940       9941       9952       9951      10061      10062      10073      10072  
      9941       9942       9953       9952      10062      10063      10074      10073  
      9942       9943       9954       9953      10063      10064      10075      10074  
      9943       9944       9955       9954      10064      10065      10076      10075  
      9945       9946       9957       9956      10066      10067      10078      10077  
      9946       9947       9958       9957      10067      10068      10079      10078  
      9947       9948       9959       9958      10068      10069      10080      10079  
      9948       9949       9960       9959      10069      10070      10081      10080  
      9949       9950       9961       9960      10070      10071      10082      10081  
      9950       9951       9962       9961      10071      10072      10083      10082  
      9951       9952       9963       9962      10072      10073      10084      10083  
      9952       9953       9964       9963      10073      10074      10085      10084  
      9953       9954       9965       9964      10074      10075      10086      10085  
      9954       9955       9966       9965      10075      10076      10087      10086  
      9956       9957       9968       9967      10077      10078      10089      10088  
      9957       9958       9969       9968      10078      10079      10090      10089  
      9958       9959       9970       9969      10079      10080      10091      10090  
      9959       9960       9971       9970      10080      10081      10092      10091  
      9960       9961       9972       9971      10081      10082      10093      10092  
      9961       9962       9973       9972      10082      10083      10094      10093  
      9962       9963       9974       9973      10083      10084      10095      10094  
      9963       9964       9975       9974      10084      10085      10096      10095  
      9964       9965       9976       9975      10085      10086      10097      10096  
      9965       9966       9977       9976      10086      10087      10098      10097  
      9967       9968       9979       9978      10088      10089      10100      10099  
      9968       9969       9980       9979      10089      10090      10101      10100  
      9969       9970       9981       9980      10090      10091      10102      10101  
      9970       9971       9982       9981      10091      10092      10103      10102  
      9971       9972       9983       9982      10092      10093      10104      10103  
      9972       9973       9984       9983      10093      10094      10105      10104  
      9973       9974       9985       9984      10094      10095      10106      10105  
      9974       9975       9986       9985      10095      10096      10107      10106  
      9975       9976       9987       9986      10096      10097      10108      10107  
      9976       9977       9988       9987      10097      10098      10109      10108  
      9978       9979       9990       9989      10099      10100      10111      10110  
      9979       9980       9991       9990      10100      10101      10112      10111  
      9980       9981       9992       9991      10101      10102      10113      10112  
      9981       9982       9993       9992      10102      10103      10114      10113  
      9982       9983       9994       9993      10103      10104      10115      10114  
      9983       9984       9995       9994      10104      10105      10116      10115  
      9984       9985       9996       9995      10105      10106      10117      10116  
      9985       9986       9997       9996      10106      10107      10118      10117  
      9986       9987       9998       9997      10107      10108      10119      10118  
      9987       9988       9999       9998      10108      10109      10120      10119  
      9989       9990      10001      10000      10110      10111      10122      10121  
      9990       9991      10002      10001      10111      10112      10123      10122  
      9991       9992      10003      10002      10112      10113      10124      10123  
      9992       9993      10004      10003      10113      10114      10125      10124  
      9993       9994      10005      10004      10114      10115      10126      10125  
      9994       9995      10006      10005      10115      10116      10127      10126  
      9995       9996      10007      10006      10116      10117      10128      10127  
      9996       9997      10008      10007      10117      10118      10129      10128  
      9997       9998      10009      10008      10118      10119      10130      10129  
      9998       9999      10010      10009      10119      10120      10131      10130  
     10000      10001      10012      10011      10121      10122      10133      10132  
     10001      10002      10013      10012      10122      10123      10134      10133  
     10002      10003      10014      10013      10123      10124      10135      10134  
     10003      10004      10015      10014      10124      10125      10136      10135  
     10004      10005      10016      10015      10125      10126      10137      10136  
     10005      10006      10017      10016      10126      10127      10138      10137  
     10006      10007      10018      10017      10127      10128      10139      10138  
     10007      10008      10019      10018      10128      10129      10140      10139  
     10008      10009      10020      10019      10129      10130      10141      10140  
     10009      10010      10021      10020      10130      10131      10142      10141  
     10011      10012      10023      10022      10132      10133      10144      10143  
     10012      10013      10024      10023      10133      10134      10145      10144  
     10013      10014      10025      10024      10134      10135      10146      10145  
     10014      10015      10026      10025      10135      10136      10147      10146  
     10015      10016      10027      10026      10136      10137      10148      10147  
     10016      10017      10028      10027      10137      10138      10149      10148  
     10017      10018      10029      10028      10138      10139      10150      10149  
     10018      10019      10030      10029      10139      10140      10151      10150  
     10019      10020      10031      10030      10140      10141      10152      10151  
     10020      10021      10032      10031      10141      10142      10153      10152  
     10022      10023      10034      10033      10143      10144      10155      10154  
     10023      10024      10035      10034      10144      10145      10156      10155  
     10024      10025      10036      10035      10145      10146      10157      10156  
     10025      10026      10037      10036      10146      10147      10158      10157  
     10026      10027      10038      10037      10147      10148      10159      10158  
     10027      10028      10039      10038      10148      10149      10160      10159  
     10028      10029      10040      10039      10149      10150      10161      10160  
     10029      10030      10041      10040      10150      10151      10162      10161  
     10030      10031      10042      10041      10151      10152      10163      10162  
     10031      10032      10043      10042      10152      10153      10164      10163  
     10044      10045      10056      10055      10165      10166      10177      10176  
     10045      10046      10057      10056      10166      10167      10178      10177  
     10046      10047      10058      10057      10167      10168      10179      10178  
     10047      10048      10059      10058      10168      10169      10180      10179  
     10048      10049      10060      10059      10169      10170      10181      10180  
     10049      10050      10061      10060      10170      10171      10182      10181  
     10050      10051      10062      10061      10171      10172      10183      10182  
     10051      10052      10063      10062      10172      10173      10184      10183  
     10052      10053      10064      10063      10173      10174      10185      10184  
     10053      10054      10065      10064      10174      10175      10186      10185  
     10055      10056      10067      10066      10176      10177      10188      10187  
     10056      10057      10068      10067      10177      10178      10189      10188  
     10057      10058      10069      10068      10178      10179      10190      10189  
     10058      10059      10070      10069      10179      10180      10191      10190  
     10059      10060      10071      10070      10180      10181      10192      10191  
     10060      10061      10072      10071      10181      10182      10193      10192  
     10061      10062      10073      10072      10182      10183      10194      10193  
     10062      10063      10074      10073      10183      10184      10195      10194  
     10063      10064      10075      10074      10184      10185      10196      10195  
     10064      10065      10076      10075      10185      10186      10197      10196  
     10066      10067      10078      10077      10187      10188      10199      10198  
     10067      10068      10079      10078      10188      10189      10200      10199  
     10068      10069      10080      10079      10189      10190      10201      10200  
     10069      10070      10081      10080      10190      10191      10202      10201  
     10070      10071      10082      10081      10191      10192      10203      10202  
     10071      10072      10083      10082      10192      10193      10204      10203  
     10072      10073      10084      10083      10193      10194      10205      10204  
     10073      10074      10085      10084      10194      10195      10206      10205  
     10074      10075      10086      10085      10195      10196      10207      10206  
     10075      10076      10087      10086      10196      10197      10208      10207  
     10077      10078      10089      10088      10198      10199      10210      10209  
     10078      10079      10090      10089      10199      10200      10211      10210  
     10079      10080      10091      10090      10200      10201      10212      10211  
     10080      10081      10092      10091      10201      10202      10213      10212  
     10081      10082      10093      10092      10202      10203      10214      10213  
     10082      10083      10094      10093      10203      10204      10215      10214  
     10083      10084      10095      10094      10204      10205      10216      10215  
     10084      10085      10096      10095      10205      10206      10217      10216  
     10085      10086      10097      10096      10206      10207      10218      10217  
     10086      10087      10098      10097      10207      10208      10219      10218  
     10088      10089      10100      10099      10209      10210      10221      10220  
     10089      10090      10101      10100      10210      10211      10222      10221  
     10090      10091      10102      10101      10211      10212      10223      10222  
     10091      10092      10103      10102      10212      10213      10224      10223  
     10092      10093      10104      10103      10213      10214      10225      10224  
     10093      10094      10105      10104      10214      10215      10226      10225  
     10094      10095      10106      10105      10215      10216      10227      10226  
     10095      10096      10107      10106      10216      10217      10228      10227  
     10096      10097      10108      10107      10217      10218      10229      10228  
     10097      10098      10109      10108      10218      10219      10230      10229  
     10099      10100      10111      10110      10220      10221      10232      10231  
     10100      10101      10112      10111      10221      10222      10233      10232  
     10101      10102      10113      10112      10222      10223      10234      10233  
     10102      10103      10114      10113      10223      10224      10235      10234  
     10103      10104      10115      10114      10224      10225      10236      10235  
     10104      10105      10116      10115      10225      10226      10237      10236  
     10105      10106      10117      10116      10226      10227      10238      10237  
     10106      10107      10118      10117      10227      10228      10239      10238  
     10107      10108      10119      10118      10228      10229      10240      10239  
     10108      10109      10120      10119      10229      10230      10241      10240  
     10110      10111      10122      10121      10231      10232      10243      10242  
     10111      10112      10123      10122      10232      10233      10244      10243  
     10112      10113      10124      10123      10233      10234      10245      10244  
     10113      10114      10125      10124      10234      10235      10246      10245  
     10114      10115      10126      10125      10235      10236      10247      10246  
     10115      10116      10127      10126      10236      10237      10248      10247  
     10116      10117      10128      10127      10237      10238      10249      10248  
     10117      10118      10129      10128      10238      10239      10250      10249  
     10118      10119      10130      10129      10239      10240      10251      10250  
     10119      10120      10131      10130      10240      10241      10252      10251  
     10121      10122      10133      10132      10242      10243      10254      10253  
     10122      10123      10134      10133      10243      10244      10255      10254  
     10123      10124      10135      10134      10244      10245      10256      10255  
     10124      10125      10136      10135      10245      10246      10257      10256  
     10125      10126      10137      10136      10246      10247      10258      10257  
     10126      10127      10138      10137      10247      10248      10259      10258  
     10127      10128      10139      10138      10248      10249      10260      10259  
     10128      10129      10140      10139      10249      10250      10261      10260  
     10129      10130      10141      10140      10250      10251      10262      10261  
     10130      10131      10142      10141      10251      10252      10263      10262  
     10132      10133      10144      10143      10253      10254      10265      10264  
     10133      10134      10145      10144      10254      10255      10266      10265  
     10134      10135      10146      10145      10255      10256      10267      10266  
     10135      10136      10147      10146      10256      10257      10268      10267  
     10136      10137      10148      10147      10257      10258      10269      10268  
     10137      10138      10149      10148      10258      10259      10270      10269  
     10138      10139      10150      10149      10259      10260      10271      10270  
     10139      10140      10151      10150      10260      10261      10272      10271  
     10140      10141      10152      10151      10261      10262      10273      10272  
     10141      10142      10153      10152      10262      10263      10274      10273  
     10143      10144      10155      10154      10264      10265      10276      10275  
     10144      10145      10156      10155      10265      10266      10277      10276  
     10145      10146      10157      10156      10266      10267      10278      10277  
     10146      10147      10158      10157      10267      10268      10279      10278  
     10147      10148      10159      10158      10268      10269      10280      10279  
     10148      10149      10160      10159      10269      10270      10281      10280  
     10149      10150      10161      10160      10270      10271      10282      10281  
     10150      10151      10162      10161      10271      10272      10283      10282  
     10151      10152      10163      10162      10272      10273      10284      10283  
     10152      10153      10164      10163      10273      10274      10285      10284  
     10165      10166      10177      10176      10286      10287      10298      10297  
     10166      10167      10178      10177      10287      10288      10299      10298  
     10167      10168      10179      10178      10288      10289      10300      10299  
     10168      10169      10180      10179      10289      10290      10301      10300  
     10169      10170      10181      10180      10290      10291      10302      10301  
     10170      10171      10182      10181      10291      10292      10303      10302  
     10171      10172      10183      10182      10292      10293      10304      10303  
     10172      10173      10184      10183      10293      10294      10305      10304  
     10173      10174      10185      10184      10294      10295      10306      10305  
     10174      10175      10186      10185      10295      10296      10307      10306  
     10176      10177      10188      10187      10297      10298      10309      10308  
     10177      10178      10189      10188      10298      10299      10310      10309  
     10178      10179      10190      10189      10299      10300      10311      10310  
     10179      10180      10191      10190      10300      10301      10312      10311  
     10180      10181      10192      10191      10301      10302      10313      10312  
     10181      10182      10193      10192      10302      10303      10314      10313  
     10182      10183      10194      10193      10303      10304      10315      10314  
     10183      10184      10195      10194      10304      10305      10316      10315  
     10184      10185      10196      10195      10305      10306      10317      10316  
     10185      10186      10197      10196      10306      10307      10318      10317  
     10187      10188      10199      10198      10308      10309      10320      10319  
     10188      10189      10200      10199      10309      10310      10321      10320  
     10189      10190      10201      10200      10310      10311      10322      10321  
     10190      10191      10202      10201      10311      10312      10323      10322  
     10191      10192      10203      10202      10312      10313      10324      10323  
     10192      10193      10204      10203      10313      10314      10325      10324  
     10193      10194      10205      10204      10314      10315      10326      10325  
     10194      10195      10206      10205      10315      10316      10327      10326  
     10195      10196      10207      10206      10316      10317      10328      10327  
     10196      10197      10208      10207      10317      10318      10329      10328  
     10198      10199      10210      10209      10319      10320      10331      10330  
     10199      10200      10211      10210      10320      10321      10332      10331  
     10200      10201      10212      10211      10321      10322      10333      10332  
     10201      10202      10213      10212      10322      10323      10334      10333  
     10202      10203      10214      10213      10323      10324      10335      10334  
     10203      10204      10215      10214      10324      10325      10336      10335  
     10204      10205      10216      10215      10325      10326      10337      10336  
     10205      10206      10217      10216      10326      10327      10338      10337  
     10206      10207      10218      10217      10327      10328      10339      10338  
     10207      10208      10219      10218      10328      10329      10340      10339  
     10209      10210      10221      10220      10330      10331      10342      10341  
     10210      10211      10222      10221      10331      10332      10343      10342  
     10211      10212      10223      10222      10332      10333      10344      10343  
     10212      10213      10224      10223      10333      10334      10345      10344  
     10213      10214      10225      10224      10334      10335      10346      10345  
     10214      10215      10226      10225      10335      10336      10347      10346  
     10215      10216      10227      10226      10336      10337      10348      10347  
     10216      10217      10228      10227      10337      10338      10349      10348  
     10217      10218      10229      10228      10338      10339      10350      10349  
     10218      10219      10230      10229      10339      10340      10351      10350  
     10220      10221      10232      10231      10341      10342      10353      10352  
     10221      10222      10233      10232      10342      10343      10354      10353  
     10222      10223      10234      10233      10343      10344      10355      10354  
     10223      10224      10235      10234      10344      10345      10356      10355  
     10224      10225      10236      10235      10345      10346      10357      10356  
     10225      10226      10237      10236      10346      10347      10358      10357  
     10226      10227      10238      10237      10347      10348      10359      10358  
     10227      10228      10239      10238      10348      10349      10360      10359  
     10228      10229      10240      10239      10349      10350      10361      10360  
     10229      10230      10241      10240      10350      10351      10362      10361  
     10231      10232      10243      10242      10352      10353      10364      10363  
     10232      10233      10244      10243      10353      10354      10365      10364  
     10233      10234      10245      10244      10354      10355      10366      10365  
     10234      10235      10246      10245      10355      10356      10367      10366  
     10235      10236      10247      10246      10356      10357      10368      10367  
     10236      10237      10248      10247      10357      10358      10369      10368  
     10237      10238      10249      10248      10358      10359      10370      10369  
     10238      10239      10250      10249      10359      10360      10371      10370  
     10239      10240      10251      10250      10360      10361      10372      10371  
     10240      10241      10252      10251      10361      10362      10373      10372  
     10242      10243      10254      10253      10363      10364      10375      10374  
     10243      10244      10255      10254      10364      10365      10376      10375  
     10244      10245      10256      10255      10365      10366      10377      10376  
     10245      10246      10257      10256      10366      10367      10378      10377  
     10246      10247      10258      10257      10367      10368      10379      10378  
     10247      10248      10259      10258      10368      10369      10380      10379  
     10248      10249      10260      10259      10369      10370      10381      10380  
     10249      10250      10261      10260      10370      10371      10382      10381  
     10250      10251      10262      10261      10371      10372      10383      10382  
     10251      10252      10263      10262      10372      10373      10384      10383  
     10253      10254      10265      10264      10374      10375      10386      10385  
     10254      10255      10266      10265      10375      10376      10387      10386  
     10255      10256      10267      10266      10376      10377      10388      10387  
     10256      10257      10268      10267      10377      10378      10389      10388  
     10257      10258      10269      10268      10378      10379      10390      10389  
     10258      10259      10270      10269      10379      10380      10391      10390  
     10259      10260      10271      10270      10380      10381      10392      10391  
     10260      10261      10272      10271      10381      10382      10393      10392  
     10261      10262      10273      10272      10382      10383      10394      10393  
     10262      10263      10274      10273      10383      10384      10395      10394  
     10264      10265      10276      10275      10385      10386      10397      10396  
     10265      10266      10277      10276      10386      10387      10398      10397  
     10266      10267      10278      10277      10387      10388      10399      10398  
     10267      10268      10279      10278      10388      10389      10400      10399  
     10268      10269      10280      10279      10389      10390      10401      10400  
     10269      10270      10281      10280      10390      10391      10402      10401  
     10270      10271      10282      10281      10391      10392      10403      10402  
     10271      10272      10283      10282      10392      10393      10404      10403  
     10272      10273      10284      10283      10393      10394      10405      10404  
     10273      10274      10285      10284      10394      10395      10406      10405  
     10286      10287      10298      10297      10407      10408      10419      10418  
     10287      10288      10299      10298      10408      10409      10420      10419  
     10288      10289      10300      10299      10409      10410      10421      10420  
     10289      10290      10301      10300      10410      10411      10422      10421  
     10290      10291      10302      10301      10411      10412      10423      10422  
     10291      10292      10303      10302      10412      10413      10424      10423  
     10292      10293      10304      10303      10413      10414      10425      10424  
     10293      10294      10305      10304      10414      10415      10426      10425  
     10294      10295      10306      10305      10415      10416      10427      10426  
     10295      10296      10307      10306      10416      10417      10428      10427  
     10297      10298      10309      10308      10418      10419      10430      10429  
     10298      10299      10310      10309      10419      10420      10431      10430  
     10299      10300      10311      10310      10420      10421      10432      10431  
     10300      10301      10312      10311      10421      10422      10433      10432  
     10301      10302      10313      10312      10422      10423      10434      10433  
     10302      10303      10314      10313      10423      10424      10435      10434  
     10303      10304      10315      10314      10424      10425      10436      10435  
     10304      10305      10316      10315      10425      10426      10437      10436  
     10305      10306      10317      10316      10426      10427      10438      10437  
     10306      10307      10318      10317      10427      10428      10439      10438  
     10308      10309      10320      10319      10429      10430      10441      10440  
     10309      10310      10321      10320      10430      10431      10442      10441  
     10310      10311      10322      10321      10431      10432      10443      10442  
     10311      10312      10323      10322      10432      10433      10444      10443  
     10312      10313      10324      10323      10433      10434      10445      10444  
     10313      10314      10325      10324      10434      10435      10446      10445  
     10314      10315      10326      10325      10435      10436      10447      10446  
     10315      10316      10327      10326      10436      10437      10448      10447  
     10316      10317      10328      10327      10437      10438      10449      10448  
     10317      10318      10329      10328      10438      10439      10450      10449  
     10319      10320      10331      10330      10440      10441      10452      10451  
     10320      10321      10332      10331      10441      10442      10453      10452  
     10321      10322      10333      10332      10442      10443      10454      10453  
     10322      10323      10334      10333      10443      10444      10455      10454  
     10323      10324      10335      10334      10444      10445      10456      10455  
     10324      10325      10336      10335      10445      10446      10457      10456  
     10325      10326      10337      10336      10446      10447      10458      10457  
     10326      10327      10338      10337      10447      10448      10459      10458  
     10327      10328      10339      10338      10448      10449      10460      10459  
     10328      10329      10340      10339      10449      10450      10461      10460  
     10330      10331      10342      10341      10451      10452      10463      10462  
     10331      10332      10343      10342      10452      10453      10464      10463  
     10332      10333      10344      10343      10453      10454      10465      10464  
     10333      10334      10345      10344      10454      10455      10466      10465  
     10334      10335      10346      10345      10455      10456      10467      10466  
     10335      10336      10347      10346      10456      10457      10468      10467  
     10336      10337      10348      10347      10457      10458      10469      10468  
     10337      10338      10349      10348      10458      10459      10470      10469  
     10338      10339      10350      10349      10459      10460      10471      10470  
     10339      10340      10351      10350      10460      10461      10472      10471  
     10341      10342      10353      10352      10462      10463      10474      10473  
     10342      10343      10354      10353      10463      10464      10475      10474  
     10343      10344      10355      10354      10464      10465      10476      10475  
     10344      10345      10356      10355      10465      10466      10477      10476  
     10345      10346      10357      10356      10466      10467      10478      10477  
     10346      10347      10358      10357      10467      10468      10479      10478  
     10347      10348      10359      10358      10468      10469      10480      10479  
     10348      10349      10360      10359      10469      10470      10481      10480  
     10349      10350      10361      10360      10470      10471      10482      10481  
     10350      10351      10362      10361      10471      10472      10483      10482  
     10352      10353      10364      10363      10473      10474      10485      10484  
     10353      10354      10365      10364      10474      10475      10486      10485  
     10354      10355      10366      10365      10475      10476      10487      10486  
     10355      10356      10367      10366      10476      10477      10488      10487  
     10356      10357      10368      10367      10477      10478      10489      10488  
     10357      10358      10369      10368      10478      10479      10490      10489  
     10358      10359      10370      10369      10479      10480      10491      10490  
     10359      10360      10371      10370      10480      10481      10492      10491  
     10360      10361      10372      10371      10481      10482      10493      10492  
     10361      10362      10373      10372      10482      10483      10494      10493  
     10363      10364      10375      10374      10484      10485      10496      10495  
     10364      10365      10376      10375      10485      10486      10497      10496  
     10365      10366      10377      10376      10486      10487      10498      10497  
     10366      10367      10378      10377      10487      10488      10499      10498  
     10367      10368      10379      10378      10488      10489      10500      10499  
     10368      10369      10380      10379      10489      10490      10501      10500  
     10369      10370      10381      10380      10490      10491      10502      10501  
     10370      10371      10382      10381      10491      10492      10503      10502  
     10371      10372      10383      10382      10492      10493      10504      10503  
     10372      10373      10384      10383      10493      10494      10505      10504  
     10374      10375      10386      10385      10495      10496      10507      10506  
     10375      10376      10387      10386      10496      10497      10508      10507  
     10376      10377      10388      10387      10497      10498      10509      10508  
     10377      10378      10389      10388      10498      10499      10510      10509  
     10378      10379      10390      10389      10499      10500      10511      10510  
     10379      10380      10391      10390      10500      10501      10512      10511  
     10380      10381      10392      10391      10501      10502      10513      10512  
     10381      10382      10393      10392      10502      10503      10514      10513  
     10382      10383      10394      10393      10503      10504      10515      10514  
     10383      10384      10395      10394      10504      10505      10516      10515  
     10385      10386      10397      10396      10506      10507      10518      10517  
     10386      10387      10398      10397      10507      10508      10519      10518  
     10387      10388      10399      10398      10508      10509      10520      10519  
     10388      10389      10400      10399      10509      10510      10521      10520  
     10389      10390      10401      10400      10510      10511      10522      10521  
     10390      10391      10402      10401      10511      10512      10523      10522  
     10391      10392      10403      10402      10512      10513      10524      10523  
     10392      10393      10404      10403      10513      10514      10525      10524  
     10393      10394      10405      10404      10514      10515      10526      10525  
     10394      10395      10406      10405      10515      10516      10527      10526  
     10407      10408      10419      10418      10528      10529      10540      10539  
     10408      10409      10420      10419      10529      10530      10541      10540  
     10409      10410      10421      10420      10530      10531      10542      10541  
     10410      10411      10422      10421      10531      10532      10543      10542  
     10411      10412      10423      10422      10532      10533      10544      10543  
     10412      10413      10424      10423      10533      10534      10545      10544  
     10413      10414      10425      10424      10534      10535      10546      10545  
     10414      10415      10426      10425      10535      10536      10547      10546  
     10415      10416      10427      10426      10536      10537      10548      10547  
     10416      10417      10428      10427      10537      10538      10549      10548  
     10418      10419      10430      10429      10539      10540      10551      10550  
     10419      10420      10431      10430      10540      10541      10552      10551  
     10420      10421      10432      10431      10541      10542      10553      10552  
     10421      10422      10433      10432      10542      10543      10554      10553  
     10422      10423      10434      10433      10543      10544      10555      10554  
     10423      10424      10435      10434      10544      10545      10556      10555  
     10424      10425      10436      10435      10545      10546      10557      10556  
     10425      10426      10437      10436      10546      10547      10558      10557  
     10426      10427      10438      10437      10547      10548      10559      10558  
     10427      10428      10439      10438      10548      10549      10560      10559  
     10429      10430      10441      10440      10550      10551      10562      10561  
     10430      10431      10442      10441      10551      10552      10563      10562  
     10431      10432      10443      10442      10552      10553      10564      10563  
     10432      10433      10444      10443      10553      10554      10565      10564  
     10433      10434      10445      10444      10554      10555      10566      10565  
     10434      10435      10446      10445      10555      10556      10567      10566  
     10435      10436      10447      10446      10556      10557      10568      10567  
     10436      10437      10448      10447      10557      10558      10569      10568  
     10437      10438      10449      10448      10558      10559      10570      10569  
     10438      10439      10450      10449      10559      10560      10571      10570  
     10440      10441      10452      10451      10561      10562      10573      10572  
     10441      10442      10453      10452      10562      10563      10574      10573  
     10442      10443      10454      10453      10563      10564      10575      10574  
     10443      10444      10455      10454      10564      10565      10576      10575  
     10444      10445      10456      10455      10565      10566      10577      10576  
     10445      10446      10457      10456      10566      10567      10578      10577  
     10446      10447      10458      10457      10567      10568      10579      10578  
     10447      10448      10459      10458      10568      10569      10580      10579  
     10448      10449      10460      10459      10569      10570      10581      10580  
     10449      10450      10461      10460      10570      10571      10582      10581  
     10451      10452      10463      10462      10572      10573      10584      10583  
     10452      10453      10464      10463      10573      10574      10585      10584  
     10453      10454      10465      10464      10574      10575      10586      10585  
     10454      10455      10466      10465      10575      10576      10587      10586  
     10455      10456      10467      10466      10576      10577      10588      10587  
     10456      10457      10468      10467      10577      10578      10589      10588  
     10457      10458      10469      10468      10578      10579      10590      10589  
     10458      10459      10470      10469      10579      10580      10591      10590  
     10459      10460      10471      10470      10580      10581      10592      10591  
     10460      10461      10472      10471      10581      10582      10593      10592  
     10462      10463      10474      10473      10583      10584      10595      10594  
     10463      10464      10475      10474      10584      10585      10596      10595  
     10464      10465      10476      10475      10585      10586      10597      10596  
     10465      10466      10477      10476      10586      10587      10598      10597  
     10466      10467      10478      10477      10587      10588      10599      10598  
     10467      10468      10479      10478      10588      10589      10600      10599  
     10468      10469      10480      10479      10589      10590      10601      10600  
     10469      10470      10481      10480      10590      10591      10602      10601  
     10470      10471      10482      10481      10591      10592      10603      10602  
     10471      10472      10483      10482      10592      10593      10604      10603  
     10473      10474      10485      10484      10594      10595      10606      10605  
     10474      10475      10486      10485      10595      10596      10607      10606  
     10475      10476      10487      10486      10596      10597      10608      10607  
     10476      10477      10488      10487      10597      10598      10609      10608  
     10477      10478      10489      10488      10598      10599      10610      10609  
     10478      10479      10490      10489      10599      10600      10611      10610  
     10479      10480      10491      10490      10600      10601      10612      10611  
     10480      10481      10492      10491      10601      10602      10613      10612  
     10481      10482      10493      10492      10602      10603      10614      10613  
     10482      10483      10494      10493      10603      10604      10615      10614  
     10484      10485      10496      10495      10605      10606      10617      10616  
     10485      10486      10497      10496      10606      10607      10618      10617  
     10486      10487      10498      10497      10607      10608      10619      10618  
     10487      10488      10499      10498      10608      10609      10620      10619  
     10488      10489      10500      10499      10609      10610      10621      10620  
     10489      10490      10501      10500      10610      10611      10622      10621  
     10490      10491      10502      10501      10611      10612      10623      10622  
     10491      10492      10503      10502      10612      10613      10624      10623  
     10492      10493      10504      10503      10613      10614      10625      10624  
     10493      10494      10505      10504      10614      10615      10626      10625  
     10495      10496      10507      10506      10616      10617      10628      10627  
     10496      10497      10508      10507      10617      10618      10629      10628  
     10497      10498      10509      10508      10618      10619      10630      10629  
     10498      10499      10510      10509      10619      10620      10631      10630  
     10499      10500      10511      10510      10620      10621      10632      10631  
     10500      10501      10512      10511      10621      10622      10633      10632  
     10501      10502      10513      10512      10622      10623      10634      10633  
     10502      10503      10514      10513      10623      10624      10635      10634  
     10503      10504      10515      10514      10624      10625      10636      10635  
     10504      10505      10516      10515      10625      10626      10637      10636  
     10506      10507      10518      10517      10627      10628      10639      10638  
     10507      10508      10519      10518      10628      10629      10640      10639  
     10508      10509      10520      10519      10629      10630      10641      10640  
     10509      10510      10521      10520      10630      10631      10642      10641  
     10510      10511      10522      10521      10631      10632      10643      10642  
     10511      10512      10523      10522      10632      10633      10644      10643  
     10512      10513      10524      10523      10633      10634      10645      10644  
     10513      10514      10525      10524      10634      10635      10646      10645  
     10514      10515      10526      10525      10635      10636      10647      10646  
     10515      10516      10527      10526      10636      10637      10648      10647  
     10528      10529      10540      10539      10649      10650      10661      10660  
     10529      10530      10541      10540      10650      10651      10662      10661  
     10530      10531      10542      10541      10651      10652      10663      10662  
     10531      10532      10543      10542      10652      10653      10664      10663  
     10532      10533      10544      10543      10653      10654      10665      10664  
     10533      10534      10545      10544      10654      10655      10666      10665  
     10534      10535      10546      10545      10655      10656      10667      10666  
     10535      10536      10547      10546      10656      10657      10668      10667  
     10536      10537      10548      10547      10657      10658      10669      10668  
     10537      10538      10549      10548      10658      10659      10670      10669  
     10539      10540      10551      10550      10660      10661      10672      10671  
     10540      10541      10552      10551      10661      10662      10673      10672  
     10541      10542      10553      10552      10662      10663      10674      10673  
     10542      10543      10554      10553      10663      10664      10675      10674  
     10543      10544      10555      10554      10664      10665      10676      10675  
     10544      10545      10556      10555      10665      10666      10677      10676  
     10545      10546      10557      10556      10666      10667      10678      10677  
     10546      10547      10558      10557      10667      10668      10679      10678  
     10547      10548      10559      10558      10668      10669      10680      10679  
     10548      10549      10560      10559      10669      10670      10681      10680  
     10550      10551      10562      10561      10671      10672      10683      10682  
     10551      10552      10563      10562      10672      10673      10684      10683  
     10552      10553      10564      10563      10673      10674      10685      10684  
     10553      10554      10565      10564      10674      10675      10686      10685  
     10554      10555      10566      10565      10675      10676      10687      10686  
     10555      10556      10567      10566      10676      10677      10688      10687  
     10556      10557      10568      10567      10677      10678      10689      10688  
     10557      10558      10569      10568      10678      10679      10690      10689  
     10558      10559      10570      10569      10679      10680      10691      10690  
     10559      10560      10571      10570      10680      10681      10692      10691  
     10561      10562      10573      10572      10682      10683      10694      10693  
     10562      10563      10574      10573      10683      10684      10695      10694  
     10563      10564      10575      10574      10684      10685      10696      10695  
     10564      10565      10576      10575      10685      10686      10697      10696  
     10565      10566      10577      10576      10686      10687      10698      10697  
     10566      10567      10578      10577      10687      10688      10699      10698  
     10567      10568      10579      10578      10688      10689      10700      10699  
     10568      10569      10580      10579      10689      10690      10701      10700  
     10569      10570      10581      10580      10690      10691      10702      10701  
     10570      10571      10582      10581      10691      10692      10703      10702  
     10572      10573      10584      10583      10693      10694      10705      10704  
     10573      10574      10585      10584      10694      10695      10706      10705  
     10574      10575      10586      10585      10695      10696      10707      10706  
     10575      10576      10587      10586      10696      10697      10708      10707  
     10576      10577      10588      10587      10697      10698      10709      10708  
     10577      10578      10589      10588      10698      10699      10710      10709  
     10578      10579      10590      10589      10699      10700      10711      10710  
     10579      10580      10591      10590      10700      10701      10712      10711  
     10580      10581      10592      10591      10701      10702      10713      10712  
     10581      10582      10593      10592      10702      10703      10714      10713  
     10583      10584      10595      10594      10704      10705      10716      10715  
     10584      10585      10596      10595      10705      10706      10717      10716  
     10585      10586      10597      10596      10706      10707      10718      10717  
     10586      10587      10598      10597      10707      10708      10719      10718  
     10587      10588      10599      10598      10708      10709      10720      10719  
     10588      10589      10600      10599      10709      10710      10721      10720  
     10589      10590      10601      10600      10710      10711      10722      10721  
     10590      10591      10602      10601      10711      10712      10723      10722  
     10591      10592      10603      10602      10712      10713      10724      10723  
     10592      10593      10604      10603      10713      10714      10725      10724  
     10594      10595      10606      10605      10715      10716      10727      10726  
     10595      10596      10607      10606      10716      10717      10728      10727  
     10596      10597      10608      10607      10717      10718      10729      10728  
     10597      10598      10609      10608      10718      10719      10730      10729  
     10598      10599      10610      10609      10719      10720      10731      10730  
     10599      10600      10611      10610      10720      10721      10732      10731  
     10600      10601      10612      10611      10721      10722      10733      10732  
     10601      10602      10613      10612      10722      10723      10734      10733  
     10602      10603      10614      10613      10723      10724      10735      10734  
     10603      10604      10615      10614      10724      10725      10736      10735  
     10605      10606      10617      10616      10726      10727      10738      10737  
     10606      10607      10618      10617      10727      10728      10739      10738  
     10607      10608      10619      10618      10728      10729      10740      10739  
     10608      10609      10620      10619      10729      10730      10741      10740  
     10609      10610      10621      10620      10730      10731      10742      10741  
     10610      10611      10622      10621      10731      10732      10743      10742  
     10611      10612      10623      10622      10732      10733      10744      10743  
     10612      10613      10624      10623      10733      10734      10745      10744  
     10613      10614      10625      10624      10734      10735      10746      10745  
     10614      10615      10626      10625      10735      10736      10747      10746  
     10616      10617      10628      10627      10737      10738      10749      10748  
     10617      10618      10629      10628      10738      10739      10750      10749  
     10618      10619      10630      10629      10739      10740      10751      10750  
     10619      10620      10631      10630      10740      10741      10752      10751  
     10620      10621      10632      10631      10741      10742      10753      10752  
     10621      10622      10633      10632      10742      10743      10754      10753  
     10622      10623      10634      10633      10743      10744      10755      10754  
     10623      10624      10635      10634      10744      10745      10756      10755  
     10624      10625      10636      10635      10745      10746      10757      10756  
     10625      10626      10637      10636      10746      10747      10758      10757  
     10627      10628      10639      10638      10748      10749      10760      10759  
     10628      10629      10640      10639      10749      10750      10761      10760  
     10629      10630      10641      10640      10750      10751      10762      10761  
     10630      10631      10642      10641      10751      10752      10763      10762  
     10631      10632      10643      10642      10752      10753      10764      10763  
     10632      10633      10644      10643      10753      10754      10765      10764  
     10633      10634      10645      10644      10754      10755      10766      10765  
     10634      10635      10646      10645      10755      10756      10767      10766  
     10635      10636      10647      10646      10756      10757      10768      10767  
     10636      10637      10648      10647      10757      10758      10769      10768  
     10649      10650      10661      10660      10770      10771      10782      10781  
     10650      10651      10662      10661      10771      10772      10783      10782  
     10651      10652      10663      10662      10772      10773      10784      10783  
     10652      10653      10664      10663      10773      10774      10785      10784  
     10653      10654      10665      10664      10774      10775      10786      10785  
     10654      10655      10666      10665      10775      10776      10787      10786  
     10655      10656      10667      10666      10776      10777      10788      10787  
     10656      10657      10668      10667      10777      10778      10789      10788  
     10657      10658      10669      10668      10778      10779      10790      10789  
     10658      10659      10670      10669      10779      10780      10791      10790  
     10660      10661      10672      10671      10781      10782      10793      10792  
     10661      10662      10673      10672      10782      10783      10794      10793  
     10662      10663      10674      10673      10783      10784      10795      10794  
     10663      10664      10675      10674      10784      10785      10796      10795  
     10664      10665      10676      10675      10785      10786      10797      10796  
     10665      10666      10677      10676      10786      10787      10798      10797  
     10666      10667      10678      10677      10787      10788      10799      10798  
     10667      10668      10679      10678      10788      10789      10800      10799  
     10668      10669      10680      10679      10789      10790      10801      10800  
     10669      10670      10681      10680      10790      10791      10802      10801  
     10671      10672      10683      10682      10792      10793      10804      10803  
     10672      10673      10684      10683      10793      10794      10805      10804  
     10673      10674      10685      10684      10794      10795      10806      10805  
     10674      10675      10686      10685      10795      10796      10807      10806  
     10675      10676      10687      10686      10796      10797      10808      10807  
     10676      10677      10688      10687      10797      10798      10809      10808  
     10677      10678      10689      10688      10798      10799      10810      10809  
     10678      10679      10690      10689      10799      10800      10811      10810  
     10679      10680      10691      10690      10800      10801      10812      10811  
     10680      10681      10692      10691      10801      10802      10813      10812  
     10682      10683      10694      10693      10803      10804      10815      10814  
     10683      10684      10695      10694      10804      10805      10816      10815  
     10684      10685      10696      10695      10805      10806      10817      10816  
     10685      10686      10697      10696      10806      10807      10818      10817  
     10686      10687      10698      10697      10807      10808      10819      10818  
     10687      10688      10699      10698      10808      10809      10820      10819  
     10688      10689      10700      10699      10809      10810      10821      10820  
     10689      10690      10701      10700      10810      10811      10822      10821  
     10690      10691      10702      10701      10811      10812      10823      10822  
     10691      10692      10703      10702      10812      10813      10824      10823  
     10693      10694      10705      10704      10814      10815      10826      10825  
     10694      10695      10706      10705      10815      10816      10827      10826  
     10695      10696      10707      10706      10816      10817      10828      10827  
     10696      10697      10708      10707      10817      10818      10829      10828  
     10697      10698      10709      10708      10818      10819      10830      10829  
     10698      10699      10710      10709      10819      10820      10831      10830  
     10699      10700      10711      10710      10820      10821      10832      10831  
     10700      10701      10712      10711      10821      10822      10833      10832  
     10701      10702      10713      10712      10822      10823      10834      10833  
     10702      10703      10714      10713      10823      10824      10835      10834  
     10704      10705      10716      10715      10825      10826      10837      10836  
     10705      10706      10717      10716      10826      10827      10838      10837  
     10706      10707      10718      10717      10827      10828      10839      10838  
     10707      10708      10719      10718      10828      10829      10840      10839  
     10708      10709      10720      10719      10829      10830      10841      10840  
     10709      10710      10721      10720      10830      10831      10842      10841  
     10710      10711      10722      10721      10831      10832      10843      10842  
     10711      10712      10723      10722      10832      10833      10844      10843  
     10712      10713      10724      10723      10833      10834      10845      10844  
     10713      10714      10725      10724      10834      10835      10846      10845  
     10715      10716      10727      10726      10836      10837      10848      10847  
     10716      10717      10728      10727      10837      10838      10849      10848  
     10717      10718      10729      10728      10838      10839      10850      10849  
     10718      10719      10730      10729      10839      10840      10851      10850  
     10719      10720      10731      10730      10840      10841      10852      10851  
     10720      10721      10732      10731      10841      10842      10853      10852  
     10721      10722      10733      10732      10842      10843      10854      10853  
     10722      10723      10734      10733      10843      10844      10855      10854  
     10723      10724      10735      10734      10844      10845      10856      10855  
     10724      10725      10736      10735      10845      10846      10857      10856  
     10726      10727      10738      10737      10847      10848      10859      10858  
     10727      10728      10739      10738      10848      10849      10860      10859  
     10728      10729      10740      10739      10849      10850      10861      10860  
     10729      10730      10741      10740      10850      10851      10862      10861  
     10730      10731      10742      10741      10851      10852      10863      10862  
     10731      10732      10743      10742      10852      10853      10864      10863  
     10732      10733      10744      10743      10853      10854      10865      10864  
     10733      10734      10745      10744      10854      10855      10866      10865  
     10734      10735      10746      10745      10855      10856      10867      10866  
     10735      10736      10747      10746      10856      10857      10868      10867  
     10737      10738      10749      10748      10858      10859      10870      10869  
     10738      10739      10750      10749      10859      10860      10871      10870  
     10739      10740      10751      10750      10860      10861      10872      10871  
     10740      10741      10752      10751      10861      10862      10873      10872  
     10741      10742      10753      10752      10862      10863      10874      10873  
     10742      10743      10754      10753      10863      10864      10875      10874  
     10743      10744      10755      10754      10864      10865      10876      10875  
     10744      10745      10756      10755      10865      10866      10877      10876  
     10745      10746      10757      10756      10866      10867      10878      10877  
     10746      10747      10758      10757      10867      10868      10879      10878  
     10748      10749      10760      10759      10869      10870      10881      10880  
     10749      10750      10761      10760      10870      10871      10882      10881  
     10750      10751      10762      10761      10871      10872      10883      10882  
     10751      10752      10763      10762      10872      10873      10884      10883  
     10752      10753      10764      10763      10873      10874      10885      10884  
     10753      10754      10765      10764      10874      10875      10886      10885  
     10754      10755      10766      10765      10875      10876      10887      10886  
     10755      10756      10767      10766      10876      10877      10888      10887  
     10756      10757      10768      10767      10877      10878      10889      10888  
     10757      10758      10769      10768      10878      10879      10890      10889  
     10770      10771      10782      10781      10891      10892      10903      10902  
     10771      10772      10783      10782      10892      10893      10904      10903  
     10772      10773      10784      10783      10893      10894      10905      10904  
     10773      10774      10785      10784      10894      10895      10906      10905  
     10774      10775      10786      10785      10895      10896      10907      10906  
     10775      10776      10787      10786      10896      10897      10908      10907  
     10776      10777      10788      10787      10897      10898      10909      10908  
     10777      10778      10789      10788      10898      10899      10910      10909  
     10778      10779      10790      10789      10899      10900      10911      10910  
     10779      10780      10791      10790      10900      10901      10912      10911  
     10781      10782      10793      10792      10902      10903      10914      10913  
     10782      10783      10794      10793      10903      10904      10915      10914  
     10783      10784      10795      10794      10904      10905      10916      10915  
     10784      10785      10796      10795      10905      10906      10917      10916  
     10785      10786      10797      10796      10906      10907      10918      10917  
     10786      10787      10798      10797      10907      10908      10919      10918  
     10787      10788      10799      10798      10908      10909      10920      10919  
     10788      10789      10800      10799      10909      10910      10921      10920  
     10789      10790      10801      10800      10910      10911      10922      10921  
     10790      10791      10802      10801      10911      10912      10923      10922  
     10792      10793      10804      10803      10913      10914      10925      10924  
     10793      10794      10805      10804      10914      10915      10926      10925  
     10794      10795      10806      10805      10915      10916      10927      10926  
     10795      10796      10807      10806      10916      10917      10928      10927  
     10796      10797      10808      10807      10917      10918      10929      10928  
     10797      10798      10809      10808      10918      10919      10930      10929  
     10798      10799      10810      10809      10919      10920      10931      10930  
     10799      10800      10811      10810      10920      10921      10932      10931  
     10800      10801      10812      10811      10921      10922      10933      10932  
     10801      10802      10813      10812      10922      10923      10934      10933  
     10803      10804      10815      10814      10924      10925      10936      10935  
     10804      10805      10816      10815      10925      10926      10937      10936  
     10805      10806      10817      10816      10926      10927      10938      10937  
     10806      10807      10818      10817      10927      10928      10939      10938  
     10807      10808      10819      10818      10928      10929      10940      10939  
     10808      10809      10820      10819      10929      10930      10941      10940  
     10809      10810      10821      10820      10930      10931      10942      10941  
     10810      10811      10822      10821      10931      10932      10943      10942  
     10811      10812      10823      10822      10932      10933      10944      10943  
     10812      10813      10824      10823      10933      10934      10945      10944  
     10814      10815      10826      10825      10935      10936      10947      10946  
     10815      10816      10827      10826      10936      10937      10948      10947  
     10816      10817      10828      10827      10937      10938      10949      10948  
     10817      10818      10829      10828      10938      10939      10950      10949  
     10818      10819      10830      10829      10939      10940      10951      10950  
     10819      10820      10831      10830      10940      10941      10952      10951  
     10820      10821      10832      10831      10941      10942      10953      10952  
     10821      10822      10833      10832      10942      10943      10954      10953  
     10822      10823      10834      10833      10943      10944      10955      10954  
     10823      10824      10835      10834      10944      10945      10956      10955  
     10825      10826      10837      10836      10946      10947      10958      10957  
     10826      10827      10838      10837      10947      10948      10959      10958  
     10827      10828      10839      10838      10948      10949      10960      10959  
     10828      10829      10840      10839      10949      10950      10961      10960  
     10829      10830      10841      10840      10950      10951      10962      10961  
     10830      10831      10842      10841      10951      10952      10963      10962  
     10831      10832      10843      10842      10952      10953      10964      10963  
     10832      10833      10844      10843      10953      10954      10965      10964  
     10833      10834      10845      10844      10954      10955      10966      10965  
     10834      10835      10846      10845      10955      10956      10967      10966  
     10836      10837      10848      10847      10957      10958      10969      10968  
     10837      10838      10849      10848      10958      10959      10970      10969  
     10838      10839      10850      10849      10959      10960      10971      10970  
     10839      10840      10851      10850      10960      10961      10972      10971  
     10840      10841      10852      10851      10961      10962      10973      10972  
     10841      10842      10853      10852      10962      10963      10974      10973  
     10842      10843      10854      10853      10963      10964      10975      10974  
     10843      10844      10855      10854      10964      10965      10976      10975  
     10844      10845      10856      10855      10965      10966      10977      10976  
     10845      10846      10857      10856      10966      10967      10978      10977  
     10847      10848      10859      10858      10968      10969      10980      10979  
     10848      10849      10860      10859      10969      10970      10981      10980  
     10849      10850      10861      10860      10970      10971      10982      10981  
     10850      10851      10862      10861      10971      10972      10983      10982  
     10851      10852      10863      10862      10972      10973      10984      10983  
     10852      10853      10864      10863      10973      10974      10985      10984  
     10853      10854      10865      10864      10974      10975      10986      10985  
     10854      10855      10866      10865      10975      10976      10987      10986  
     10855      10856      10867      10866      10976      10977      10988      10987  
     10856      10857      10868      10867      10977      10978      10989      10988  
     10858      10859      10870      10869      10979      10980      10991      10990  
     10859      10860      10871      10870      10980      10981      10992      10991  
     10860      10861      10872      10871      10981      10982      10993      10992  
     10861      10862      10873      10872      10982      10983      10994      10993  
     10862      10863      10874      10873      10983      10984      10995      10994  
     10863      10864      10875      10874      10984      10985      10996      10995  
     10864      10865      10876      10875      10985      10986      10997      10996  
     10865      10866      10877      10876      10986      10987      10998      10997  
     10866      10867      10878      10877      10987      10988      10999      10998  
     10867      10868      10879      10878      10988      10989      11000      10999  
     10869      10870      10881      10880      10990      10991      11002      11001  
     10870      10871      10882      10881      10991      10992      11003      11002  
     10871      10872      10883      10882      10992      10993      11004      11003  
     10872      10873      10884      10883      10993      10994      11005      11004  
     10873      10874      10885      10884      10994      10995      11006      11005  
     10874      10875      10886      10885      10995      10996      11007      11006  
     10875      10876      10887      10886      10996      10997      11008      11007  
     10876      10877      10888      10887      10997      10998      11009      11008  
     10877      10878      10889      10888      10998      10999      11010      11009  
     10878      10879      10890      10889      10999      11000      11011      11010  
     10891      10892      10903      10902      11012      11013      11024      11023  
     10892      10893      10904      10903      11013      11014      11025      11024  
     10893      10894      10905      10904      11014      11015      11026      11025  
     10894      10895      10906      10905      11015      11016      11027      11026  
     10895      10896      10907      10906      11016      11017      11028      11027  
     10896      10897      10908      10907      11017      11018      11029      11028  
     10897      10898      10909      10908      11018      11019      11030      11029  
     10898      10899      10910      10909      11019      11020      11031      11030  
     10899      10900      10911      10910      11020      11021      11032      11031  
     10900      10901      10912      10911      11021      11022      11033      11032  
     10902      10903      10914      10913      11023      11024      11035      11034  
     10903      10904      10915      10914      11024      11025      11036      11035  
     10904      10905      10916      10915      11025      11026      11037      11036  
     10905      10906      10917      10916      11026      11027      11038      11037  
     10906      10907      10918      10917      11027      11028      11039      11038  
     10907      10908      10919      10918      11028      11029      11040      11039  
     10908      10909      10920      10919      11029      11030      11041      11040  
     10909      10910      10921      10920      11030      11031      11042      11041  
     10910      10911      10922      10921      11031      11032      11043      11042  
     10911      10912      10923      10922      11032      11033      11044      11043  
     10913      10914      10925      10924      11034      11035      11046      11045  
     10914      10915      10926      10925      11035      11036      11047      11046  
     10915      10916      10927      10926      11036      11037      11048      11047  
     10916      10917      10928      10927      11037      11038      11049      11048  
     10917      10918      10929      10928      11038      11039      11050      11049  
     10918      10919      10930      10929      11039      11040      11051      11050  
     10919      10920      10931      10930      11040      11041      11052      11051  
     10920      10921      10932      10931      11041      11042      11053      11052  
     10921      10922      10933      10932      11042      11043      11054      11053  
     10922      10923      10934      10933      11043      11044      11055      11054  
     10924      10925      10936      10935      11045      11046      11057      11056  
     10925      10926      10937      10936      11046      11047      11058      11057  
     10926      10927      10938      10937      11047      11048      11059      11058  
     10927      10928      10939      10938      11048      11049      11060      11059  
     10928      10929      10940      10939      11049      11050      11061      11060  
     10929      10930      10941      10940      11050      11051      11062      11061  
     10930      10931      10942      10941      11051      11052      11063      11062  
     10931      10932      10943      10942      11052      11053      11064      11063  
     10932      10933      10944      10943      11053      11054      11065      11064  
     10933      10934      10945      10944      11054      11055      11066      11065  
     10935      10936      10947      10946      11056      11057      11068      11067  
     10936      10937      10948      10947      11057      11058      11069      11068  
     10937      10938      10949      10948      11058      11059      11070      11069  
     10938      10939      10950      10949      11059      11060      11071      11070  
     10939      10940      10951      10950      11060      11061      11072      11071  
     10940      10941      10952      10951      11061      11062      11073      11072  
     10941      10942      10953      10952      11062      11063      11074      11073  
     10942      10943      10954      10953      11063      11064      11075      11074  
     10943      10944      10955      10954      11064      11065      11076      11075  
     10944      10945      10956      10955      11065      11066      11077      11076  
     10946      10947      10958      10957      11067      11068      11079      11078  
     10947      10948      10959      10958      11068      11069      11080      11079  
     10948      10949      10960      10959      11069      11070      11081      11080  
     10949      10950      10961      10960      11070      11071      11082      11081  
     10950      10951      10962      10961      11071      11072      11083      11082  
     10951      10952      10963      10962      11072      11073      11084      11083  
     10952      10953      10964      10963      11073      11074      11085      11084  
     10953      10954      10965      10964      11074      11075      11086      11085  
     10954      10955      10966      10965      11075      11076      11087      11086  
     10955      10956      10967      10966      11076      11077      11088      11087  
     10957      10958      10969      10968      11078      11079      11090      11089  
     10958      10959      10970      10969      11079      11080      11091      11090  
     10959      10960      10971      10970      11080      11081      11092      11091  
     10960      10961      10972      10971      11081      11082      11093      11092  
     10961      10962      10973      10972      11082      11083      11094      11093  
     10962      10963      10974      10973      11083      11084      11095      11094  
     10963      10964      10975      10974      11084      11085      11096      11095  
     10964      10965      10976      10975      11085      11086      11097      11096  
     10965      10966      10977      10976      11086      11087      11098      11097  
     10966      10967      10978      10977      11087      11088      11099      11098  
     10968      10969      10980      10979      11089      11090      11101      11100  
     10969      10970      10981      10980      11090      11091      11102      11101  
     10970      10971      10982      10981      11091      11092      11103      11102  
     10971      10972      10983      10982      11092      11093      11104      11103  
     10972      10973      10984      10983      11093      11094      11105      11104  
     10973      10974      10985      10984      11094      11095      11106      11105  
     10974      10975      10986      10985      11095      11096      11107      11106  
     10975      10976      10987      10986      11096      11097      11108      11107  
     10976      10977      10988      10987      11097      11098      11109      11108  
     10977      10978      10989      10988      11098      11099      11110      11109  
     10979      10980      10991      10990      11100      11101      11112      11111  
     10980      10981      10992      10991      11101      11102      11113      11112  
     10981      10982      10993      10992      11102      11103      11114      11113  
     10982      10983      10994      10993      11103      11104      11115      11114  
     10983      10984      10995      10994      11104      11105      11116      11115  
     10984      10985      10996      10995      11105      11106      11117      11116  
     10985      10986      10997      10996      11106      11107      11118      11117  
     10986      10987      10998      10997      11107      11108      11119      11118  
     10987      10988      10999      10998      11108      11109      11120      11119  
     10988      10989      11000      10999      11109      11110      11121      11120  
     10990      10991      11002      11001      11111      11112      11123      11122  
     10991      10992      11003      11002      11112      11113      11124      11123  
     10992      10993      11004      11003      11113      11114      11125      11124  
     10993      10994      11005      11004      11114      11115      11126      11125  
     10994      10995      11006      11005      11115      11116      11127      11126  
     10995      10996      11007      11006      11116      11117      11128      11127  
     10996      10997      11008      11007      11117      11118      11129      11128  
     10997      10998      11009      11008      11118      11119      11130      11129  
     10998      10999      11010      11009      11119      11120      11131      11130  
     10999      11000      11011      11010      11120      11121      11132      11131  
     11012      11013      11024      11023      11133      11134      11145      11144  
     11013      11014      11025      11024      11134      11135      11146      11145  
     11014      11015      11026      11025      11135      11136      11147      11146  
     11015      11016      11027      11026      11136      11137      11148      11147  
     11016      11017      11028      11027      11137      11138      11149      11148  
     11017      11018      11029      11028      11138      11139      11150      11149  
     11018      11019      11030      11029      11139      11140      11151      11150  
     11019      11020      11031      11030      11140      11141      11152      11151  
     11020      11021      11032      11031      11141      11142      11153      11152  
     11021      11022      11033      11032      11142      11143      11154      11153  
     11023      11024      11035      11034      11144      11145      11156      11155  
     11024      11025      11036      11035      11145      11146      11157      11156  
     11025      11026      11037      11036      11146      11147      11158      11157  
     11026      11027      11038      11037      11147      11148      11159      11158  
     11027      11028      11039      11038      11148      11149      11160      11159  
     11028      11029      11040      11039      11149      11150      11161      11160  
     11029      11030      11041      11040      11150      11151      11162      11161  
     11030      11031      11042      11041      11151      11152      11163      11162  
     11031      11032      11043      11042      11152      11153      11164      11163  
     11032      11033      11044      11043      11153      11154      11165      11164  
     11034      11035      11046      11045      11155      11156      11167      11166  
     11035      11036      11047      11046      11156      11157      11168      11167  
     11036      11037      11048      11047      11157      11158      11169      11168  
     11037      11038      11049      11048      11158      11159      11170      11169  
     11038      11039      11050      11049      11159      11160      11171      11170  
     11039      11040      11051      11050      11160      11161      11172      11171  
     11040      11041      11052      11051      11161      11162      11173      11172  
     11041      11042      11053      11052      11162      11163      11174      11173  
     11042      11043      11054      11053      11163      11164      11175      11174  
     11043      11044      11055      11054      11164      11165      11176      11175  
     11045      11046      11057      11056      11166      11167      11178      11177  
     11046      11047      11058      11057      11167      11168      11179      11178  
     11047      11048      11059      11058      11168      11169      11180      11179  
     11048      11049      11060      11059      11169      11170      11181      11180  
     11049      11050      11061      11060      11170      11171      11182      11181  
     11050      11051      11062      11061      11171      11172      11183      11182  
     11051      11052      11063      11062      11172      11173      11184      11183  
     11052      11053      11064      11063      11173      11174      11185      11184  
     11053      11054      11065      11064      11174      11175      11186      11185  
     11054      11055      11066      11065      11175      11176      11187      11186  
     11056      11057      11068      11067      11177      11178      11189      11188  
     11057      11058      11069      11068      11178      11179      11190      11189  
     11058      11059      11070      11069      11179      11180      11191      11190  
     11059      11060      11071      11070      11180      11181      11192      11191  
     11060      11061      11072      11071      11181      11182      11193      11192  
     11061      11062      11073      11072      11182      11183      11194      11193  
     11062      11063      11074      11073      11183      11184      11195      11194  
     11063      11064      11075      11074      11184      11185      11196      11195  
     11064      11065      11076      11075      11185      11186      11197      11196  
     11065      11066      11077      11076      11186      11187      11198      11197  
     11067      11068      11079      11078      11188      11189      11200      11199  
     11068      11069      11080      11079      11189      11190      11201      11200  
     11069      11070      11081      11080      11190      11191      11202      11201  
     11070      11071      11082      11081      11191      11192      11203      11202  
     11071      11072      11083      11082      11192      11193      11204      11203  
     11072      11073      11084      11083      11193      11194      11205      11204  
     11073      11074      11085      11084      11194      11195      11206      11205  
     11074      11075      11086      11085      11195      11196      11207      11206  
     11075      11076      11087      11086      11196      11197      11208      11207  
     11076      11077      11088      11087      11197      11198      11209      11208  
     11078      11079      11090      11089      11199      11200      11211      11210  
     11079      11080      11091      11090      11200      11201      11212      11211  
     11080      11081      11092      11091      11201      11202      11213      11212  
     11081      11082      11093      11092      11202      11203      11214      11213  
     11082      11083      11094      11093      11203      11204      11215      11214  
     11083      11084      11095      11094      11204      11205      11216      11215  
     11084      11085      11096      11095      11205      11206      11217      11216  
     11085      11086      11097      11096      11206      11207      11218      11217  
     11086      11087      11098      11097      11207      11208      11219      11218  
     11087      11088      11099      11098      11208      11209      11220      11219  
     11089      11090      11101      11100      11210      11211      11222      11221  
     11090      11091      11102      11101      11211      11212      11223      11222  
     11091      11092      11103      11102      11212      11213      11224      11223  
     11092      11093      11104      11103      11213      11214      11225      11224  
     11093      11094      11105      11104      11214      11215      11226      11225  
     11094      11095      11106      11105      11215      11216      11227      11226  
     11095      11096      11107      11106      11216      11217      11228      11227  
     11096      11097      11108      11107      11217      11218      11229      11228  
     11097      11098      11109      11108      11218      11219      11230      11229  
     11098      11099      11110      11109      11219      11220      11231      11230  
     11100      11101      11112      11111      11221      11222      11233      11232  
     11101      11102      11113      11112      11222      11223      11234      11233  
     11102      11103      11114      11113      11223      11224      11235      11234  
     11103      11104      11115      11114      11224      11225      11236      11235  
     11104      11105      11116      11115      11225      11226      11237      11236  
     11105      11106      11117      11116      11226      11227      11238      11237  
     11106      11107      11118      11117      11227      11228      11239      11238  
     11107      11108      11119      11118      11228      11229      11240      11239  
     11108      11109      11120      11119      11229      11230      11241      11240  
     11109      11110      11121      11120      11230      11231      11242      11241  
     11111      11112      11123      11122      11232      11233      11244      11243  
     11112      11113      11124      11123      11233      11234      11245      11244  
     11113      11114      11125      11124      11234      11235      11246      11245  
     11114      11115      11126      11125      11235      11236      11247      11246  
     11115      11116      11127      11126      11236      11237      11248      11247  
     11116      11117      11128      11127      11237      11238      11249      11248  
     11117      11118      11129      11128      11238      11239      11250      11249  
     11118      11119      11130      11129      11239      11240      11251      11250  
     11119      11120      11131      11130      11240      11241      11252      11251  
     11120      11121      11132      11131      11241      11242      11253      11252  
     11133      11134      11145      11144      11254      11255      11266      11265  
     11134      11135      11146      11145      11255      11256      11267      11266  
     11135      11136      11147      11146      11256      11257      11268      11267  
     11136      11137      11148      11147      11257      11258      11269      11268  
     11137      11138      11149      11148      11258      11259      11270      11269  
     11138      11139      11150      11149      11259      11260      11271      11270  
     11139      11140      11151      11150      11260      11261      11272      11271  
     11140      11141      11152      11151      11261      11262      11273      11272  
     11141      11142      11153      11152      11262      11263      11274      11273  
     11142      11143      11154      11153      11263      11264      11275      11274  
     11144      11145      11156      11155      11265      11266      11277      11276  
     11145      11146      11157      11156      11266      11267      11278      11277  
     11146      11147      11158      11157      11267      11268      11279      11278  
     11147      11148      11159      11158      11268      11269      11280      11279  
     11148      11149      11160      11159      11269      11270      11281      11280  
     11149      11150      11161      11160      11270      11271      11282      11281  
     11150      11151      11162      11161      11271      11272      11283      11282  
     11151      11152      11163      11162      11272      11273      11284      11283  
     11152      11153      11164      11163      11273      11274      11285      11284  
     11153      11154      11165      11164      11274      11275      11286      11285  
     11155      11156      11167      11166      11276      11277      11288      11287  
     11156      11157      11168      11167      11277      11278      11289      11288  
     11157      11158      11169      11168      11278      11279      11290      11289  
     11158      11159      11170      11169      11279      11280      11291      11290  
     11159      11160      11171      11170      11280      11281      11292      11291  
     11160      11161      11172      11171      11281      11282      11293      11292  
     11161      11162      11173      11172      11282      11283      11294      11293  
     11162      11163      11174      11173      11283      11284      11295      11294  
     11163      11164      11175      11174      11284      11285      11296      11295  
     11164      11165      11176      11175      11285      11286      11297      11296  
     11166      11167      11178      11177      11287      11288      11299      11298  
     11167      11168      11179      11178      11288      11289      11300      11299  
     11168      11169      11180      11179      11289      11290      11301      11300  
     11169      11170      11181      11180      11290      11291      11302      11301  
     11170      11171      11182      11181      11291      11292      11303      11302  
     11171      11172      11183      11182      11292      11293      11304      11303  
     11172      11173      11184      11183      11293      11294      11305      11304  
     11173      11174      11185      11184      11294      11295      11306      11305  
     11174      11175      11186      11185      11295      11296      11307      11306  
     11175      11176      11187      11186      11296      11297      11308      11307  
     11177      11178      11189      11188      11298      11299      11310      11309  
     11178      11179      11190      11189      11299      11300      11311      11310  
     11179      11180      11191      11190      11300      11301      11312      11311  
     11180      11181      11192      11191      11301      11302      11313      11312  
     11181      11182      11193      11192      11302      11303      11314      11313  
     11182      11183      11194      11193      11303      11304      11315      11314  
     11183      11184      11195      11194      11304      11305      11316      11315  
     11184      11185      11196      11195      11305      11306      11317      11316  
     11185      11186      11197      11196      11306      11307      11318      11317  
     11186      11187      11198      11197      11307      11308      11319      11318  
     11188      11189      11200      11199      11309      11310      11321      11320  
     11189      11190      11201      11200      11310      11311      11322      11321  
     11190      11191      11202      11201      11311      11312      11323      11322  
     11191      11192      11203      11202      11312      11313      11324      11323  
     11192      11193      11204      11203      11313      11314      11325      11324  
     11193      11194      11205      11204      11314      11315      11326      11325  
     11194      11195      11206      11205      11315      11316      11327      11326  
     11195      11196      11207      11206      11316      11317      11328      11327  
     11196      11197      11208      11207      11317      11318      11329      11328  
     11197      11198      11209      11208      11318      11319      11330      11329  
     11199      11200      11211      11210      11320      11321      11332      11331  
     11200      11201      11212      11211      11321      11322      11333      11332  
     11201      11202      11213      11212      11322      11323      11334      11333  
     11202      11203      11214      11213      11323      11324      11335      11334  
     11203      11204      11215      11214      11324      11325      11336      11335  
     11204      11205      11216      11215      11325      11326      11337      11336  
     11205      11206      11217      11216      11326      11327      11338      11337  
     11206      11207      11218      11217      11327      11328      11339      11338  
     11207      11208      11219      11218      11328      11329      11340      11339  
     11208      11209      11220      11219      11329      11330      11341      11340  
     11210      11211      11222      11221      11331      11332      11343      11342  
     11211      11212      11223      11222      11332      11333      11344      11343  
     11212      11213      11224      11223      11333      11334      11345      11344  
     11213      11214      11225      11224      11334      11335      11346      11345  
     11214      11215      11226      11225      11335      11336      11347      11346  
     11215      11216      11227      11226      11336      11337      11348      11347  
     11216      11217      11228      11227      11337      11338      11349      11348  
     11217      11218      11229      11228      11338      11339      11350      11349  
     11218      11219      11230      11229      11339      11340      11351      11350  
     11219      11220      11231      11230      11340      11341      11352      11351  
     11221      11222      11233      11232      11342      11343      11354      11353  
     11222      11223      11234      11233      11343      11344      11355      11354  
     11223      11224      11235      11234      11344      11345      11356      11355  
     11224      11225      11236      11235      11345      11346      11357      11356  
     11225      11226      11237      11236      11346      11347      11358      11357  
     11226      11227      11238      11237      11347      11348      11359      11358  
     11227      11228      11239      11238      11348      11349      11360      11359  
     11228      11229      11240      11239      11349      11350      11361      11360  
     11229      11230      11241      11240      11350      11351      11362      11361  
     11230      11231      11242      11241      11351      11352      11363      11362  
     11232      11233      11244      11243      11353      11354      11365      11364  
     11233      11234      11245      11244      11354      11355      11366      11365  
     11234      11235      11246      11245      11355      11356      11367      11366  
     11235      11236      11247      11246      11356      11357      11368      11367  
     11236      11237      11248      11247      11357      11358      11369      11368  
     11237      11238      11249      11248      11358      11359      11370      11369  
     11238      11239      11250      11249      11359      11360      11371      11370  
     11239      11240      11251      11250      11360      11361      11372      11371  
     11240      11241      11252      11251      11361      11362      11373      11372  
     11241      11242      11253      11252      11362      11363      11374      11373  
     11254      11255      11266      11265      11375      11376      11387      11386  
     11255      11256      11267      11266      11376      11377      11388      11387  
     11256      11257      11268      11267      11377      11378      11389      11388  
     11257      11258      11269      11268      11378      11379      11390      11389  
     11258      11259      11270      11269      11379      11380      11391      11390  
     11259      11260      11271      11270      11380      11381      11392      11391  
     11260      11261      11272      11271      11381      11382      11393      11392  
     11261      11262      11273      11272      11382      11383      11394      11393  
     11262      11263      11274      11273      11383      11384      11395      11394  
     11263      11264      11275      11274      11384      11385      11396      11395  
     11265      11266      11277      11276      11386      11387      11398      11397  
     11266      11267      11278      11277      11387      11388      11399      11398  
     11267      11268      11279      11278      11388      11389      11400      11399  
     11268      11269      11280      11279      11389      11390      11401      11400  
     11269      11270      11281      11280      11390      11391      11402      11401  
     11270      11271      11282      11281      11391      11392      11403      11402  
     11271      11272      11283      11282      11392      11393      11404      11403  
     11272      11273      11284      11283      11393      11394      11405      11404  
     11273      11274      11285      11284      11394      11395      11406      11405  
     11274      11275      11286      11285      11395      11396      11407      11406  
     11276      11277      11288      11287      11397      11398      11409      11408  
     11277      11278      11289      11288      11398      11399      11410      11409  
     11278      11279      11290      11289      11399      11400      11411      11410  
     11279      11280      11291      11290      11400      11401      11412      11411  
     11280      11281      11292      11291      11401      11402      11413      11412  
     11281      11282      11293      11292      11402      11403      11414      11413  
     11282      11283      11294      11293      11403      11404      11415      11414  
     11283      11284      11295      11294      11404      11405      11416      11415  
     11284      11285      11296      11295      11405      11406      11417      11416  
     11285      11286      11297      11296      11406      11407      11418      11417  
     11287      11288      11299      11298      11408      11409      11420      11419  
     11288      11289      11300      11299      11409      11410      11421      11420  
     11289      11290      11301      11300      11410      11411      11422      11421  
     11290      11291      11302      11301      11411      11412      11423      11422  
     11291      11292      11303      11302      11412      11413      11424      11423  
     11292      11293      11304      11303      11413      11414      11425      11424  
     11293      11294      11305      11304      11414      11415      11426      11425  
     11294      11295      11306      11305      11415      11416      11427      11426  
     11295      11296      11307      11306      11416      11417      11428      11427  
     11296      11297      11308      11307      11417      11418      11429      11428  
     11298      11299      11310      11309      11419      11420      11431      11430  
     11299      11300      11311      11310      11420      11421      11432      11431  
     11300      11301      11312      11311      11421      11422      11433      11432  
     11301      11302      11313      11312      11422      11423      11434      11433  
     11302      11303      11314      11313      11423      11424      11435      11434  
     11303      11304      11315      11314      11424      11425      11436      11435  
     11304      11305      11316      11315      11425      11426      11437      11436  
     11305      11306      11317      11316      11426      11427      11438      11437  
     11306      11307      11318      11317      11427      11428      11439      11438  
     11307      11308      11319      11318      11428      11429      11440      11439  
     11309      11310      11321      11320      11430      11431      11442      11441  
     11310      11311      11322      11321      11431      11432      11443      11442  
     11311      11312      11323      11322      11432      11433      11444      11443  
     11312      11313      11324      11323      11433      11434      11445      11444  
     11313      11314      11325      11324      11434      11435      11446      11445  
     11314      11315      11326      11325      11435      11436      11447      11446  
     11315      11316      11327      11326      11436      11437      11448      11447  
     11316      11317      11328      11327      11437      11438      11449      11448  
     11317      11318      11329      11328      11438      11439      11450      11449  
     11318      11319      11330      11329      11439      11440      11451      11450  
     11320      11321      11332      11331      11441      11442      11453      11452  
     11321      11322      11333      11332      11442      11443      11454      11453  
     11322      11323      11334      11333      11443      11444      11455      11454  
     11323      11324      11335      11334      11444      11445      11456      11455  
     11324      11325      11336      11335      11445      11446      11457      11456  
     11325      11326      11337      11336      11446      11447      11458      11457  
     11326      11327      11338      11337      11447      11448      11459      11458  
     11327      11328      11339      11338      11448      11449      11460      11459  
     11328      11329      11340      11339      11449      11450      11461      11460  
     11329      11330      11341      11340      11450      11451      11462      11461  
     11331      11332      11343      11342      11452      11453      11464      11463  
     11332      11333      11344      11343      11453      11454      11465      11464  
     11333      11334      11345      11344      11454      11455      11466      11465  
     11334      11335      11346      11345      11455      11456      11467      11466  
     11335      11336      11347      11346      11456      11457      11468      11467  
     11336      11337      11348      11347      11457      11458      11469      11468  
     11337      11338      11349      11348      11458      11459      11470      11469  
     11338      11339      11350      11349      11459      11460      11471      11470  
     11339      11340      11351      11350      11460      11461      11472      11471  
     11340      11341      11352      11351      11461      11462      11473      11472  
     11342      11343      11354      11353      11463      11464      11475      11474  
     11343      11344      11355      11354      11464      11465      11476      11475  
     11344      11345      11356      11355      11465      11466      11477      11476  
     11345      11346      11357      11356      11466      11467      11478      11477  
     11346      11347      11358      11357      11467      11468      11479      11478  
     11347      11348      11359      11358      11468      11469      11480      11479  
     11348      11349      11360      11359      11469      11470      11481      11480  
     11349      11350      11361      11360      11470      11471      11482      11481  
     11350      11351      11362      11361      11471      11472      11483      11482  
     11351      11352      11363      11362      11472      11473      11484      11483  
     11353      11354      11365      11364      11474      11475      11486      11485  
     11354      11355      11366      11365      11475      11476      11487      11486  
     11355      11356      11367      11366      11476      11477      11488      11487  
     11356      11357      11368      11367      11477      11478      11489      11488  
     11357      11358      11369      11368      11478      11479      11490      11489  
     11358      11359      11370      11369      11479      11480      11491      11490  
     11359      11360      11371      11370      11480      11481      11492      11491  
     11360      11361      11372      11371      11481      11482      11493      11492  
     11361      11362      11373      11372      11482      11483      11494      11493  
     11362      11363      11374      11373      11483      11484      11495      11494  
     11375      11376      11387      11386      11496      11497      11508      11507  
     11376      11377      11388      11387      11497      11498      11509      11508  
     11377      11378      11389      11388      11498      11499      11510      11509  
     11378      11379      11390      11389      11499      11500      11511      11510  
     11379      11380      11391      11390      11500      11501      11512      11511  
     11380      11381      11392      11391      11501      11502      11513      11512  
     11381      11382      11393      11392      11502      11503      11514      11513  
     11382      11383      11394      11393      11503      11504      11515      11514  
     11383      11384      11395      11394      11504      11505      11516      11515  
     11384      11385      11396      11395      11505      11506      11517      11516  
     11386      11387      11398      11397      11507      11508      11519      11518  
     11387      11388      11399      11398      11508      11509      11520      11519  
     11388      11389      11400      11399      11509      11510      11521      11520  
     11389      11390      11401      11400      11510      11511      11522      11521  
     11390      11391      11402      11401      11511      11512      11523      11522  
     11391      11392      11403      11402      11512      11513      11524      11523  
     11392      11393      11404      11403      11513      11514      11525      11524  
     11393      11394      11405      11404      11514      11515      11526      11525  
     11394      11395      11406      11405      11515      11516      11527      11526  
     11395      11396      11407      11406      11516      11517      11528      11527  
     11397      11398      11409      11408      11518      11519      11530      11529  
     11398      11399      11410      11409      11519      11520      11531      11530  
     11399      11400      11411      11410      11520      11521      11532      11531  
     11400      11401      11412      11411      11521      11522      11533      11532  
     11401      11402      11413      11412      11522      11523      11534      11533  
     11402      11403      11414      11413      11523      11524      11535      11534  
     11403      11404      11415      11414      11524      11525      11536      11535  
     11404      11405      11416      11415      11525      11526      11537      11536  
     11405      11406      11417      11416      11526      11527      11538      11537  
     11406      11407      11418      11417      11527      11528      11539      11538  
     11408      11409      11420      11419      11529      11530      11541      11540  
     11409      11410      11421      11420      11530      11531      11542      11541  
     11410      11411      11422      11421      11531      11532      11543      11542  
     11411      11412      11423      11422      11532      11533      11544      11543  
     11412      11413      11424      11423      11533      11534      11545      11544  
     11413      11414      11425      11424      11534      11535      11546      11545  
     11414      11415      11426      11425      11535      11536      11547      11546  
     11415      11416      11427      11426      11536      11537      11548      11547  
     11416      11417      11428      11427      11537      11538      11549      11548  
     11417      11418      11429      11428      11538      11539      11550      11549  
     11419      11420      11431      11430      11540      11541      11552      11551  
     11420      11421      11432      11431      11541      11542      11553      11552  
     11421      11422      11433      11432      11542      11543      11554      11553  
     11422      11423      11434      11433      11543      11544      11555      11554  
     11423      11424      11435      11434      11544      11545      11556      11555  
     11424      11425      11436      11435      11545      11546      11557      11556  
     11425      11426      11437      11436      11546      11547      11558      11557  
     11426      11427      11438      11437      11547      11548      11559      11558  
     11427      11428      11439      11438      11548      11549      11560      11559  
     11428      11429      11440      11439      11549      11550      11561      11560  
     11430      11431      11442      11441      11551      11552      11563      11562  
     11431      11432      11443      11442      11552      11553      11564      11563  
     11432      11433      11444      11443      11553      11554      11565      11564  
     11433      11434      11445      11444      11554      11555      11566      11565  
     11434      11435      11446      11445      11555      11556      11567      11566  
     11435      11436      11447      11446      11556      11557      11568      11567  
     11436      11437      11448      11447      11557      11558      11569      11568  
     11437      11438      11449      11448      11558      11559      11570      11569  
     11438      11439      11450      11449      11559      11560      11571      11570  
     11439      11440      11451      11450      11560      11561      11572      11571  
     11441      11442      11453      11452      11562      11563      11574      11573  
     11442      11443      11454      11453      11563      11564      11575      11574  
     11443      11444      11455      11454      11564      11565      11576      11575  
     11444      11445      11456      11455      11565      11566      11577      11576  
     11445      11446      11457      11456      11566      11567      11578      11577  
     11446      11447      11458      11457      11567      11568      11579      11578  
     11447      11448      11459      11458      11568      11569      11580      11579  
     11448      11449      11460      11459      11569      11570      11581      11580  
     11449      11450      11461      11460      11570      11571      11582      11581  
     11450      11451      11462      11461      11571      11572      11583      11582  
     11452      11453      11464      11463      11573      11574      11585      11584  
     11453      11454      11465      11464      11574      11575      11586      11585  
     11454      11455      11466      11465      11575      11576      11587      11586  
     11455      11456      11467      11466      11576      11577      11588      11587  
     11456      11457      11468      11467      11577      11578      11589      11588  
     11457      11458      11469      11468      11578      11579      11590      11589  
     11458      11459      11470      11469      11579      11580      11591      11590  
     11459      11460      11471      11470      11580      11581      11592      11591  
     11460      11461      11472      11471      11581      11582      11593      11592  
     11461      11462      11473      11472      11582      11583      11594      11593  
     11463      11464      11475      11474      11584      11585      11596      11595  
     11464      11465      11476      11475      11585      11586      11597      11596  
     11465      11466      11477      11476      11586      11587      11598      11597  
     11466      11467      11478      11477      11587      11588      11599      11598  
     11467      11468      11479      11478      11588      11589      11600      11599  
     11468      11469      11480      11479      11589      11590      11601      11600  
     11469      11470      11481      11480      11590      11591      11602      11601  
     11470      11471      11482      11481      11591      11592      11603      11602  
     11471      11472      11483      11482      11592      11593      11604      11603  
     11472      11473      11484      11483      11593      11594      11605      11604  
     11474      11475      11486      11485      11595      11596      11607      11606  
     11475      11476      11487      11486      11596      11597      11608      11607  
     11476      11477      11488      11487      11597      11598      11609      11608  
     11477      11478      11489      11488      11598      11599      11610      11609  
     11478      11479      11490      11489      11599      11600      11611      11610  
     11479      11480      11491      11490      11600      11601      11612      11611  
     11480      11481      11492      11491      11601      11602      11613      11612  
     11481      11482      11493      11492      11602      11603      11614      11613  
     11482      11483      11494      11493      11603      11604      11615      11614  
     11483      11484      11495      11494      11604      11605      11616      11615  
     11496      11497      11508      11507      11617      11618      11629      11628  
     11497      11498      11509      11508      11618      11619      11630      11629  
     11498      11499      11510      11509      11619      11620      11631      11630  
     11499      11500      11511      11510      11620      11621      11632      11631  
     11500      11501      11512      11511      11621      11622      11633      11632  
     11501      11502      11513      11512      11622      11623      11634      11633  
     11502      11503      11514      11513      11623      11624      11635      11634  
     11503      11504      11515      11514      11624      11625      11636      11635  
     11504      11505      11516      11515      11625      11626      11637      11636  
     11505      11506      11517      11516      11626      11627      11638      11637  
     11507      11508      11519      11518      11628      11629      11640      11639  
     11508      11509      11520      11519      11629      11630      11641      11640  
     11509      11510      11521      11520      11630      11631      11642      11641  
     11510      11511      11522      11521      11631      11632      11643      11642  
     11511      11512      11523      11522      11632      11633      11644      11643  
     11512      11513      11524      11523      11633      11634      11645      11644  
     11513      11514      11525      11524      11634      11635      11646      11645  
     11514      11515      11526      11525      11635      11636      11647      11646  
     11515      11516      11527      11526      11636      11637      11648      11647  
     11516      11517      11528      11527      11637      11638      11649      11648  
     11518      11519      11530      11529      11639      11640      11651      11650  
     11519      11520      11531      11530      11640      11641      11652      11651  
     11520      11521      11532      11531      11641      11642      11653      11652  
     11521      11522      11533      11532      11642      11643      11654      11653  
     11522      11523      11534      11533      11643      11644      11655      11654  
     11523      11524      11535      11534      11644      11645      11656      11655  
     11524      11525      11536      11535      11645      11646      11657      11656  
     11525      11526      11537      11536      11646      11647      11658      11657  
     11526      11527      11538      11537      11647      11648      11659      11658  
     11527      11528      11539      11538      11648      11649      11660      11659  
     11529      11530      11541      11540      11650      11651      11662      11661  
     11530      11531      11542      11541      11651      11652      11663      11662  
     11531      11532      11543      11542      11652      11653      11664      11663  
     11532      11533      11544      11543      11653      11654      11665      11664  
     11533      11534      11545      11544      11654      11655      11666      11665  
     11534      11535      11546      11545      11655      11656      11667      11666  
     11535      11536      11547      11546      11656      11657      11668      11667  
     11536      11537      11548      11547      11657      11658      11669      11668  
     11537      11538      11549      11548      11658      11659      11670      11669  
     11538      11539      11550      11549      11659      11660      11671      11670  
     11540      11541      11552      11551      11661      11662      11673      11672  
     11541      11542      11553      11552      11662      11663      11674      11673  
     11542      11543      11554      11553      11663      11664      11675      11674  
     11543      11544      11555      11554      11664      11665      11676      11675  
     11544      11545      11556      11555      11665      11666      11677      11676  
     11545      11546      11557      11556      11666      11667      11678      11677  
     11546      11547      11558      11557      11667      11668      11679      11678  
     11547      11548      11559      11558      11668      11669      11680      11679  
     11548      11549      11560      11559      11669      11670      11681      11680  
     11549      11550      11561      11560      11670      11671      11682      11681  
     11551      11552      11563      11562      11672      11673      11684      11683  
     11552      11553      11564      11563      11673      11674      11685      11684  
     11553      11554      11565      11564      11674      11675      11686      11685  
     11554      11555      11566      11565      11675      11676      11687      11686  
     11555      11556      11567      11566      11676      11677      11688      11687  
     11556      11557      11568      11567      11677      11678      11689      11688  
     11557      11558      11569      11568      11678      11679      11690      11689  
     11558      11559      11570      11569      11679      11680      11691      11690  
     11559      11560      11571      11570      11680      11681      11692      11691  
     11560      11561      11572      11571      11681      11682      11693      11692  
     11562      11563      11574      11573      11683      11684      11695      11694  
     11563      11564      11575      11574      11684      11685      11696      11695  
     11564      11565      11576      11575      11685      11686      11697      11696  
     11565      11566      11577      11576      11686      11687      11698      11697  
     11566      11567      11578      11577      11687      11688      11699      11698  
     11567      11568      11579      11578      11688      11689      11700      11699  
     11568      11569      11580      11579      11689      11690      11701      11700  
     11569      11570      11581      11580      11690      11691      11702      11701  
     11570      11571      11582      11581      11691      11692      11703      11702  
     11571      11572      11583      11582      11692      11693      11704      11703  
     11573      11574      11585      11584      11694      11695      11706      11705  
     11574      11575      11586      11585      11695      11696      11707      11706  
     11575      11576      11587      11586      11696      11697      11708      11707  
     11576      11577      11588      11587      11697      11698      11709      11708  
     11577      11578      11589      11588      11698      11699      11710      11709  
     11578      11579      11590      11589      11699      11700      11711      11710  
     11579      11580      11591      11590      11700      11701      11712      11711  
     11580      11581      11592      11591      11701      11702      11713      11712  
     11581      11582      11593      11592      11702      11703      11714      11713  
     11582      11583      11594      11593      11703      11704      11715      11714  
     11584      11585      11596      11595      11705      11706      11717      11716  
     11585      11586      11597      11596      11706      11707      11718      11717  
     11586      11587      11598      11597      11707      11708      11719      11718  
     11587      11588      11599      11598      11708      11709      11720      11719  
     11588      11589      11600      11599      11709      11710      11721      11720  
     11589      11590      11601      11600      11710      11711      11722      11721  
     11590      11591      11602      11601      11711      11712      11723      11722  
     11591      11592      11603      11602      11712      11713      11724      11723  
     11592      11593      11604      11603      11713      11714      11725      11724  
     11593      11594      11605      11604      11714      11715      11726      11725  
     11595      11596      11607      11606      11716      11717      11728      11727  
     11596      11597      11608      11607      11717      11718      11729      11728  
     11597      11598      11609      11608      11718      11719      11730      11729  
     11598      11599      11610      11609      11719      11720      11731      11730  
     11599      11600      11611      11610      11720      11721      11732      11731  
     11600      11601      11612      11611      11721      11722      11733      11732  
     11601      11602      11613      11612      11722      11723      11734      11733  
     11602      11603      11614      11613      11723      11724      11735      11734  
     11603      11604      11615      11614      11724      11725      11736      11735  
     11604      11605      11616      11615      11725      11726      11737      11736  
     11617      11618      11629      11628      11738      11739      11750      11749  
     11618      11619      11630      11629      11739      11740      11751      11750  
     11619      11620      11631      11630      11740      11741      11752      11751  
     11620      11621      11632      11631      11741      11742      11753      11752  
     11621      11622      11633      11632      11742      11743      11754      11753  
     11622      11623      11634      11633      11743      11744      11755      11754  
     11623      11624      11635      11634      11744      11745      11756      11755  
     11624      11625      11636      11635      11745      11746      11757      11756  
     11625      11626      11637      11636      11746      11747      11758      11757  
     11626      11627      11638      11637      11747      11748      11759      11758  
     11628      11629      11640      11639      11749      11750      11761      11760  
     11629      11630      11641      11640      11750      11751      11762      11761  
     11630      11631      11642      11641      11751      11752      11763      11762  
     11631      11632      11643      11642      11752      11753      11764      11763  
     11632      11633      11644      11643      11753      11754      11765      11764  
     11633      11634      11645      11644      11754      11755      11766      11765  
     11634      11635      11646      11645      11755      11756      11767      11766  
     11635      11636      11647      11646      11756      11757      11768      11767  
     11636      11637      11648      11647      11757      11758      11769      11768  
     11637      11638      11649      11648      11758      11759      11770      11769  
     11639      11640      11651      11650      11760      11761      11772      11771  
     11640      11641      11652      11651      11761      11762      11773      11772  
     11641      11642      11653      11652      11762      11763      11774      11773  
     11642      11643      11654      11653      11763      11764      11775      11774  
     11643      11644      11655      11654      11764      11765      11776      11775  
     11644      11645      11656      11655      11765      11766      11777      11776  
     11645      11646      11657      11656      11766      11767      11778      11777  
     11646      11647      11658      11657      11767      11768      11779      11778  
     11647      11648      11659      11658      11768      11769      11780      11779  
     11648      11649      11660      11659      11769      11770      11781      11780  
     11650      11651      11662      11661      11771      11772      11783      11782  
     11651      11652      11663      11662      11772      11773      11784      11783  
     11652      11653      11664      11663      11773      11774      11785      11784  
     11653      11654      11665      11664      11774      11775      11786      11785  
     11654      11655      11666      11665      11775      11776      11787      11786  
     11655      11656      11667      11666      11776      11777      11788      11787  
     11656      11657      11668      11667      11777      11778      11789      11788  
     11657      11658      11669      11668      11778      11779      11790      11789  
     11658      11659      11670      11669      11779      11780      11791      11790  
     11659      11660      11671      11670      11780      11781      11792      11791  
     11661      11662      11673      11672      11782      11783      11794      11793  
     11662      11663      11674      11673      11783      11784      11795      11794  
     11663      11664      11675      11674      11784      11785      11796      11795  
     11664      11665      11676      11675      11785      11786      11797      11796  
     11665      11666      11677      11676      11786      11787      11798      11797  
     11666      11667      11678      11677      11787      11788      11799      11798  
     11667      11668      11679      11678      11788      11789      11800      11799  
     11668      11669      11680      11679      11789      11790      11801      11800  
     11669      11670      11681      11680      11790      11791      11802      11801  
     11670      11671      11682      11681      11791      11792      11803      11802  
     11672      11673      11684      11683      11793      11794      11805      11804  
     11673      11674      11685      11684      11794      11795      11806      11805  
     11674      11675      11686      11685      11795      11796      11807      11806  
     11675      11676      11687      11686      11796      11797      11808      11807  
     11676      11677      11688      11687      11797      11798      11809      11808  
     11677      11678      11689      11688      11798      11799      11810      11809  
     11678      11679      11690      11689      11799      11800      11811      11810  
     11679      11680      11691      11690      11800      11801      11812      11811  
     11680      11681      11692      11691      11801      11802      11813      11812  
     11681      11682      11693      11692      11802      11803      11814      11813  
     11683      11684      11695      11694      11804      11805      11816      11815  
     11684      11685      11696      11695      11805      11806      11817      11816  
     11685      11686      11697      11696      11806      11807      11818      11817  
     11686      11687      11698      11697      11807      11808      11819      11818  
     11687      11688      11699      11698      11808      11809      11820      11819  
     11688      11689      11700      11699      11809      11810      11821      11820  
     11689      11690      11701      11700      11810      11811      11822      11821  
     11690      11691      11702      11701      11811      11812      11823      11822  
     11691      11692      11703      11702      11812      11813      11824      11823  
     11692      11693      11704      11703      11813      11814      11825      11824  
     11694      11695      11706      11705      11815      11816      11827      11826  
     11695      11696      11707      11706      11816      11817      11828      11827  
     11696      11697      11708      11707      11817      11818      11829      11828  
     11697      11698      11709      11708      11818      11819      11830      11829  
     11698      11699      11710      11709      11819      11820      11831      11830  
     11699      11700      11711      11710      11820      11821      11832      11831  
     11700      11701      11712      11711      11821      11822      11833      11832  
     11701      11702      11713      11712      11822      11823      11834      11833  
     11702      11703      11714      11713      11823      11824      11835      11834  
     11703      11704      11715      11714      11824      11825      11836      11835  
     11705      11706      11717      11716      11826      11827      11838      11837  
     11706      11707      11718      11717      11827      11828      11839      11838  
     11707      11708      11719      11718      11828      11829      11840      11839  
     11708      11709      11720      11719      11829      11830      11841      11840  
     11709      11710      11721      11720      11830      11831      11842      11841  
     11710      11711      11722      11721      11831      11832      11843      11842  
     11711      11712      11723      11722      11832      11833      11844      11843  
     11712      11713      11724      11723      11833      11834      11845      11844  
     11713      11714      11725      11724      11834      11835      11846      11845  
     11714      11715      11726      11725      11835      11836      11847      11846  
     11716      11717      11728      11727      11837      11838      11849      11848  
     11717      11718      11729      11728      11838      11839      11850      11849  
     11718      11719      11730      11729      11839      11840      11851      11850  
     11719      11720      11731      11730      11840      11841      11852      11851  
     11720      11721      11732      11731      11841      11842      11853      11852  
     11721      11722      11733      11732      11842      11843      11854      11853  
     11722      11723      11734      11733      11843      11844      11855      11854  
     11723      11724      11735      11734      11844      11845      11856      11855  
     11724      11725      11736      11735      11845      11846      11857      11856  
     11725      11726      11737      11736      11846      11847      11858      11857  
     11738      11739      11750      11749      11859      11860      11871      11870  
     11739      11740      11751      11750      11860      11861      11872      11871  
     11740      11741      11752      11751      11861      11862      11873      11872  
     11741      11742      11753      11752      11862      11863      11874      11873  
     11742      11743      11754      11753      11863      11864      11875      11874  
     11743      11744      11755      11754      11864      11865      11876      11875  
     11744      11745      11756      11755      11865      11866      11877      11876  
     11745      11746      11757      11756      11866      11867      11878      11877  
     11746      11747      11758      11757      11867      11868      11879      11878  
     11747      11748      11759      11758      11868      11869      11880      11879  
     11749      11750      11761      11760      11870      11871      11882      11881  
     11750      11751      11762      11761      11871      11872      11883      11882  
     11751      11752      11763      11762      11872      11873      11884      11883  
     11752      11753      11764      11763      11873      11874      11885      11884  
     11753      11754      11765      11764      11874      11875      11886      11885  
     11754      11755      11766      11765      11875      11876      11887      11886  
     11755      11756      11767      11766      11876      11877      11888      11887  
     11756      11757      11768      11767      11877      11878      11889      11888  
     11757      11758      11769      11768      11878      11879      11890      11889  
     11758      11759      11770      11769      11879      11880      11891      11890  
     11760      11761      11772      11771      11881      11882      11893      11892  
     11761      11762      11773      11772      11882      11883      11894      11893  
     11762      11763      11774      11773      11883      11884      11895      11894  
     11763      11764      11775      11774      11884      11885      11896      11895  
     11764      11765      11776      11775      11885      11886      11897      11896  
     11765      11766      11777      11776      11886      11887      11898      11897  
     11766      11767      11778      11777      11887      11888      11899      11898  
     11767      11768      11779      11778      11888      11889      11900      11899  
     11768      11769      11780      11779      11889      11890      11901      11900  
     11769      11770      11781      11780      11890      11891      11902      11901  
     11771      11772      11783      11782      11892      11893      11904      11903  
     11772      11773      11784      11783      11893      11894      11905      11904  
     11773      11774      11785      11784      11894      11895      11906      11905  
     11774      11775      11786      11785      11895      11896      11907      11906  
     11775      11776      11787      11786      11896      11897      11908      11907  
     11776      11777      11788      11787      11897      11898      11909      11908  
     11777      11778      11789      11788      11898      11899      11910      11909  
     11778      11779      11790      11789      11899      11900      11911      11910  
     11779      11780      11791      11790      11900      11901      11912      11911  
     11780      11781      11792      11791      11901      11902      11913      11912  
     11782      11783      11794      11793      11903      11904      11915      11914  
     11783      11784      11795      11794      11904      11905      11916      11915  
     11784      11785      11796      11795      11905      11906      11917      11916  
     11785      11786      11797      11796      11906      11907      11918      11917  
     11786      11787      11798      11797      11907      11908      11919      11918  
     11787      11788      11799      11798      11908      11909      11920      11919  
     11788      11789      11800      11799      11909      11910      11921      11920  
     11789      11790      11801      11800      11910      11911      11922      11921  
     11790      11791      11802      11801      11911      11912      11923      11922  
     11791      11792      11803      11802      11912      11913      11924      11923  
     11793      11794      11805      11804      11914      11915      11926      11925  
     11794      11795      11806      11805      11915      11916      11927      11926  
     11795      11796      11807      11806      11916      11917      11928      11927  
     11796      11797      11808      11807      11917      11918      11929      11928  
     11797      11798      11809      11808      11918      11919      11930      11929  
     11798      11799      11810      11809      11919      11920      11931      11930  
     11799      11800      11811      11810      11920      11921      11932      11931  
     11800      11801      11812      11811      11921      11922      11933      11932  
     11801      11802      11813      11812      11922      11923      11934      11933  
     11802      11803      11814      11813      11923      11924      11935      11934  
     11804      11805      11816      11815      11925      11926      11937      11936  
     11805      11806      11817      11816      11926      11927      11938      11937  
     11806      11807      11818      11817      11927      11928      11939      11938  
     11807      11808      11819      11818      11928      11929      11940      11939  
     11808      11809      11820      11819      11929      11930      11941      11940  
     11809      11810      11821      11820      11930      11931      11942      11941  
     11810      11811      11822      11821      11931      11932      11943      11942  
     11811      11812      11823      11822      11932      11933      11944      11943  
     11812      11813      11824      11823      11933      11934      11945      11944  
     11813      11814      11825      11824      11934      11935      11946      11945  
     11815      11816      11827      11826      11936      11937      11948      11947  
     11816      11817      11828      11827      11937      11938      11949      11948  
     11817      11818      11829      11828      11938      11939      11950      11949  
     11818      11819      11830      11829      11939      11940      11951      11950  
     11819      11820      11831      11830      11940      11941      11952      11951  
     11820      11821      11832      11831      11941      11942      11953      11952  
     11821      11822      11833      11832      11942      11943      11954      11953  
     11822      11823      11834      11833      11943      11944      11955      11954  
     11823      11824      11835      11834      11944      11945      11956      11955  
     11824      11825      11836      11835      11945      11946      11957      11956  
     11826      11827      11838      11837      11947      11948      11959      11958  
     11827      11828      11839      11838      11948      11949      11960      11959  
     11828      11829      11840      11839      11949      11950      11961      11960  
     11829      11830      11841      11840      11950      11951      11962      11961  
     11830      11831      11842      11841      11951      11952      11963      11962  
     11831      11832      11843      11842      11952      11953      11964      11963  
     11832      11833      11844      11843      11953      11954      11965      11964  
     11833      11834      11845      11844      11954      11955      11966      11965  
     11834      11835      11846      11845      11955      11956      11967      11966  
     11835      11836      11847      11846      11956      11957      11968      11967  
     11837      11838      11849      11848      11958      11959      11970      11969  
     11838      11839      11850      11849      11959      11960      11971      11970  
     11839      11840      11851      11850      11960      11961      11972      11971  
     11840      11841      11852      11851      11961      11962      11973      11972  
     11841      11842      11853      11852      11962      11963      11974      11973  
     11842      11843      11854      11853      11963      11964      11975      11974  
     11843      11844      11855      11854      11964      11965      11976      11975  
     11844      11845      11856      11855      11965      11966      11977      11976  
     11845      11846      11857      11856      11966      11967      11978      11977  
     11846      11847      11858      11857      11967      11968      11979      11978  
     11859      11860      11871      11870      11980      11981      11992      11991  
     11860      11861      11872      11871      11981      11982      11993      11992  
     11861      11862      11873      11872      11982      11983      11994      11993  
     11862      11863      11874      11873      11983      11984      11995      11994  
     11863      11864      11875      11874      11984      11985      11996      11995  
     11864      11865      11876      11875      11985      11986      11997      11996  
     11865      11866      11877      11876      11986      11987      11998      11997  
     11866      11867      11878      11877      11987      11988      11999      11998  
     11867      11868      11879      11878      11988      11989      12000      11999  
     11868      11869      11880      11879      11989      11990      12001      12000  
     11870      11871      11882      11881      11991      11992      12003      12002  
     11871      11872      11883      11882      11992      11993      12004      12003  
     11872      11873      11884      11883      11993      11994      12005      12004  
     11873      11874      11885      11884      11994      11995      12006      12005  
     11874      11875      11886      11885      11995      11996      12007      12006  
     11875      11876      11887      11886      11996      11997      12008      12007  
     11876      11877      11888      11887      11997      11998      12009      12008  
     11877      11878      11889      11888      11998      11999      12010      12009  
     11878      11879      11890      11889      11999      12000      12011      12010  
     11879      11880      11891      11890      12000      12001      12012      12011  
     11881      11882      11893      11892      12002      12003      12014      12013  
     11882      11883      11894      11893      12003      12004      12015      12014  
     11883      11884      11895      11894      12004      12005      12016      12015  
     11884      11885      11896      11895      12005      12006      12017      12016  
     11885      11886      11897      11896      12006      12007      12018      12017  
     11886      11887      11898      11897      12007      12008      12019      12018  
     11887      11888      11899      11898      12008      12009      12020      12019  
     11888      11889      11900      11899      12009      12010      12021      12020  
     11889      11890      11901      11900      12010      12011      12022      12021  
     11890      11891      11902      11901      12011      12012      12023      12022  
     11892      11893      11904      11903      12013      12014      12025      12024  
     11893      11894      11905      11904      12014      12015      12026      12025  
     11894      11895      11906      11905      12015      12016      12027      12026  
     11895      11896      11907      11906      12016      12017      12028      12027  
     11896      11897      11908      11907      12017      12018      12029      12028  
     11897      11898      11909      11908      12018      12019      12030      12029  
     11898      11899      11910      11909      12019      12020      12031      12030  
     11899      11900      11911      11910      12020      12021      12032      12031  
     11900      11901      11912      11911      12021      12022      12033      12032  
     11901      11902      11913      11912      12022      12023      12034      12033  
     11903      11904      11915      11914      12024      12025      12036      12035  
     11904      11905      11916      11915      12025      12026      12037      12036  
     11905      11906      11917      11916      12026      12027      12038      12037  
     11906      11907      11918      11917      12027      12028      12039      12038  
     11907      11908      11919      11918      12028      12029      12040      12039  
     11908      11909      11920      11919      12029      12030      12041      12040  
     11909      11910      11921      11920      12030      12031      12042      12041  
     11910      11911      11922      11921      12031      12032      12043      12042  
     11911      11912      11923      11922      12032      12033      12044      12043  
     11912      11913      11924      11923      12033      12034      12045      12044  
     11914      11915      11926      11925      12035      12036      12047      12046  
     11915      11916      11927      11926      12036      12037      12048      12047  
     11916      11917      11928      11927      12037      12038      12049      12048  
     11917      11918      11929      11928      12038      12039      12050      12049  
     11918      11919      11930      11929      12039      12040      12051      12050  
     11919      11920      11931      11930      12040      12041      12052      12051  
     11920      11921      11932      11931      12041      12042      12053      12052  
     11921      11922      11933      11932      12042      12043      12054      12053  
     11922      11923      11934      11933      12043      12044      12055      12054  
     11923      11924      11935      11934      12044      12045      12056      12055  
     11925      11926      11937      11936      12046      12047      12058      12057  
     11926      11927      11938      11937      12047      12048      12059      12058  
     11927      11928      11939      11938      12048      12049      12060      12059  
     11928      11929      11940      11939      12049      12050      12061      12060  
     11929      11930      11941      11940      12050      12051      12062      12061  
     11930      11931      11942      11941      12051      12052      12063      12062  
     11931      11932      11943      11942      12052      12053      12064      12063  
     11932      11933      11944      11943      12053      12054      12065      12064  
     11933      11934      11945      11944      12054      12055      12066      12065  
     11934      11935      11946      11945      12055      12056      12067      12066  
     11936      11937      11948      11947      12057      12058      12069      12068  
     11937      11938      11949      11948      12058      12059      12070      12069  
     11938      11939      11950      11949      12059      12060      12071      12070  
     11939      11940      11951      11950      12060      12061      12072      12071  
     11940      11941      11952      11951      12061      12062      12073      12072  
     11941      11942      11953      11952      12062      12063      12074      12073  
     11942      11943      11954      11953      12063      12064      12075      12074  
     11943      11944      11955      11954      12064      12065      12076      12075  
     11944      11945      11956      11955      12065      12066      12077      12076  
     11945      11946      11957      11956      12066      12067      12078      12077  
     11947      11948      11959      11958      12068      12069      12080      12079  
     11948      11949      11960      11959      12069      12070      12081      12080  
     11949      11950      11961      11960      12070      12071      12082      12081  
     11950      11951      11962      11961      12071      12072      12083      12082  
     11951      11952      11963      11962      12072      12073      12084      12083  
     11952      11953      11964      11963      12073      12074      12085      12084  
     11953      11954      11965      11964      12074      12075      12086      12085  
     11954      11955      11966      11965      12075      12076      12087      12086  
     11955      11956      11967      11966      12076      12077      12088      12087  
     11956      11957      11968      11967      12077      12078      12089      12088  
     11958      11959      11970      11969      12079      12080      12091      12090  
     11959      11960      11971      11970      12080      12081      12092      12091  
     11960      11961      11972      11971      12081      12082      12093      12092  
     11961      11962      11973      11972      12082      12083      12094      12093  
     11962      11963      11974      11973      12083      12084      12095      12094  
     11963      11964      11975      11974      12084      12085      12096      12095  
     11964      11965      11976      11975      12085      12086      12097      12096  
     11965      11966      11977      11976      12086      12087      12098      12097  
     11966      11967      11978      11977      12087      12088      12099      12098  
     11967      11968      11979      11978      12088      12089      12100      12099  
     11980      11981      11992      11991      12101      12102      12113      12112  
     11981      11982      11993      11992      12102      12103      12114      12113  
     11982      11983      11994      11993      12103      12104      12115      12114  
     11983      11984      11995      11994      12104      12105      12116      12115  
     11984      11985      11996      11995      12105      12106      12117      12116  
     11985      11986      11997      11996      12106      12107      12118      12117  
     11986      11987      11998      11997      12107      12108      12119      12118  
     11987      11988      11999      11998      12108      12109      12120      12119  
     11988      11989      12000      11999      12109      12110      12121      12120  
     11989      11990      12001      12000      12110      12111      12122      12121  
     11991      11992      12003      12002      12112      12113      12124      12123  
     11992      11993      12004      12003      12113      12114      12125      12124  
     11993      11994      12005      12004      12114      12115      12126      12125  
     11994      11995      12006      12005      12115      12116      12127      12126  
     11995      11996      12007      12006      12116      12117      12128      12127  
     11996      11997      12008      12007      12117      12118      12129      12128  
     11997      11998      12009      12008      12118      12119      12130      12129  
     11998      11999      12010      12009      12119      12120      12131      12130  
     11999      12000      12011      12010      12120      12121      12132      12131  
     12000      12001      12012      12011      12121      12122      12133      12132  
     12002      12003      12014      12013      12123      12124      12135      12134  
     12003      12004      12015      12014      12124      12125      12136      12135  
     12004      12005      12016      12015      12125      12126      12137      12136  
     12005      12006      12017      12016      12126      12127      12138      12137  
     12006      12007      12018      12017      12127      12128      12139      12138  
     12007      12008      12019      12018      12128      12129      12140      12139  
     12008      12009      12020      12019      12129      12130      12141      12140  
     12009      12010      12021      12020      12130      12131      12142      12141  
     12010      12011      12022      12021      12131      12132      12143      12142  
     12011      12012      12023      12022      12132      12133      12144      12143  
     12013      12014      12025      12024      12134      12135      12146      12145  
     12014      12015      12026      12025      12135      12136      12147      12146  
     12015      12016      12027      12026      12136      12137      12148      12147  
     12016      12017      12028      12027      12137      12138      12149      12148  
     12017      12018      12029      12028      12138      12139      12150      12149  
     12018      12019      12030      12029      12139      12140      12151      12150  
     12019      12020      12031      12030      12140      12141      12152      12151  
     12020      12021      12032      12031      12141      12142      12153      12152  
     12021      12022      12033      12032      12142      12143      12154      12153  
     12022      12023      12034      12033      12143      12144      12155      12154  
     12024      12025      12036      12035      12145      12146      12157      12156  
     12025      12026      12037      12036      12146      12147      12158      12157  
     12026      12027      12038      12037      12147      12148      12159      12158  
     12027      12028      12039      12038      12148      12149      12160      12159  
     12028      12029      12040      12039      12149      12150      12161      12160  
     12029      12030      12041      12040      12150      12151      12162      12161  
     12030      12031      12042      12041      12151      12152      12163      12162  
     12031      12032      12043      12042      12152      12153      12164      12163  
     12032      12033      12044      12043      12153      12154      12165      12164  
     12033      12034      12045      12044      12154      12155      12166      12165  
     12035      12036      12047      12046      12156      12157      12168      12167  
     12036      12037      12048      12047      12157      12158      12169      12168  
     12037      12038      12049      12048      12158      12159      12170      12169  
     12038      12039      12050      12049      12159      12160      12171      12170  
     12039      12040      12051      12050      12160      12161      12172      12171  
     12040      12041      12052      12051      12161      12162      12173      12172  
     12041      12042      12053      12052      12162      12163      12174      12173  
     12042      12043      12054      12053      12163      12164      12175      12174  
     12043      12044      12055      12054      12164      12165      12176      12175  
     12044      12045      12056      12055      12165      12166      12177      12176  
     12046      12047      12058      12057      12167      12168      12179      12178  
     12047      12048      12059      12058      12168      12169      12180      12179  
     12048      12049      12060      12059      12169      12170      12181      12180  
     12049      12050      12061      12060      12170      12171      12182      12181  
     12050      12051      12062      12061      12171      12172      12183      12182  
     12051      12052      12063      12062      12172      12173      12184      12183  
     12052      12053      12064      12063      12173      12174      12185      12184  
     12053      12054      12065      12064      12174      12175      12186      12185  
     12054      12055      12066      12065      12175      12176      12187      12186  
     12055      12056      12067      12066      12176      12177      12188      12187  
     12057      12058      12069      12068      12178      12179      12190      12189  
     12058      12059      12070      12069      12179      12180      12191      12190  
     12059      12060      12071      12070      12180      12181      12192      12191  
     12060      12061      12072      12071      12181      12182      12193      12192  
     12061      12062      12073      12072      12182      12183      12194      12193  
     12062      12063      12074      12073      12183      12184      12195      12194  
     12063      12064      12075      12074      12184      12185      12196      12195  
     12064      12065      12076      12075      12185      12186      12197      12196  
     12065      12066      12077      12076      12186      12187      12198      12197  
     12066      12067      12078      12077      12187      12188      12199      12198  
     12068      12069      12080      12079      12189      12190      12201      12200  
     12069      12070      12081      12080      12190      12191      12202      12201  
     12070      12071      12082      12081      12191      12192      12203      12202  
     12071      12072      12083      12082      12192      12193      12204      12203  
     12072      12073      12084      12083      12193      12194      12205      12204  
     12073      12074      12085      12084      12194      12195      12206      12205  
     12074      12075      12086      12085      12195      12196      12207      12206  
     12075      12076      12087      12086      12196      12197      12208      12207  
     12076      12077      12088      12087      12197      12198      12209      12208  
     12077      12078      12089      12088      12198      12199      12210      12209  
     12079      12080      12091      12090      12200      12201      12212      12211  
     12080      12081      12092      12091      12201      12202      12213      12212  
     12081      12082      12093      12092      12202      12203      12214      12213  
     12082      12083      12094      12093      12203      12204      12215      12214  
     12083      12084      12095      12094      12204      12205      12216      12215  
     12084      12085      12096      12095      12205      12206      12217      12216  
     12085      12086      12097      12096      12206      12207      12218      12217  
     12086      12087      12098      12097      12207      12208      12219      12218  
     12087      12088      12099      12098      12208      12209      12220      12219  
     12088      12089      12100      12099      12209      12210      12221      12220  
